     Program PWSCF v.5.0.2 starts on 22Mar2018 at 21:35:40

     Current dimensions of program PWSCF are:
     Max number of different atomic species (ntypx) = 10
     Max number of k-points (npk) =  40000
     Max angular momentum in pseudopotentials (lmaxx) =  3
     Waiting for input...
     Reading input from standard input

     Subspace diagonalization in iterative solution of the eigenvalue problem:
     a serial algorithm will be used

     bravais-lattice index     =            0
     lattice parameter (alat)  =      12.0168  a.u.
     unit-cell volume          =    1187.3413 (a.u.)^3
     number of atoms/cell      =            8
     number of atomic types    =            2
     number of electrons       =       170.00
     number of Kohn-Sham states=          102
     kinetic-energy cutoff     =      40.0000  Ry
     charge density cutoff     =     160.0000  Ry
     convergence threshold     =      1.0E-04
     mixing beta               =       0.7000
     number of iterations used =            8  plain     mixing
     Exchange-correlation      = SLA-PZ-NOGX-NOGC ( 1 1 0 0 0)
     EXX-fraction              =        0.00
     nstep                     =           50

     celldm(1)=  12.016801  celldm(2)=   0.000000  celldm(3)=   0.000000
     celldm(4)=   0.000000  celldm(5)=   0.000000  celldm(6)=   0.000000

     crystal axes: (cart. coord. in units of alat)
               a(1) = (   1.000000   0.000000   0.000000 )
               a(2) = (  -0.500000   0.866025   0.000000 )
               a(3) = (   0.000000   0.000000   0.790093 )

     reciprocal axes: (cart. coord. in units 2 pi/alat)
               b(1) = (  1.000000  0.577350  0.000000 )
               b(2) = (  0.000000  1.154701  0.000000 )
               b(3) = (  0.000000  0.000000  1.265674 )

     PseudoPot. # 1 for Tm read from file:
     /home/cwx6513/pp.La/Tm.UPF
     MD5 check sum: 245516e0878b5372ceeb9443ded2c4e1
     Pseudo is Norm-conserving, Zval = 23.0
     Generated in analytical, separable form
     Using radial grid of 1269 points,  6 beta functions with:
                l(1) =   0
                l(2) =   0
                l(3) =   1
                l(4) =   1
                l(5) =   2
                l(6) =   3

     PseudoPot. # 2 for Sm read from file:
     /home/cwx6513/pp.La/Sm.UPF
     MD5 check sum: 5079e8b144a06bfcdbc14fb02b96ab09
     Pseudo is Norm-conserving, Zval = 16.0
     Generated in analytical, separable form
     Using radial grid of 1259 points,  6 beta functions with:
                l(1) =   0
                l(2) =   0
                l(3) =   1
                l(4) =   1
                l(5) =   2
                l(6) =   3

     atomic species   valence    mass     pseudopotential
        Mg            23.00    24.30500     Tm( 1.00)
        Cd            16.00   112.41100     Sm( 1.00)

     24 Sym. Ops., with inversion, found (12 have fractional translation)

   Cartesian axes

     site n.     atom                  positions (alat units)
         1           Mg  tau(   1) = (   0.2478935   0.7204716   0.1975233  )
         2           Mg  tau(   2) = (   0.7478935   0.1455538   0.5925699  )
         3           Mg  tau(   3) = (   0.2521065   0.1455538   0.5925699  )
         4           Mg  tau(   4) = (  -0.2478935   0.7204716   0.1975233  )
         5           Mg  tau(   5) = (   0.0000000   0.2911075   0.1975233  )
         6           Mg  tau(   6) = (   0.5000000   0.5749179   0.5925699  )
         7           Cd  tau(   7) = (   0.5000005   0.2886748   0.1975233  )
         8           Cd  tau(   8) = (  -0.0000005   0.5773506   0.5925699  )

     number of k points=    64  gaussian smearing, width (Ry)=  0.1000
                       cart. coord. in units 2pi/alat
        k(    1) = (   0.0000000   0.0000000   0.0000000), wk =   0.0095238
        k(    2) = (   0.0000000   0.0000000   0.1808105), wk =   0.0190476
        k(    3) = (   0.0000000   0.0000000   0.3616210), wk =   0.0190476
        k(    4) = (   0.0000000   0.0000000   0.5424315), wk =   0.0190476
        k(    5) = (   0.0000000   0.1924501   0.0000000), wk =   0.0190476
        k(    6) = (   0.0000000   0.1924501   0.1808105), wk =   0.0380952
        k(    7) = (   0.0000000   0.1924501   0.3616210), wk =   0.0380952
        k(    8) = (   0.0000000   0.1924501   0.5424315), wk =   0.0380952
        k(    9) = (   0.0000000   0.3849002   0.0000000), wk =   0.0190476
        k(   10) = (   0.0000000   0.3849002   0.1808105), wk =   0.0380952
        k(   11) = (   0.0000000   0.3849002   0.3616210), wk =   0.0380952
        k(   12) = (   0.0000000   0.3849002   0.5424315), wk =   0.0380952
        k(   13) = (   0.0000000  -0.5773503   0.0000000), wk =   0.0095238
        k(   14) = (   0.0000000  -0.5773503   0.1808105), wk =   0.0190476
        k(   15) = (   0.0000000  -0.5773503   0.3616210), wk =   0.0190476
        k(   16) = (   0.0000000  -0.5773503   0.5424315), wk =   0.0190476
        k(   17) = (   0.2000000   0.1154701   0.0000000), wk =   0.0190476
        k(   18) = (   0.2000000   0.1154701   0.1808105), wk =   0.0380952
        k(   19) = (   0.2000000   0.1154701   0.3616210), wk =   0.0380952
        k(   20) = (   0.2000000   0.1154701   0.5424315), wk =   0.0380952
        k(   21) = (   0.2000000   0.3079201   0.0000000), wk =   0.0190476
        k(   22) = (   0.2000000   0.3079201   0.1808105), wk =   0.0380952
        k(   23) = (   0.2000000   0.3079201   0.3616210), wk =   0.0380952
        k(   24) = (   0.2000000   0.3079201   0.5424315), wk =   0.0380952
        k(   25) = (   0.2000000   0.5003702   0.0000000), wk =   0.0190476
        k(   26) = (   0.2000000   0.5003702   0.1808105), wk =   0.0380952
        k(   27) = (   0.2000000   0.5003702   0.3616210), wk =   0.0380952
        k(   28) = (   0.2000000   0.5003702   0.5424315), wk =   0.0380952
        k(   29) = (   0.2000000  -0.4618802   0.0000000), wk =   0.0190476
        k(   30) = (   0.2000000  -0.4618802   0.1808105), wk =   0.0380952
        k(   31) = (   0.2000000  -0.4618802   0.3616210), wk =   0.0380952
        k(   32) = (   0.2000000  -0.4618802   0.5424315), wk =   0.0380952
        k(   33) = (   0.2000000  -0.2694301   0.0000000), wk =   0.0190476
        k(   34) = (   0.2000000  -0.2694301   0.1808105), wk =   0.0380952
        k(   35) = (   0.2000000  -0.2694301   0.3616210), wk =   0.0380952
        k(   36) = (   0.2000000  -0.2694301   0.5424315), wk =   0.0380952
        k(   37) = (   0.2000000  -0.0769800   0.0000000), wk =   0.0190476
        k(   38) = (   0.2000000  -0.0769800   0.1808105), wk =   0.0380952
        k(   39) = (   0.2000000  -0.0769800   0.3616210), wk =   0.0380952
        k(   40) = (   0.2000000  -0.0769800   0.5424315), wk =   0.0380952
        k(   41) = (   0.4000000   0.2309401   0.0000000), wk =   0.0190476
        k(   42) = (   0.4000000   0.2309401   0.1808105), wk =   0.0380952
        k(   43) = (   0.4000000   0.2309401   0.3616210), wk =   0.0380952
        k(   44) = (   0.4000000   0.2309401   0.5424315), wk =   0.0380952
        k(   45) = (   0.4000000   0.4233902   0.0000000), wk =   0.0190476
        k(   46) = (   0.4000000   0.4233902   0.1808105), wk =   0.0380952
        k(   47) = (   0.4000000   0.4233902   0.3616210), wk =   0.0380952
        k(   48) = (   0.4000000   0.4233902   0.5424315), wk =   0.0380952
        k(   49) = (   0.4000000   0.6158403   0.0000000), wk =   0.0190476
        k(   50) = (   0.4000000   0.6158403   0.1808105), wk =   0.0380952
        k(   51) = (   0.4000000   0.6158403   0.3616210), wk =   0.0380952
        k(   52) = (   0.4000000   0.6158403   0.5424315), wk =   0.0380952
        k(   53) = (   0.4000000  -0.3464102   0.0000000), wk =   0.0190476
        k(   54) = (   0.4000000  -0.3464102   0.1808105), wk =   0.0380952
        k(   55) = (   0.4000000  -0.3464102   0.3616210), wk =   0.0380952
        k(   56) = (   0.4000000  -0.3464102   0.5424315), wk =   0.0380952
        k(   57) = (   0.4000000  -0.1539601   0.0000000), wk =   0.0190476
        k(   58) = (   0.4000000  -0.1539601   0.1808105), wk =   0.0380952
        k(   59) = (   0.4000000  -0.1539601   0.3616210), wk =   0.0380952
        k(   60) = (   0.4000000  -0.1539601   0.5424315), wk =   0.0380952
        k(   61) = (   0.4000000   0.0384900   0.0000000), wk =   0.0190476
        k(   62) = (   0.4000000   0.0384900   0.1808105), wk =   0.0380952
        k(   63) = (   0.4000000   0.0384900   0.3616210), wk =   0.0380952
        k(   64) = (   0.4000000   0.0384900   0.5424315), wk =   0.0380952

     Largest allocated arrays     est. size (Mb)     dimensions
     Largest temporary arrays     est. size (Mb)     dimensions

     Initial potential from superposition of free atoms

     Starting from uniform charge
     Starting wfc are    0 randomized atomic wfcs

     Self-consistent Calculation

     iteration #  1     ecut=    40.00 Ry     beta=0.70
     CG style diagonalization
     c_bands:  1 eigenvalues not converged
     c_bands:  1 eigenvalues not converged
     c_bands:  1 eigenvalues not converged
     c_bands:  1 eigenvalues not converged
     c_bands:  1 eigenvalues not converged
     c_bands:  1 eigenvalues not converged
     c_bands:  1 eigenvalues not converged
     c_bands:  1 eigenvalues not converged
     c_bands:  2 eigenvalues not converged
     c_bands:  1 eigenvalues not converged
     c_bands:  1 eigenvalues not converged
     c_bands:  1 eigenvalues not converged
     c_bands:  1 eigenvalues not converged
     c_bands:  1 eigenvalues not converged
     c_bands:  1 eigenvalues not converged
     ethr =  1.00E-02,  avg # of iterations = 13.8

     total energy              =   -1780.77135545 Ry
     Harris-Foulkes estimate   =   -3330.47377878 Ry
     estimated scf accuracy    <    1890.11076829 Ry

[...]

     iteration #  4     ecut=    40.00 Ry     beta=0.70
     CG style diagonalization
     ethr =  1.00E-02,  avg # of iterations =  7.5

[...]

     End of self-consistent calculation

          k = 0.0000 0.0000 0.0000 (  5047 PWs)   bands (ev):

   -85.8007 -85.8006 -85.7976 -85.7595 -85.7594 -85.7359 -44.5131 -44.4808
   -44.4768 -44.4679 -44.4679 -44.4490 -44.4490 -44.4335 -44.4335 -44.4208
   -44.4125 -44.4125 -44.3994 -44.3994 -44.3851 -44.3851 -44.3845 -44.3662
   -31.3151 -31.3139  -6.6556  -6.6405  -6.5561  -6.5561  -6.5431  -6.5431
     3.9534   4.0236   4.0236   4.1022   4.1999   4.2596   4.2977   4.2978
     4.3129   4.3129   4.4015   4.4433   4.4433   4.6620   4.7097   4.7097
     4.7772   4.7946   4.7946   4.8537   4.8538   4.9000   4.9000   5.0179
     5.0179   5.1351   5.1352   5.1384   5.2291   5.2554  10.6774  15.3856
    15.3857  15.5988  17.4256  17.4256  17.6316  19.0620  20.5976  21.2852
    21.2853  21.7938  21.7938  22.8019  22.8020  23.3285  23.3286  23.6579
    24.0556  24.0556  24.9403  24.9403  25.0735  25.9811  26.1637  26.1637
    27.2887  27.4396  28.0355  28.6137  28.6137  29.6024  30.4292  30.4293
    30.9954  31.1812  31.1813  31.1936  31.1939  31.9577

[...]

     the Fermi energy is    25.9124 ev

!    total energy              =   -2507.48070432 Ry
[...]
        k(   14) = (   0.0000000  -0.6084604   0.1896731), wk =   0.0190476
        k(   15) = (   0.0000000  -0.6084604   0.3793462), wk =   0.0190476
        k(   16) = (   0.0000000  -0.6084604   0.5690193), wk =   0.0190476
        k(   17) = (   0.2107768   0.1216921   0.0000000), wk =   0.0190476
        k(   18) = (   0.2107768   0.1216921   0.1896731), wk =   0.0380952
        k(   19) = (   0.2107768   0.1216921   0.3793462), wk =   0.0380952
        k(   20) = (   0.2107768   0.1216921   0.5690193), wk =   0.0380952
        k(   21) = (   0.2107768   0.3245122   0.0000000), wk =   0.0190476
        k(   22) = (   0.2107768   0.3245122   0.1896731), wk =   0.0380952
        k(   23) = (   0.2107768   0.3245122   0.3793462), wk =   0.0380952
        k(   24) = (   0.2107768   0.3245122   0.5690193), wk =   0.0380952
        k(   25) = (   0.2107768   0.5273323   0.0000000), wk =   0.0190476
        k(   26) = (   0.2107768   0.5273323   0.1896731), wk =   0.0380952
        k(   27) = (   0.2107768   0.5273323   0.3793462), wk =   0.0380952
        k(   28) = (   0.2107768   0.5273323   0.5690193), wk =   0.0380952
        k(   29) = (   0.2107768  -0.4867683   0.0000000), wk =   0.0190476
        k(   30) = (   0.2107768  -0.4867683   0.1896731), wk =   0.0380952
        k(   31) = (   0.2107768  -0.4867683   0.3793462), wk =   0.0380952
        k(   32) = (   0.2107768  -0.4867683   0.5690193), wk =   0.0380952
        k(   33) = (   0.2107768  -0.2839482   0.0000000), wk =   0.0190476
        k(   34) = (   0.2107768  -0.2839482   0.1896731), wk =   0.0380952
        k(   35) = (   0.2107768  -0.2839482   0.3793462), wk =   0.0380952
        k(   36) = (   0.2107768  -0.2839482   0.5690193), wk =   0.0380952
        k(   37) = (   0.2107768  -0.0811280   0.0000000), wk =   0.0190476
        k(   38) = (   0.2107768  -0.0811280   0.1896731), wk =   0.0380952
        k(   39) = (   0.2107768  -0.0811280   0.3793462), wk =   0.0380952
        k(   40) = (   0.2107768  -0.0811280   0.5690193), wk =   0.0380952
        k(   41) = (   0.4215537   0.2433841   0.0000000), wk =   0.0190476
        k(   42) = (   0.4215537   0.2433841   0.1896731), wk =   0.0380952
        k(   43) = (   0.4215537   0.2433841   0.3793462), wk =   0.0380952
        k(   44) = (   0.4215537   0.2433841   0.5690193), wk =   0.0380952
        k(   45) = (   0.4215537   0.4462043   0.0000000), wk =   0.0190476
        k(   46) = (   0.4215537   0.4462043   0.1896731), wk =   0.0380952
        k(   47) = (   0.4215537   0.4462043   0.3793462), wk =   0.0380952
        k(   48) = (   0.4215537   0.4462043   0.5690193), wk =   0.0380952
        k(   49) = (   0.4215537   0.6490244   0.0000000), wk =   0.0190476
        k(   50) = (   0.4215537   0.6490244   0.1896731), wk =   0.0380952
        k(   51) = (   0.4215537   0.6490244   0.3793462), wk =   0.0380952
        k(   52) = (   0.4215537   0.6490244   0.5690193), wk =   0.0380952
        k(   53) = (   0.4215537  -0.3650762   0.0000000), wk =   0.0190476
        k(   54) = (   0.4215537  -0.3650762   0.1896731), wk =   0.0380952
        k(   55) = (   0.4215537  -0.3650762   0.3793462), wk =   0.0380952
        k(   56) = (   0.4215537  -0.3650762   0.5690193), wk =   0.0380952
        k(   57) = (   0.4215537  -0.1622561   0.0000000), wk =   0.0190476
        k(   58) = (   0.4215537  -0.1622561   0.1896731), wk =   0.0380952
        k(   59) = (   0.4215537  -0.1622561   0.3793462), wk =   0.0380952
        k(   60) = (   0.4215537  -0.1622561   0.5690193), wk =   0.0380952
        k(   61) = (   0.4215537   0.0405640   0.0000000), wk =   0.0190476
        k(   62) = (   0.4215537   0.0405640   0.1896731), wk =   0.0380952
        k(   63) = (   0.4215537   0.0405640   0.3793462), wk =   0.0380952
        k(   64) = (   0.4215537   0.0405640   0.5690193), wk =   0.0380952

[...]

     The maximum number of steps has been reached.

     End of BFGS Geometry Optimization
Begin final coordinates
     new unit-cell volume =   1019.07862 a.u.^3 (   151.01187 Ang^3 )

CELL_PARAMETERS (alat= 12.01680127)
   0.948870811   0.000000000   0.000000000
  -0.474435406   0.821746227   0.000000000
   0.000000000   0.000000000   0.753175608

ATOMIC_POSITIONS (crystal)
Mg       0.654689040   0.827344520   0.250000000
Mg       0.827344520   0.172655480   0.750000000
Mg       0.345310960   0.172655480   0.750000000
Mg       0.172655480   0.827344520   0.250000000
Mg       0.172655480   0.345310960   0.250000000
Mg       0.827344520   0.654689040   0.750000000
Cd       0.666667000   0.333333000   0.250000000
Cd       0.333333000   0.666667000   0.750000000
End final coordinates

     A final scf calculation at the relaxed structure.
     The G-vectors are recalculated for the final unit cell
     Results may differ from those at the preceding step.

     bravais-lattice index     =            0
     lattice parameter (alat)  =      12.0168  a.u.
     unit-cell volume          =    1019.0786 (a.u.)^3
     number of atoms/cell      =            8
     number of atomic types    =            2
     number of electrons       =       170.00
     number of Kohn-Sham states=          102
     kinetic-energy cutoff     =      40.0000  Ry
     charge density cutoff     =     160.0000  Ry
     convergence threshold     =      1.0E-04
     mixing beta               =       0.7000
     number of iterations used =            8  plain     mixing
     Exchange-correlation      = SLA-PZ-NOGX-NOGC ( 1 1 0 0 0)
     EXX-fraction              =        0.00

     celldm(1)=  12.016801  celldm(2)=   0.000000  celldm(3)=   0.000000
     celldm(4)=   0.000000  celldm(5)=   0.000000  celldm(6)=   0.000000

     crystal axes: (cart. coord. in units of alat)
               a(1) = (   0.948871   0.000000   0.000000 )
               a(2) = (  -0.474435   0.821746   0.000000 )
               a(3) = (   0.000000   0.000000   0.753176 )

     reciprocal axes: (cart. coord. in units 2 pi/alat)
               b(1) = (  1.053884  0.608460  0.000000 )
               b(2) = (  0.000000  1.216921  0.000000 )
               b(3) = (  0.000000  0.000000  1.327712 )

     PseudoPot. # 1 for Tm read from file:
     /home/cwx6513/pp.La/Tm.UPF
     MD5 check sum: 245516e0878b5372ceeb9443ded2c4e1
     Pseudo is Norm-conserving, Zval = 23.0
     Generated in analytical, separable form
     Using radial grid of 1269 points,  6 beta functions with:
                l(1) =   0
                l(2) =   0
                l(3) =   1
                l(4) =   1
                l(5) =   2
                l(6) =   3

     PseudoPot. # 2 for Sm read from file:
     /home/cwx6513/pp.La/Sm.UPF
     MD5 check sum: 5079e8b144a06bfcdbc14fb02b96ab09
     Pseudo is Norm-conserving, Zval = 16.0
     Generated in analytical, separable form
     Using radial grid of 1259 points,  6 beta functions with:
                l(1) =   0
                l(2) =   0
                l(3) =   1
                l(4) =   1
                l(5) =   2
                l(6) =   3

     atomic species   valence    mass     pseudopotential
        Mg            23.00    24.30500     Tm( 1.00)
        Cd            16.00   112.41100     Sm( 1.00)

     24 Sym. Ops., with inversion, found (12 have fractional translation)

   Cartesian axes

     site n.     atom                  positions (alat units)
         1           Mg  tau(   1) = (   0.2286938   0.6798672   0.1882939  )
         2           Mg  tau(   2) = (   0.7031292   0.1418790   0.5648817  )
         3           Mg  tau(   3) = (   0.2457416   0.1418790   0.5648817  )
         4           Mg  tau(   4) = (  -0.2286938   0.6798672   0.1882939  )
         5           Mg  tau(   5) = (   0.0000000   0.2837580   0.1882939  )
         6           Mg  tau(   6) = (   0.4744354   0.5379882   0.5648817  )
         7           Cd  tau(   7) = (   0.4744359   0.2739151   0.1882939  )
         8           Cd  tau(   8) = (  -0.0000005   0.5478311   0.5648817  )

     number of k points=    64  gaussian smearing, width (Ry)=  0.1000
                       cart. coord. in units 2pi/alat
        k(    1) = (   0.0000000   0.0000000   0.0000000), wk =   0.0095238
        k(    2) = (   0.0000000   0.0000000   0.1896731), wk =   0.0190476
        k(    3) = (   0.0000000   0.0000000   0.3793462), wk =   0.0190476
        k(    4) = (   0.0000000   0.0000000   0.5690193), wk =   0.0190476
        k(    5) = (   0.0000000   0.2028201   0.0000000), wk =   0.0190476
        k(    6) = (   0.0000000   0.2028201   0.1896731), wk =   0.0380952
        k(    7) = (   0.0000000   0.2028201   0.3793462), wk =   0.0380952
        k(    8) = (   0.0000000   0.2028201   0.5690193), wk =   0.0380952
        k(    9) = (   0.0000000   0.4056402   0.0000000), wk =   0.0190476
        k(   10) = (   0.0000000   0.4056402   0.1896731), wk =   0.0380952
        k(   11) = (   0.0000000   0.4056402   0.3793462), wk =   0.0380952
        k(   12) = (   0.0000000   0.4056402   0.5690193), wk =   0.0380952
        k(   13) = (   0.0000000  -0.6084604   0.0000000), wk =   0.0095238
        k(   14) = (   0.0000000  -0.6084604   0.1896731), wk =   0.0190476
        k(   15) = (   0.0000000  -0.6084604   0.3793462), wk =   0.0190476
        k(   16) = (   0.0000000  -0.6084604   0.5690193), wk =   0.0190476
        k(   17) = (   0.2107768   0.1216921   0.0000000), wk =   0.0190476
        k(   18) = (   0.2107768   0.1216921   0.1896731), wk =   0.0380952
        k(   19) = (   0.2107768   0.1216921   0.3793462), wk =   0.0380952
        k(   20) = (   0.2107768   0.1216921   0.5690193), wk =   0.0380952
        k(   21) = (   0.2107768   0.3245122   0.0000000), wk =   0.0190476
        k(   22) = (   0.2107768   0.3245122   0.1896731), wk =   0.0380952
        k(   23) = (   0.2107768   0.3245122   0.3793462), wk =   0.0380952
        k(   24) = (   0.2107768   0.3245122   0.5690193), wk =   0.0380952
        k(   25) = (   0.2107768   0.5273323   0.0000000), wk =   0.0190476
        k(   26) = (   0.2107768   0.5273323   0.1896731), wk =   0.0380952
        k(   27) = (   0.2107768   0.5273323   0.3793462), wk =   0.0380952
        k(   28) = (   0.2107768   0.5273323   0.5690193), wk =   0.0380952
        k(   29) = (   0.2107768  -0.4867683   0.0000000), wk =   0.0190476
        k(   30) = (   0.2107768  -0.4867683   0.1896731), wk =   0.0380952
        k(   31) = (   0.2107768  -0.4867683   0.3793462), wk =   0.0380952
        k(   32) = (   0.2107768  -0.4867683   0.5690193), wk =   0.0380952
        k(   33) = (   0.2107768  -0.2839482   0.0000000), wk =   0.0190476
        k(   34) = (   0.2107768  -0.2839482   0.1896731), wk =   0.0380952
        k(   35) = (   0.2107768  -0.2839482   0.3793462), wk =   0.0380952
        k(   36) = (   0.2107768  -0.2839482   0.5690193), wk =   0.0380952
        k(   37) = (   0.2107768  -0.0811280   0.0000000), wk =   0.0190476
        k(   38) = (   0.2107768  -0.0811280   0.1896731), wk =   0.0380952
        k(   39) = (   0.2107768  -0.0811280   0.3793462), wk =   0.0380952
        k(   40) = (   0.2107768  -0.0811280   0.5690193), wk =   0.0380952
        k(   41) = (   0.4215537   0.2433841   0.0000000), wk =   0.0190476
        k(   42) = (   0.4215537   0.2433841   0.1896731), wk =   0.0380952
        k(   43) = (   0.4215537   0.2433841   0.3793462), wk =   0.0380952
        k(   44) = (   0.4215537   0.2433841   0.5690193), wk =   0.0380952
        k(   45) = (   0.4215537   0.4462043   0.0000000), wk =   0.0190476
        k(   46) = (   0.4215537   0.4462043   0.1896731), wk =   0.0380952
        k(   47) = (   0.4215537   0.4462043   0.3793462), wk =   0.0380952
        k(   48) = (   0.4215537   0.4462043   0.5690193), wk =   0.0380952
        k(   49) = (   0.4215537   0.6490244   0.0000000), wk =   0.0190476
        k(   50) = (   0.4215537   0.6490244   0.1896731), wk =   0.0380952
        k(   51) = (   0.4215537   0.6490244   0.3793462), wk =   0.0380952
        k(   52) = (   0.4215537   0.6490244   0.5690193), wk =   0.0380952
        k(   53) = (   0.4215537  -0.3650762   0.0000000), wk =   0.0190476
        k(   54) = (   0.4215537  -0.3650762   0.1896731), wk =   0.0380952
        k(   55) = (   0.4215537  -0.3650762   0.3793462), wk =   0.0380952
        k(   56) = (   0.4215537  -0.3650762   0.5690193), wk =   0.0380952
        k(   57) = (   0.4215537  -0.1622561   0.0000000), wk =   0.0190476
        k(   58) = (   0.4215537  -0.1622561   0.1896731), wk =   0.0380952
        k(   59) = (   0.4215537  -0.1622561   0.3793462), wk =   0.0380952
        k(   60) = (   0.4215537  -0.1622561   0.5690193), wk =   0.0380952
        k(   61) = (   0.4215537   0.0405640   0.0000000), wk =   0.0190476
        k(   62) = (   0.4215537   0.0405640   0.1896731), wk =   0.0380952
        k(   63) = (   0.4215537   0.0405640   0.3793462), wk =   0.0380952
        k(   64) = (   0.4215537   0.0405640   0.5690193), wk =   0.0380952

     Largest allocated arrays     est. size (Mb)     dimensions
     Largest temporary arrays     est. size (Mb)     dimensions

     Initial potential from superposition of free atoms

     Starting from uniform charge
     Starting wfc are    0 randomized atomic wfcs

     Writing output data file Prototype-La-hP8-Mg3Cd.save

     Self-consistent Calculation

[...]

     iteration # 10     ecut=    40.00 Ry     beta=0.70
     CG style diagonalization
     c_bands:  1 eigenvalues not converged
     c_bands:  1 eigenvalues not converged
     c_bands:  1 eigenvalues not converged
     ethr =  8.52E-07,  avg # of iterations =  3.8

     total energy              =   -2506.49921226 Ry
     Harris-Foulkes estimate   =   -2506.49937703 Ry
     estimated scf accuracy    <       0.00035233 Ry

     iteration # 11     ecut=    40.00 Ry     beta=0.70
     CG style diagonalization
     ethr =  2.07E-07,  avg # of iterations =  3.5

     End of self-consistent calculation

[...]

          k = 0.4216 0.0406 0.5690 (  4368 PWs)   bands (ev):

   -81.1749 -81.1618 -81.1481 -81.1470 -81.1385 -81.1327 -39.8950 -39.8934
   -39.8736 -39.8726 -39.8612 -39.8557 -39.8488 -39.8344 -39.8279 -39.8201
   -39.8150 -39.8135 -39.8052 -39.7997 -39.7970 -39.7946 -39.7864 -39.7821
   -26.7546 -26.7543  -2.3173  -2.3134  -2.1457  -2.1445  -2.1389  -2.1333
     8.2520   8.2758   8.3918   8.4305   8.5293   8.5435   8.6224   8.6870
     8.7099   8.7342   8.8170   8.8353   8.9581   9.0847   9.1175   9.1510
     9.1644   9.2448   9.2786   9.3035   9.3751   9.4315   9.4329   9.4576
     9.5315   9.5470   9.7431   9.7641   9.8299   9.8995  16.4371  17.5256
    18.6491  19.1363  20.1667  20.5846  23.2050  23.7749  23.8535  24.3246
    25.5716  25.8293  26.3236  26.5898  27.2205  27.5158  28.2489  28.3638
    28.4949  28.8714  30.1654  30.6875  31.0363  31.2438  32.0630  33.0105
    33.3395  33.7922  33.9069  34.3161  34.8713  35.1322  35.2172  35.3163
    35.9165  36.1790  36.4442  36.7818  36.8291  37.2410

     the Fermi energy is    30.9456 ev

!    total energy              =   -2506.49924995 Ry
     Harris-Foulkes estimate   =   -2506.49927628 Ry
     estimated scf accuracy    <       0.00002951 Ry

     The total energy is the sum of the following terms:

     one-electron contribution =    -612.97041854 Ry
     hartree contribution      =     415.75316985 Ry
     xc contribution           =    -214.10759735 Ry
     ewald contribution        =   -2094.91097097 Ry
     smearing contrib. (-TS)   =      -0.26343294 Ry

     convergence has been achieved in  11 iterations

     Forces acting on atoms (Ry/au):

     atom    1 type  1   force =     0.01972677    0.01138926    0.00000000
     atom    2 type  1   force =     0.01972677   -0.01138926    0.00000000
     atom    3 type  1   force =    -0.01972677   -0.01138926    0.00000000
     atom    4 type  1   force =    -0.01972677    0.01138926    0.00000000
     atom    5 type  1   force =     0.00000000   -0.02277851    0.00000000
     atom    6 type  1   force =     0.00000000    0.02277851    0.00000000
     atom    7 type  2   force =     0.00000000    0.00000000    0.00000000
     atom    8 type  2   force =     0.00000000    0.00000000    0.00000000

     Total force =     0.055796     Total SCF correction =     0.000000

     entering subroutine stress ...

          total   stress  (Ry/bohr**3)                   (kbar)     P=  207.46
   0.00142457   0.00000000   0.00000000        209.56      0.00      0.00
   0.00000000   0.00142457   0.00000000          0.00    209.56      0.00
   0.00000000   0.00000000   0.00138174          0.00      0.00    203.26

     Writing output data file Prototype-La-hP8-Mg3Cd.save

     General routines

     Parallel routines

   This run was terminated on:  22:33:51  22Mar2018

   JOB DONE.