     Program PWSCF v.5.0.2 starts on 22Mar2018 at 12:11:36

     Current dimensions of program PWSCF are:
     Max number of different atomic species (ntypx) = 10
     Max number of k-points (npk) =  40000
     Max angular momentum in pseudopotentials (lmaxx) =  3
     Waiting for input...
     Reading input from standard input

     Subspace diagonalization in iterative solution of the eigenvalue problem:
     a serial algorithm will be used

     bravais-lattice index     =            0
     lattice parameter (alat)  =       9.9235  a.u.
     unit-cell volume          =    1361.0366 (a.u.)^3
     number of atoms/cell      =           12
     number of atomic types    =            2
     number of electrons       =       208.00
     number of Kohn-Sham states=          125
     kinetic-energy cutoff     =      40.0000  Ry
     charge density cutoff     =     160.0000  Ry
     convergence threshold     =      1.0E-04
     mixing beta               =       0.7000
     number of iterations used =            8  plain     mixing
     Exchange-correlation      = SLA-PZ-NOGX-NOGC ( 1 1 0 0 0)
     EXX-fraction              =        0.00
     nstep                     =           50

     celldm(1)=   9.923489  celldm(2)=   0.000000  celldm(3)=   0.000000
     celldm(4)=   0.000000  celldm(5)=   0.000000  celldm(6)=   0.000000

     crystal axes: (cart. coord. in units of alat)
               a(1) = (   1.000000   0.000000   0.000000 )
               a(2) = (  -0.500000   0.866025   0.000000 )
               a(3) = (   0.000000   0.000000   1.608222 )

     reciprocal axes: (cart. coord. in units 2 pi/alat)
               b(1) = (  1.000000  0.577350  0.000000 )
               b(2) = (  0.000000  1.154701  0.000000 )
               b(3) = (  0.000000  0.000000  0.621805 )

     PseudoPot. # 1 for Yb read from file:
     /home/jld5415/pp.La/Yb.UPF
     MD5 check sum: 3e859b81cc28c53ec6aa3a2e888efcdf
     Pseudo is Norm-conserving, Zval = 24.0
     Generated in analytical, separable form
     Using radial grid of 1269 points,  6 beta functions with:
                l(1) =   0
                l(2) =   0
                l(3) =   1
                l(4) =   1
                l(5) =   2
                l(6) =   3

     PseudoPot. # 2 for Nd read from file:
     /home/jld5415/pp.La/Nd.UPF
     MD5 check sum: c66c5b6abe7b5840ced9b1e244e3bed6
     Pseudo is Norm-conserving, Zval = 14.0
     Generated in analytical, separable form
     Using radial grid of 1257 points,  6 beta functions with:
                l(1) =   0
                l(2) =   0
                l(3) =   1
                l(4) =   1
                l(5) =   2
                l(6) =   3

     atomic species   valence    mass     pseudopotential
        Mg            24.00    24.30500     Yb( 1.00)
        Zn            14.00    65.39000     Nd( 1.00)

     24 Sym. Ops., with inversion, found (12 have fractional translation)

   Cartesian axes

     site n.     atom                  positions (alat units)
         1           Mg  tau(   1) = (  -0.0000005   0.5773506   0.1003820  )
         2           Mg  tau(   2) = (   0.5000005   0.2886748   0.9044931  )
         3           Mg  tau(   3) = (   0.5000005   0.2886748   1.5078402  )
         4           Mg  tau(   4) = (  -0.0000005   0.5773506   0.7037291  )
         5           Zn  tau(   5) = (   0.0000000   0.0000000   0.0000000  )
         6           Zn  tau(   6) = (   0.0000000   0.0000000   0.8041111  )
         7           Zn  tau(   7) = (   0.0000000   0.2950739   1.2061667  )
         8           Zn  tau(   8) = (   0.7444585   0.1475370   0.4020556  )
         9           Zn  tau(   9) = (   0.2555415   0.1475370   0.4020556  )
        10           Zn  tau(  10) = (   0.2444585   0.7184884   1.2061667  )
        11           Zn  tau(  11) = (  -0.2444585   0.7184884   1.2061667  )
        12           Zn  tau(  12) = (   0.5000000   0.5709515   0.4020556  )

     number of k points=    12  gaussian smearing, width (Ry)=  0.1000
                       cart. coord. in units 2pi/alat
        k(    1) = (   0.0000000   0.0000000   0.0000000), wk =   0.0833333
        k(    2) = (   0.0000000   0.0000000   0.1554512), wk =   0.1666667
        k(    3) = (   0.0000000   0.0000000  -0.3109023), wk =   0.0833333
        k(    4) = (   0.0000000   0.3849002   0.0000000), wk =   0.1666667
        k(    5) = (   0.0000000   0.3849002   0.1554512), wk =   0.3333333
        k(    6) = (   0.0000000   0.3849002  -0.3109023), wk =   0.1666667
        k(    7) = (  -0.5000000  -0.2886751   0.0000000), wk =   0.0833333
        k(    8) = (  -0.5000000  -0.2886751   0.1554512), wk =   0.1666667
        k(    9) = (  -0.5000000  -0.2886751  -0.3109023), wk =   0.0833333
        k(   10) = (  -0.5000000   0.0962250   0.0000000), wk =   0.1666667
        k(   11) = (  -0.5000000   0.0962250   0.1554512), wk =   0.3333333
        k(   12) = (  -0.5000000   0.0962250  -0.3109023), wk =   0.1666667

     Largest allocated arrays     est. size (Mb)     dimensions
     Largest temporary arrays     est. size (Mb)     dimensions

     Initial potential from superposition of free atoms

     Starting from uniform charge
     Starting wfc are    0 randomized atomic wfcs

     Self-consistent Calculation

     iteration #  1     ecut=    40.00 Ry     beta=0.70
     CG style diagonalization
     c_bands:  5 eigenvalues not converged
     c_bands:  5 eigenvalues not converged
     c_bands:  4 eigenvalues not converged
     c_bands:  2 eigenvalues not converged
     c_bands:  5 eigenvalues not converged
     c_bands:  4 eigenvalues not converged
     c_bands:  4 eigenvalues not converged
     c_bands:  2 eigenvalues not converged
     c_bands:  5 eigenvalues not converged
     c_bands:  2 eigenvalues not converged
     c_bands:  3 eigenvalues not converged
     ethr =  1.00E-02,  avg # of iterations = 13.7

     total energy              =   -1328.72393096 Ry
     Harris-Foulkes estimate   =   -3426.77132119 Ry
     estimated scf accuracy    <    2497.89357329 Ry

     iteration #  2     ecut=    40.00 Ry     beta=0.70
     CG style diagonalization
     ethr =  1.00E-02,  avg # of iterations = 19.1

[...]

     End of self-consistent calculation

          k = 0.0000 0.0000 0.0000 (  5769 PWs)   bands (ev):

   -92.8967 -92.8743 -92.8671 -92.8025 -51.7008 -51.6915 -51.6884 -51.6884
   -51.6809 -51.6782 -51.6782 -51.6681 -51.6681 -51.6674 -51.6632 -51.6632
   -17.7403 -17.3931 -16.5497 -16.1530 -16.1529 -16.1464 -16.1464 -16.1274
     0.4147   1.2048   1.9877   2.9670   2.9670   3.2289   3.2289   3.2924
     3.2925   4.0574   4.7508   4.7509   4.8444   4.8444   5.3830   6.0931
     6.0931   6.1193   6.1749   6.2425   6.2878   6.2878   6.3064   6.3064
     6.3306   6.3306   6.4156   6.4661   6.4662   6.5259   6.5259   6.5481
     6.5481   6.5704   6.5704   6.6103   6.6137   6.7769   6.7770   6.9958
     7.2713   7.2713   7.3278   7.3278  16.2628  17.9787  18.6863  21.5432
    22.2704  22.2705  22.5665  23.9313  23.9314  24.1724  24.4553  24.6869
    25.4171  25.8117  25.8117  26.0835  26.0835  26.1417  26.2122  26.2122
    27.9004  27.9004  28.4942  28.4942  28.5308  28.5310  30.5796  30.7071
    31.3928  31.3929  31.7166  31.8272  31.9311  32.2385  32.2386  32.3317
    32.4854  32.4855  33.1396  33.1397  33.1707  33.1887  33.1887  33.3593
    33.3594  33.5423  34.3795  34.3795  34.9356  35.6984  35.6986  36.6350
    36.8284  36.8288  36.9750  36.9843  36.9844

[...]

          k =-0.5000-0.2887 0.0000 (  5800 PWs)   bands (ev):

[...]

     the Fermi energy is    31.8826 ev

!    total energy              =   -2519.62917360 Ry
     Harris-Foulkes estimate   =   -2519.62917841 Ry
     estimated scf accuracy    <       0.00000593 Ry

     The total energy is the sum of the following terms:

     one-electron contribution =    -400.55147458 Ry
     hartree contribution      =     361.43874422 Ry
     xc contribution           =    -237.57119501 Ry
     ewald contribution        =   -2242.37535476 Ry
     smearing contrib. (-TS)   =      -0.56989348 Ry

     convergence has been achieved in  11 iterations

     Forces acting on atoms (Ry/au):

     atom    1 type  1   force =     0.00000000    0.00000000    0.02374537
     atom    2 type  1   force =     0.00000000    0.00000000    0.02374537
     atom    3 type  1   force =     0.00000000    0.00000000   -0.02374537
     atom    4 type  1   force =     0.00000000    0.00000000   -0.02374537
     atom    5 type  2   force =     0.00000000    0.00000000    0.00000000
     atom    6 type  2   force =     0.00000000    0.00000000    0.00000000
     atom    7 type  2   force =     0.00000000    0.02842790    0.00000000
     atom    8 type  2   force =    -0.02461929    0.01421395    0.00000000
     atom    9 type  2   force =     0.02461929    0.01421395    0.00000000
     atom   10 type  2   force =    -0.02461929   -0.01421395    0.00000000
     atom   11 type  2   force =     0.02461929   -0.01421395    0.00000000
     atom   12 type  2   force =     0.00000000   -0.02842790    0.00000000

     Total force =     0.084287     Total SCF correction =     0.000000

     entering subroutine stress ...

          total   stress  (Ry/bohr**3)                   (kbar)     P=  916.52
   0.00610974   0.00000000   0.00000000        898.77      0.00      0.00
   0.00000000   0.00610974   0.00000000          0.00    898.77      0.00
   0.00000000   0.00000000   0.00647155          0.00      0.00    952.00

     BFGS Geometry Optimization

     number of scf cycles    =   1
     number of bfgs steps    =   0

     enthalpy new            =   -2519.6291736015 Ry

     new trust radius        =       0.5000000000 bohr
     new conv_thr            =       0.0001000000 Ry

     new unit-cell volume =   1645.16502 a.u.^3 (   243.78830 Ang^3 )

CELL_PARAMETERS (alat=  9.92348860)
   1.063976401   0.000000000   0.000000000
  -0.531988201   0.921430592   0.000000000
   0.000000000   0.000000000   1.717203317

ATOMIC_POSITIONS (crystal)
Mg       0.333333000   0.666667000   0.063041197
Mg       0.666667000   0.333333000   0.563041197
Mg       0.666667000   0.333333000   0.936958803
Mg       0.333333000   0.666667000   0.436958803
Zn       0.000000000   0.000000000   0.000000000
Zn       0.000000000   0.000000000   0.500000000
Zn       0.171053750   0.342107501   0.750000000
Zn       0.828946250   0.171053750   0.250000000
Zn       0.342107501   0.171053750   0.250000000
Zn       0.657892499   0.828946250   0.750000000
Zn       0.171053750   0.828946250   0.750000000
Zn       0.828946250   0.657892499   0.250000000

     Writing output data file Prototype-La-hP12-MgZn2.save
     NEW-OLD atomic charge density approx. for the potential
     NEW k-points:
        k(    1) = (   0.0000000   0.0000000   0.0000000), wk =   0.0833333
        k(    2) = (   0.0000000   0.0000000   0.1455856), wk =   0.1666667
        k(    3) = (   0.0000000   0.0000000  -0.2911711), wk =   0.0833333
        k(    4) = (   0.0000000   0.3617563   0.0000000), wk =   0.1666667
        k(    5) = (   0.0000000   0.3617563   0.1455856), wk =   0.3333333
        k(    6) = (   0.0000000   0.3617563  -0.2911711), wk =   0.1666667
        k(    7) = (  -0.4699352  -0.2713172   0.0000000), wk =   0.0833333
        k(    8) = (  -0.4699352  -0.2713172   0.1455856), wk =   0.1666667
        k(    9) = (  -0.4699352  -0.2713172  -0.2911711), wk =   0.0833333
        k(   10) = (  -0.4699352   0.0904391   0.0000000), wk =   0.1666667
        k(   11) = (  -0.4699352   0.0904391   0.1455856), wk =   0.3333333
        k(   12) = (  -0.4699352   0.0904391  -0.2911711), wk =   0.1666667

[...]

     enthalpy old            =   -2519.6291736015 Ry
     enthalpy new            =   -2520.2658502323 Ry

     CASE: enthalpy_new < enthalpy_old

     small trust_radius: resetting bfgs history

     new trust radius        =       0.2174378851 bohr
     new conv_thr            =       0.0000247902 Ry

[...]

     number of scf cycles    =   3
     number of bfgs steps    =   2

     enthalpy old            =   -2520.2658502323 Ry
     enthalpy new            =   -2520.2445200068 Ry

     CASE: enthalpy_new > enthalpy_old

     new trust radius        =       0.0920013869 bohr

     trust_radius < trust_radius_min

     resetting bfgs history

     Message from routine bfgs:
     history already reset at previous step: stopping
     new conv_thr            =       0.0000247902 Ry

     new unit-cell volume =   1522.57235 a.u.^3 (   225.62194 Ang^3 )

[...]

ATOMIC_POSITIONS (crystal)
Mg       0.333333000   0.666667000   0.064558964
Mg       0.666667000   0.333333000   0.564558964
Mg       0.666667000   0.333333000   0.935441036
Mg       0.333333000   0.666667000   0.435441036
Zn       0.000000000   0.000000000   0.000000000
Zn       0.000000000   0.000000000   0.500000000
Zn       0.171237852   0.342475704   0.750000000
Zn       0.828762148   0.171237852   0.250000000
Zn       0.342475704   0.171237852   0.250000000
Zn       0.657524296   0.828762148   0.750000000
Zn       0.171237852   0.828762148   0.750000000
Zn       0.828762148   0.657524296   0.250000000

     Writing output data file Prototype-La-hP12-MgZn2.save
     NEW-OLD atomic charge density approx. for the potential
     NEW k-points:
        k(    1) = (   0.0000000   0.0000000   0.0000000), wk =   0.0833333
        k(    2) = (   0.0000000   0.0000000   0.1488119), wk =   0.1666667
        k(    3) = (   0.0000000   0.0000000  -0.2976239), wk =   0.0833333
        k(    4) = (   0.0000000   0.3719394   0.0000000), wk =   0.1666667
        k(    5) = (   0.0000000   0.3719394   0.1488119), wk =   0.3333333
        k(    6) = (   0.0000000   0.3719394  -0.2976239), wk =   0.1666667
        k(    7) = (  -0.4831634  -0.2789545   0.0000000), wk =   0.0833333
        k(    8) = (  -0.4831634  -0.2789545   0.1488119), wk =   0.1666667
        k(    9) = (  -0.4831634  -0.2789545  -0.2976239), wk =   0.0833333
        k(   10) = (  -0.4831634   0.0929848   0.0000000), wk =   0.1666667
        k(   11) = (  -0.4831634   0.0929848   0.1488119), wk =   0.3333333
        k(   12) = (  -0.4831634   0.0929848  -0.2976239), wk =   0.1666667

[...]

     The maximum number of steps has been reached.

     End of BFGS Geometry Optimization
Begin final coordinates
     new unit-cell volume =   1522.57235 a.u.^3 (   225.62194 Ang^3 )

CELL_PARAMETERS (alat=  9.92348860)
   1.034846548   0.000000000   0.000000000
  -0.517423274   0.896203400   0.000000000
   0.000000000   0.000000000   1.679972876

ATOMIC_POSITIONS (crystal)
Mg       0.333333000   0.666667000   0.064558964
Mg       0.666667000   0.333333000   0.564558964
Mg       0.666667000   0.333333000   0.935441036
Mg       0.333333000   0.666667000   0.435441036
Zn       0.000000000   0.000000000   0.000000000
Zn       0.000000000   0.000000000   0.500000000
Zn       0.171237852   0.342475704   0.750000000
Zn       0.828762148   0.171237852   0.250000000
Zn       0.342475704   0.171237852   0.250000000
Zn       0.657524296   0.828762148   0.750000000
Zn       0.171237852   0.828762148   0.750000000
Zn       0.828762148   0.657524296   0.250000000
End final coordinates

     A final scf calculation at the relaxed structure.
     The G-vectors are recalculated for the final unit cell
     Results may differ from those at the preceding step.

     bravais-lattice index     =            0
     lattice parameter (alat)  =       9.9235  a.u.
     unit-cell volume          =    1522.5723 (a.u.)^3
     number of atoms/cell      =           12
     number of atomic types    =            2
     number of electrons       =       208.00
     number of Kohn-Sham states=          125
     kinetic-energy cutoff     =      40.0000  Ry
     charge density cutoff     =     160.0000  Ry
     convergence threshold     =      2.5E-05
     mixing beta               =       0.7000
     number of iterations used =            8  plain     mixing
     Exchange-correlation      = SLA-PZ-NOGX-NOGC ( 1 1 0 0 0)
     EXX-fraction              =        0.00

     celldm(1)=   9.923489  celldm(2)=   0.000000  celldm(3)=   0.000000
     celldm(4)=   0.000000  celldm(5)=   0.000000  celldm(6)=   0.000000

     crystal axes: (cart. coord. in units of alat)
               a(1) = (   1.034847   0.000000   0.000000 )
               a(2) = (  -0.517423   0.896203   0.000000 )
               a(3) = (   0.000000   0.000000   1.679973 )

     reciprocal axes: (cart. coord. in units 2 pi/alat)
               b(1) = (  0.966327  0.557909  0.000000 )
               b(2) = (  0.000000  1.115818  0.000000 )
               b(3) = (  0.000000  0.000000  0.595248 )

     PseudoPot. # 1 for Yb read from file:
     /home/jld5415/pp.La/Yb.UPF
     MD5 check sum: 3e859b81cc28c53ec6aa3a2e888efcdf
     Pseudo is Norm-conserving, Zval = 24.0
     Generated in analytical, separable form
     Using radial grid of 1269 points,  6 beta functions with:
                l(1) =   0
                l(2) =   0
                l(3) =   1
                l(4) =   1
                l(5) =   2
                l(6) =   3

     PseudoPot. # 2 for Nd read from file:
     /home/jld5415/pp.La/Nd.UPF
     MD5 check sum: c66c5b6abe7b5840ced9b1e244e3bed6
     Pseudo is Norm-conserving, Zval = 14.0
     Generated in analytical, separable form
     Using radial grid of 1257 points,  6 beta functions with:
                l(1) =   0
                l(2) =   0
                l(3) =   1
                l(4) =   1
                l(5) =   2
                l(6) =   3

     atomic species   valence    mass     pseudopotential
        Mg            24.00    24.30500     Yb( 1.00)
        Zn            14.00    65.39000     Nd( 1.00)

     24 Sym. Ops., with inversion, found (12 have fractional translation)

   Cartesian axes

     site n.     atom                  positions (alat units)
         1           Mg  tau(   1) = (  -0.0000005   0.5974692   0.1084573  )
         2           Mg  tau(   2) = (   0.5174238   0.2987342   0.9484437  )
         3           Mg  tau(   3) = (   0.5174238   0.2987342   1.5715156  )
         4           Mg  tau(   4) = (  -0.0000005   0.5974692   0.7315291  )
         5           Zn  tau(   5) = (   0.0000000   0.0000000   0.0000000  )
         6           Zn  tau(   6) = (   0.0000000   0.0000000   0.8399864  )
         7           Zn  tau(   7) = (   0.0000000   0.3069279   1.2599797  )
         8           Zn  tau(   8) = (   0.7690392   0.1534639   0.4199932  )
         9           Zn  tau(   9) = (   0.2658073   0.1534639   0.4199932  )
        10           Zn  tau(  10) = (   0.2516159   0.7427395   1.2599797  )
        11           Zn  tau(  11) = (  -0.2516159   0.7427395   1.2599797  )
        12           Zn  tau(  12) = (   0.5174233   0.5892755   0.4199932  )

     number of k points=    12  gaussian smearing, width (Ry)=  0.1000
                       cart. coord. in units 2pi/alat
        k(    1) = (   0.0000000   0.0000000   0.0000000), wk =   0.0833333
        k(    2) = (   0.0000000   0.0000000   0.1488119), wk =   0.1666667
        k(    3) = (   0.0000000   0.0000000  -0.2976239), wk =   0.0833333
        k(    4) = (   0.0000000   0.3719394   0.0000000), wk =   0.1666667
        k(    5) = (   0.0000000   0.3719394   0.1488119), wk =   0.3333333
        k(    6) = (   0.0000000   0.3719394  -0.2976239), wk =   0.1666667
        k(    7) = (  -0.4831634  -0.2789545   0.0000000), wk =   0.0833333
        k(    8) = (  -0.4831634  -0.2789545   0.1488119), wk =   0.1666667
        k(    9) = (  -0.4831634  -0.2789545  -0.2976239), wk =   0.0833333
        k(   10) = (  -0.4831634   0.0929848   0.0000000), wk =   0.1666667
        k(   11) = (  -0.4831634   0.0929848   0.1488119), wk =   0.3333333
        k(   12) = (  -0.4831634   0.0929848  -0.2976239), wk =   0.1666667

     Largest allocated arrays     est. size (Mb)     dimensions
     Largest temporary arrays     est. size (Mb)     dimensions

     Initial potential from superposition of free atoms

     Starting from uniform charge
     Starting wfc are    0 randomized atomic wfcs

     Writing output data file Prototype-La-hP12-MgZn2.save

     Self-consistent Calculation

[...]

     iteration # 10     ecut=    40.00 Ry     beta=0.70
     CG style diagonalization
     c_bands:  1 eigenvalues not converged
     ethr =  2.61E-06,  avg # of iterations =  3.9

     total energy              =   -2520.89576551 Ry
     Harris-Foulkes estimate   =   -2520.89597626 Ry
     estimated scf accuracy    <       0.00038838 Ry

     iteration # 11     ecut=    40.00 Ry     beta=0.70
     CG style diagonalization
     ethr =  1.87E-07,  avg # of iterations =  4.3

     End of self-consistent calculation

[...]

          k = 0.0000 0.3719-0.2976 (  6518 PWs)   bands (ev):

[...]

          k =-0.4832 0.0930-0.2976 (  6508 PWs)   bands (ev):

   -96.4042 -96.4042 -96.3937 -96.3937 -55.1839 -55.1838 -55.1769 -55.1768
   -55.1748 -55.1748 -55.1722 -55.1722 -55.1701 -55.1701 -55.1671 -55.1671
   -20.4735 -20.4735 -20.1760 -20.1759 -19.7178 -19.7178 -19.6834 -19.6834
    -0.8756  -0.8756  -0.0492  -0.0492   0.4943   0.4943   0.5802   0.5802
     0.7742   0.7742   1.0250   1.0250   1.4836   1.4836   1.8873   1.8873
     2.1289   2.1289   2.4375   2.4375   2.7597   2.7597   2.7924   2.7924
     2.8171   2.8171   2.8408   2.8408   2.9548   2.9548   2.9726   2.9726
     2.9984   2.9984   3.0274   3.0274   3.0832   3.0832   3.1318   3.1318
     3.1892   3.1892   3.2914   3.2914  15.1981  15.1981  16.0370  16.0370
    20.6130  20.6130  20.9693  20.9693  21.7459  21.7459  22.5573  22.5573
    22.6468  22.6468  23.3031  23.3031  23.7853  23.7853  24.2413  24.2413
    24.4334  24.4334  25.2075  25.2075  25.6879  25.6879  26.0120  26.0121
    26.4774  26.4774  26.8707  26.8707  27.2335  27.2335  27.6566  27.6566
    27.8850  27.8850  28.5277  28.5277  29.4036  29.4037  29.6192  29.6192
    29.9984  29.9984  30.3704  30.3704  31.0823  31.0824  31.4910  31.4911
    31.9380  31.9381  32.1008  32.1009  33.1402

     the Fermi energy is    28.1865 ev

!    total energy              =   -2520.89592042 Ry
     Harris-Foulkes estimate   =   -2520.89592800 Ry
     estimated scf accuracy    <       0.00000952 Ry

     The total energy is the sum of the following terms:

     one-electron contribution =    -518.10115389 Ry
     hartree contribution      =     393.06552686 Ry
     xc contribution           =    -235.15166373 Ry
     ewald contribution        =   -2160.09268701 Ry
     smearing contrib. (-TS)   =      -0.61594265 Ry

     convergence has been achieved in  11 iterations

     Forces acting on atoms (Ry/au):

     atom    1 type  1   force =     0.00000000    0.00000000    0.00092202
     atom    2 type  1   force =     0.00000000    0.00000000    0.00092202
     atom    3 type  1   force =     0.00000000    0.00000000   -0.00092202
     atom    4 type  1   force =     0.00000000    0.00000000   -0.00092202
     atom    5 type  2   force =     0.00000000    0.00000000    0.00000000
     atom    6 type  2   force =     0.00000000    0.00000000    0.00000000
     atom    7 type  2   force =     0.00000000   -0.00522098    0.00000000
     atom    8 type  2   force =     0.00452151   -0.00261049    0.00000000
     atom    9 type  2   force =    -0.00452151   -0.00261049    0.00000000
     atom   10 type  2   force =     0.00452151    0.00261049    0.00000000
     atom   11 type  2   force =    -0.00452151    0.00261049    0.00000000
     atom   12 type  2   force =     0.00000000    0.00522098    0.00000000

     Total force =     0.012921     Total SCF correction =     0.000000

     entering subroutine stress ...

          total   stress  (Ry/bohr**3)                   (kbar)     P=  372.61
   0.00246487   0.00000000   0.00000000        362.60      0.00      0.00
   0.00000000   0.00246487   0.00000000          0.00    362.60      0.00
   0.00000000   0.00000000   0.00266913          0.00      0.00    392.64

     Writing output data file Prototype-La-hP12-MgZn2.save

     General routines

     Parallel routines

   This run was terminated on:  12:33:16  22Mar2018

   JOB DONE.