     Program PWSCF v.5.0.2 starts on 22Mar2018 at 12:11:38

     Current dimensions of program PWSCF are:
     Max number of different atomic species (ntypx) = 10
     Max number of k-points (npk) =  40000
     Max angular momentum in pseudopotentials (lmaxx) =  3
     Waiting for input...
     Reading input from standard input

     Subspace diagonalization in iterative solution of the eigenvalue problem:
     a serial algorithm will be used

     bravais-lattice index     =            0
     lattice parameter (alat)  =       8.8008  a.u.
     unit-cell volume          =    1116.9454 (a.u.)^3
     number of atoms/cell      =           16
     number of atomic types    =            2
     number of electrons       =       344.00
     number of Kohn-Sham states=          206
     kinetic-energy cutoff     =      40.0000  Ry
     charge density cutoff     =     160.0000  Ry
     convergence threshold     =      1.0E-04
     mixing beta               =       0.7000
     number of iterations used =            8  plain     mixing
     Exchange-correlation      = SLA-PZ-NOGX-NOGC ( 1 1 0 0 0)
     EXX-fraction              =        0.00
     nstep                     =           50

     celldm(1)=   8.800765  celldm(2)=   0.000000  celldm(3)=   0.000000
     celldm(4)=   0.000000  celldm(5)=   0.000000  celldm(6)=   0.000000

     crystal axes: (cart. coord. in units of alat)
               a(1) = (   1.000000   0.000000   0.000000 )
               a(2) = (   0.000000   1.083771   0.000000 )
               a(3) = (   0.000000   0.000000   1.511935 )

     reciprocal axes: (cart. coord. in units 2 pi/alat)
               b(1) = (  1.000000  0.000000  0.000000 )
               b(2) = (  0.000000  0.922704  0.000000 )
               b(3) = (  0.000000  0.000000  0.661404 )

     PseudoPot. # 1 for Yb read from file:
     /home/jld5415/pp.La/Yb.UPF
     MD5 check sum: 3e859b81cc28c53ec6aa3a2e888efcdf
     Pseudo is Norm-conserving, Zval = 24.0
     Generated in analytical, separable form
     Using radial grid of 1269 points,  6 beta functions with:
                l(1) =   0
                l(2) =   0
                l(3) =   1
                l(4) =   1
                l(5) =   2
                l(6) =   3

     PseudoPot. # 2 for Nd read from file:
     /home/jld5415/pp.La/Nd.UPF
     MD5 check sum: c66c5b6abe7b5840ced9b1e244e3bed6
     Pseudo is Norm-conserving, Zval = 14.0
     Generated in analytical, separable form
     Using radial grid of 1257 points,  6 beta functions with:
                l(1) =   0
                l(2) =   0
                l(3) =   1
                l(4) =   1
                l(5) =   2
                l(6) =   3

     atomic species   valence    mass     pseudopotential
        Fe            24.00    55.84500     Yb( 1.00)
        C             14.00    12.01070     Nd( 1.00)

      8 Sym. Ops., with inversion, found ( 6 have fractional translation)

   Cartesian axes

     site n.     atom                  positions (alat units)
         1           Fe  tau(   1) = (   0.3472940   0.1827628   1.3947267  )
         2           Fe  tau(   2) = (   0.1527060   0.7246484   0.8731757  )
         3           Fe  tau(   3) = (   0.8472940   0.3591227   0.6387592  )
         4           Fe  tau(   4) = (   0.3396640   0.4879235   0.3779837  )
         5           Fe  tau(   5) = (   0.1527060   0.7246484   1.3947267  )
         6           Fe  tau(   6) = (   0.3472940   0.1827628   0.8731757  )
         7           Fe  tau(   7) = (   0.1603360   1.0298091   0.3779837  )
         8           Fe  tau(   8) = (   0.6527060   0.9010083   0.6387592  )
         9           Fe  tau(   9) = (   0.8472940   0.3591227   0.1172082  )
        10           Fe  tau(  10) = (   0.6603360   0.5958476   1.1339512  )
        11           Fe  tau(  11) = (   0.6527060   0.9010083   0.1172082  )
        12           Fe  tau(  12) = (   0.8396640   0.0539620   1.1339512  )
        13           C   tau(  13) = (   0.0000000   0.0000000   0.0000000  )
        14           C   tau(  14) = (   0.5000000   0.5418856   0.0000000  )
        15           C   tau(  15) = (   0.5000000   0.5418856   0.7559674  )
        16           C   tau(  16) = (   0.0000000   0.0000000   0.7559674  )

     number of k points=    12  gaussian smearing, width (Ry)=  0.1000
                       cart. coord. in units 2pi/alat
        k(    1) = (   0.0000000   0.0000000   0.0000000), wk =   0.0833333
        k(    2) = (   0.0000000   0.0000000   0.1653510), wk =   0.1666667
        k(    3) = (   0.0000000   0.0000000  -0.3307021), wk =   0.0833333
        k(    4) = (   0.0000000   0.3075680   0.0000000), wk =   0.1666667
        k(    5) = (   0.0000000   0.3075680   0.1653510), wk =   0.3333333
        k(    6) = (   0.0000000   0.3075680  -0.3307021), wk =   0.1666667
        k(    7) = (  -0.5000000   0.0000000   0.0000000), wk =   0.0833333
        k(    8) = (  -0.5000000   0.0000000   0.1653510), wk =   0.1666667
        k(    9) = (  -0.5000000   0.0000000  -0.3307021), wk =   0.0833333
        k(   10) = (  -0.5000000   0.3075680   0.0000000), wk =   0.1666667
        k(   11) = (  -0.5000000   0.3075680   0.1653510), wk =   0.3333333
        k(   12) = (  -0.5000000   0.3075680  -0.3307021), wk =   0.1666667

     Largest allocated arrays     est. size (Mb)     dimensions
     Largest temporary arrays     est. size (Mb)     dimensions

     Initial potential from superposition of free atoms

     Starting from uniform charge
     Starting wfc are    0 randomized atomic wfcs

     Self-consistent Calculation

     iteration #  1     ecut=    40.00 Ry     beta=0.70
     CG style diagonalization
     c_bands:  2 eigenvalues not converged
     c_bands:  1 eigenvalues not converged
     c_bands:  1 eigenvalues not converged
     c_bands:  1 eigenvalues not converged
     c_bands:  1 eigenvalues not converged
     c_bands:  2 eigenvalues not converged
     c_bands:  1 eigenvalues not converged
     c_bands:  1 eigenvalues not converged
     c_bands:  1 eigenvalues not converged
     ethr =  1.00E-02,  avg # of iterations = 22.6

     total energy              =   -4670.82785220 Ry
     Harris-Foulkes estimate   =   -6380.67985656 Ry
     estimated scf accuracy    <    2122.98204038 Ry

[...]

     iteration #  3     ecut=    40.00 Ry     beta=0.70
     CG style diagonalization
     ethr =  1.00E-02,  avg # of iterations =  9.2

[...]

     End of self-consistent calculation

          k = 0.0000 0.0000 0.0000 (  4785 PWs)   bands (ev):

   -69.5185 -69.5108 -69.4926 -69.4821 -69.4696 -69.4597 -69.4433 -69.4407
   -69.2520 -69.2487 -69.2417 -69.2161 -29.9531 -29.8851 -29.6750 -29.6421
   -29.6292 -29.6057 -29.4269 -29.4240 -29.3830 -29.3535 -29.3281 -29.2324
   -28.5137 -28.5061 -28.4952 -28.4808 -28.3916 -28.3295 -28.3203 -28.2987
   -28.2748 -28.2501 -28.1448 -28.1125 -28.0853 -28.0494 -28.0436 -28.0285
   -27.9988 -27.9697 -27.8879 -27.8847 -27.8557 -27.8537 -27.7069 -27.6997
     0.1499   0.6187   1.1312   1.6260  16.1218  16.2347  16.3643  16.7004
    17.1386  17.1935  18.4631  18.6301  18.9059  19.2888  19.7676  19.8002
    24.3877  24.4300  24.9539  25.0503  25.2395  25.3643  25.5893  25.9731
    26.1870  26.3901  26.4051  26.5720  26.5850  26.6221  26.6908  26.7883
    27.0970  27.1798  27.1819  27.2747  27.3705  27.4370  27.6777  27.9170
    27.9292  28.0110  28.2967  28.3170  28.3239  28.5154  28.6472  28.8288
    28.8564  28.9434  28.9592  29.2151  29.3175  29.4681  29.5187  29.5382
    29.5451  29.5539  29.6825  30.3607  30.3729  30.3792  30.4069  30.6092
    30.6699  31.0759  31.7922  31.8581  31.9605  33.1294  33.2207  34.2439
    35.4341  35.5053  35.9777  36.3213  36.7184  39.0093  40.4248  40.6354
    40.9593  41.2599  41.6406  41.8999  43.3505  43.3894  44.1717  44.2370
    46.0303  46.1254  46.2286  46.4793  46.7031  47.1351  48.1833  48.7531
    48.9283  50.1528  50.4639  50.5761  51.3996  51.4003  51.4688  51.6179
    51.7810  51.9905  52.1366  52.1741  52.3587  52.6123  53.5086  53.7101
    53.8466  53.9998  54.7009  54.7862  54.9013  55.1274  55.3221  55.3730
    56.5381  56.6087  56.7394  56.8904  57.0682  57.6885  57.8867  58.2743
    58.5155  58.6971  59.3483  59.5214  59.6643  59.7296  59.8462  59.8582
    60.2611  60.6261  60.8723  60.9312  61.3380  61.3896  61.4465  61.4556
    61.5679  61.5909  62.5470  62.6176  62.8235  63.0373  63.0866  63.2178
    63.9785  64.1378  64.2228  64.2513  64.2529  64.3332

[...]

          k =-0.5000 0.0000 0.0000 (  4798 PWs)   bands (ev):

[...]

     the Fermi energy is    57.3467 ev

!    total energy              =   -5310.02656308 Ry
     Harris-Foulkes estimate   =   -5310.02660682 Ry
     estimated scf accuracy    <       0.00005839 Ry

     The total energy is the sum of the following terms:

     one-electron contribution =    -377.18109969 Ry
     hartree contribution      =     676.42741014 Ry
     xc contribution           =    -468.31529626 Ry
     ewald contribution        =   -5140.45248517 Ry
     smearing contrib. (-TS)   =      -0.50509210 Ry

     convergence has been achieved in   9 iterations

     Forces acting on atoms (Ry/au):

     atom    1 type  1   force =     0.96885540   -1.11146200   -1.40168730
     atom    2 type  1   force =    -0.96885540   -1.11146200    1.40168730
     atom    3 type  1   force =     0.96885540    1.11146200   -1.40168730
     atom    4 type  1   force =    -1.70799330   -0.66371889    0.00000000
     atom    5 type  1   force =    -0.96885540   -1.11146200   -1.40168730
     atom    6 type  1   force =     0.96885540   -1.11146200    1.40168730
     atom    7 type  1   force =     1.70799330   -0.66371889    0.00000000
     atom    8 type  1   force =    -0.96885540    1.11146200   -1.40168730
     atom    9 type  1   force =     0.96885540    1.11146200    1.40168730
     atom   10 type  1   force =     1.70799330    0.66371889    0.00000000
     atom   11 type  1   force =    -0.96885540    1.11146200    1.40168730
     atom   12 type  1   force =    -1.70799330    0.66371889    0.00000000
     atom   13 type  2   force =     0.00000000    0.00000000    0.00000000
     atom   14 type  2   force =     0.00000000    0.00000000    0.00000000
     atom   15 type  2   force =     0.00000000    0.00000000    0.00000000
     atom   16 type  2   force =     0.00000000    0.00000000    0.00000000

     Total force =     6.822104     Total SCF correction =     0.000000

     entering subroutine stress ...

          total   stress  (Ry/bohr**3)                   (kbar)     P=12465.36
   0.08518967   0.00000000   0.00000000      12531.83      0.00      0.00
   0.00000000   0.08486438   0.00000000          0.00  12483.98      0.00
   0.00000000   0.00000000   0.08415940          0.00      0.00  12380.27

     BFGS Geometry Optimization

     number of scf cycles    =   1
     number of bfgs steps    =   0

     enthalpy new            =   -5310.0265630799 Ry

     new trust radius        =       0.5000000000 bohr
     new conv_thr            =       0.0001000000 Ry

     new unit-cell volume =   1385.28288 a.u.^3 (   205.27774 Ang^3 )

CELL_PARAMETERS (alat=  8.80076499)
[...]

ATOMIC_POSITIONS (crystal)
Fe       0.351160657   0.164543076   0.918778060
Fe       0.148839343   0.664543076   0.581221940
Fe       0.851160657   0.335456924   0.418778060
Fe       0.332847478   0.447764876   0.250000000
Fe       0.148839343   0.664543076   0.918778060
Fe       0.351160657   0.164543076   0.581221940
Fe       0.167152522   0.947764876   0.250000000
Fe       0.648839343   0.835456924   0.418778060
Fe       0.851160657   0.335456924   0.081221940
Fe       0.667152522   0.552235124   0.750000000
Fe       0.648839343   0.835456924   0.081221940
Fe       0.832847478   0.052235124   0.750000000
C        0.000000000   0.000000000   0.000000000
C        0.500000000   0.500000000   0.000000000
C        0.500000000   0.500000000   0.500000000
C        0.000000000   0.000000000   0.500000000

     Writing output data file Prototype-La-oP16-Fe3C.save
     NEW-OLD atomic charge density approx. for the potential
     NEW k-points:
        k(    1) = (   0.0000000   0.0000000   0.0000000), wk =   0.0833333
        k(    2) = (   0.0000000   0.0000000   0.1539726), wk =   0.1666667
        k(    3) = (   0.0000000   0.0000000  -0.3079452), wk =   0.0833333
        k(    4) = (   0.0000000   0.2862381   0.0000000), wk =   0.1666667
        k(    5) = (   0.0000000   0.2862381   0.1539726), wk =   0.3333333
        k(    6) = (   0.0000000   0.2862381  -0.3079452), wk =   0.1666667
        k(    7) = (  -0.4652012   0.0000000   0.0000000), wk =   0.0833333
        k(    8) = (  -0.4652012   0.0000000   0.1539726), wk =   0.1666667
        k(    9) = (  -0.4652012   0.0000000  -0.3079452), wk =   0.0833333
        k(   10) = (  -0.4652012   0.2862381   0.0000000), wk =   0.1666667
        k(   11) = (  -0.4652012   0.2862381   0.1539726), wk =   0.3333333
        k(   12) = (  -0.4652012   0.2862381  -0.3079452), wk =   0.1666667

[...]

          total   stress  (Ry/bohr**3)                   (kbar)     P= 5611.32
   0.03909128   0.00000000   0.00000000       5750.52      0.00      0.00
   0.00000000   0.03697190   0.00000000          0.00   5438.75      0.00
   0.00000000   0.00000000   0.03837184          0.00      0.00   5644.69

[...]

     enthalpy old            =   -5310.0265630799 Ry
     enthalpy new            =   -5327.1471683400 Ry

     CASE: enthalpy_new < enthalpy_old

     small trust_radius: resetting bfgs history

     new trust radius        =       7.2747671964 bohr
     new conv_thr            =       0.0001000000 Ry

[...]

          total   stress  (Ry/bohr**3)                   (kbar)     P=-7501.77
  -0.05186481   0.00000000   0.00000000      -7629.57      0.00      0.00
   0.00000000  -0.05011665   0.00000000          0.00  -7372.41      0.00
   0.00000000   0.00000000  -0.05100653          0.00      0.00  -7503.32

     number of scf cycles    =   3
     number of bfgs steps    =   2

     enthalpy old            =   -5327.1471683400 Ry
     enthalpy new            =   -4946.0485683336 Ry

     CASE: enthalpy_new > enthalpy_old

     new trust radius        =       1.5301546974 bohr

     trust_radius < trust_radius_min

     resetting bfgs history

     Message from routine bfgs:
     history already reset at previous step: stopping
     new conv_thr            =       0.0001000000 Ry

     new unit-cell volume =   1587.03694 a.u.^3 (   235.17461 Ang^3 )

[...]

ATOMIC_POSITIONS (crystal)
Fe       0.352592219   0.162940488   0.917352428
Fe       0.147407781   0.662940488   0.582647572
Fe       0.852592219   0.337059512   0.417352428
Fe       0.330330195   0.446751694   0.250000000
Fe       0.147407781   0.662940488   0.917352428
Fe       0.352592219   0.162940488   0.582647572
Fe       0.169669805   0.946751694   0.250000000
Fe       0.647407781   0.837059512   0.417352428
Fe       0.852592219   0.337059512   0.082647572
Fe       0.669669805   0.553248306   0.750000000
Fe       0.647407781   0.837059512   0.082647572
Fe       0.830330195   0.053248306   0.750000000
C        0.000000000   0.000000000   0.000000000
C        0.500000000   0.500000000   0.000000000
C        0.500000000   0.500000000   0.500000000
C        0.000000000   0.000000000   0.500000000

     Writing output data file Prototype-La-oP16-Fe3C.save
     NEW-OLD atomic charge density approx. for the potential
     NEW k-points:
        k(    1) = (   0.0000000   0.0000000   0.0000000), wk =   0.0833333
        k(    2) = (   0.0000000   0.0000000   0.1470772), wk =   0.1666667
        k(    3) = (   0.0000000   0.0000000  -0.2941544), wk =   0.0833333
        k(    4) = (   0.0000000   0.2742866   0.0000000), wk =   0.1666667
        k(    5) = (   0.0000000   0.2742866   0.1470772), wk =   0.3333333
        k(    6) = (   0.0000000   0.2742866  -0.2941544), wk =   0.1666667
        k(    7) = (  -0.4436221   0.0000000   0.0000000), wk =   0.0833333
        k(    8) = (  -0.4436221   0.0000000   0.1470772), wk =   0.1666667
        k(    9) = (  -0.4436221   0.0000000  -0.2941544), wk =   0.0833333
        k(   10) = (  -0.4436221   0.2742866   0.0000000), wk =   0.1666667
        k(   11) = (  -0.4436221   0.2742866   0.1470772), wk =   0.3333333
        k(   12) = (  -0.4436221   0.2742866  -0.2941544), wk =   0.1666667

[...]

     The maximum number of steps has been reached.

     End of BFGS Geometry Optimization
Begin final coordinates
     new unit-cell volume =   1587.03694 a.u.^3 (   235.17461 Ang^3 )

CELL_PARAMETERS (alat=  8.80076499)
   1.127085383   0.000000000   0.000000000
   0.000000000   1.215274067   0.000000000
   0.000000000   0.000000000   1.699787831

ATOMIC_POSITIONS (crystal)
Fe       0.352592219   0.162940488   0.917352428
Fe       0.147407781   0.662940488   0.582647572
Fe       0.852592219   0.337059512   0.417352428
Fe       0.330330195   0.446751694   0.250000000
Fe       0.147407781   0.662940488   0.917352428
Fe       0.352592219   0.162940488   0.582647572
Fe       0.169669805   0.946751694   0.250000000
Fe       0.647407781   0.837059512   0.417352428
Fe       0.852592219   0.337059512   0.082647572
Fe       0.669669805   0.553248306   0.750000000
Fe       0.647407781   0.837059512   0.082647572
Fe       0.830330195   0.053248306   0.750000000
C        0.000000000   0.000000000   0.000000000
C        0.500000000   0.500000000   0.000000000
C        0.500000000   0.500000000   0.500000000
C        0.000000000   0.000000000   0.500000000
End final coordinates

     A final scf calculation at the relaxed structure.
     The G-vectors are recalculated for the final unit cell
     Results may differ from those at the preceding step.

     bravais-lattice index     =            0
     lattice parameter (alat)  =       8.8008  a.u.
     unit-cell volume          =    1587.0369 (a.u.)^3
     number of atoms/cell      =           16
     number of atomic types    =            2
     number of electrons       =       344.00
     number of Kohn-Sham states=          206
     kinetic-energy cutoff     =      40.0000  Ry
     charge density cutoff     =     160.0000  Ry
     convergence threshold     =      1.0E-04
     mixing beta               =       0.7000
     number of iterations used =            8  plain     mixing
     Exchange-correlation      = SLA-PZ-NOGX-NOGC ( 1 1 0 0 0)
     EXX-fraction              =        0.00

     celldm(1)=   8.800765  celldm(2)=   0.000000  celldm(3)=   0.000000
     celldm(4)=   0.000000  celldm(5)=   0.000000  celldm(6)=   0.000000

     crystal axes: (cart. coord. in units of alat)
               a(1) = (   1.127085   0.000000   0.000000 )
               a(2) = (   0.000000   1.215274   0.000000 )
               a(3) = (   0.000000   0.000000   1.699788 )

     reciprocal axes: (cart. coord. in units 2 pi/alat)
               b(1) = (  0.887244  0.000000  0.000000 )
               b(2) = (  0.000000  0.822860  0.000000 )
               b(3) = (  0.000000  0.000000  0.588309 )

     PseudoPot. # 1 for Yb read from file:
     /home/jld5415/pp.La/Yb.UPF
     MD5 check sum: 3e859b81cc28c53ec6aa3a2e888efcdf
     Pseudo is Norm-conserving, Zval = 24.0
     Generated in analytical, separable form
     Using radial grid of 1269 points,  6 beta functions with:
                l(1) =   0
                l(2) =   0
                l(3) =   1
                l(4) =   1
                l(5) =   2
                l(6) =   3

     PseudoPot. # 2 for Nd read from file:
     /home/jld5415/pp.La/Nd.UPF
     MD5 check sum: c66c5b6abe7b5840ced9b1e244e3bed6
     Pseudo is Norm-conserving, Zval = 14.0
     Generated in analytical, separable form
     Using radial grid of 1257 points,  6 beta functions with:
                l(1) =   0
                l(2) =   0
                l(3) =   1
                l(4) =   1
                l(5) =   2
                l(6) =   3

     atomic species   valence    mass     pseudopotential
        Fe            24.00    55.84500     Yb( 1.00)
        C             14.00    12.01070     Nd( 1.00)

      8 Sym. Ops., with inversion, found ( 6 have fractional translation)

   Cartesian axes

     site n.     atom                  positions (alat units)
         1           Fe  tau(   1) = (   0.3974015   0.1980173   1.5593045  )
         2           Fe  tau(   2) = (   0.1661412   0.8056544   0.9903773  )
         3           Fe  tau(   3) = (   0.9609442   0.4096197   0.7094106  )
         4           Fe  tau(   4) = (   0.3723103   0.5429257   0.4249470  )
         5           Fe  tau(   5) = (   0.1661412   0.8056544   1.5593045  )
         6           Fe  tau(   6) = (   0.3974015   0.1980173   0.9903773  )
         7           Fe  tau(   7) = (   0.1912324   1.1505628   0.4249470  )
         8           Fe  tau(   8) = (   0.7296838   1.0172567   0.7094106  )
         9           Fe  tau(   9) = (   0.9609442   0.4096197   0.1404833  )
        10           Fe  tau(  10) = (   0.7547750   0.6723483   1.2748409  )
        11           Fe  tau(  11) = (   0.7296838   1.0172567   0.1404833  )
        12           Fe  tau(  12) = (   0.9358530   0.0647113   1.2748409  )
        13           C   tau(  13) = (   0.0000000   0.0000000   0.0000000  )
        14           C   tau(  14) = (   0.5635427   0.6076370   0.0000000  )
        15           C   tau(  15) = (   0.5635427   0.6076370   0.8498939  )
        16           C   tau(  16) = (   0.0000000   0.0000000   0.8498939  )

     number of k points=    12  gaussian smearing, width (Ry)=  0.1000
                       cart. coord. in units 2pi/alat
        k(    1) = (   0.0000000   0.0000000   0.0000000), wk =   0.0833333
        k(    2) = (   0.0000000   0.0000000   0.1470772), wk =   0.1666667
        k(    3) = (   0.0000000   0.0000000  -0.2941544), wk =   0.0833333
        k(    4) = (   0.0000000   0.2742866   0.0000000), wk =   0.1666667
        k(    5) = (   0.0000000   0.2742866   0.1470772), wk =   0.3333333
        k(    6) = (   0.0000000   0.2742866  -0.2941544), wk =   0.1666667
        k(    7) = (  -0.4436221   0.0000000   0.0000000), wk =   0.0833333
        k(    8) = (  -0.4436221   0.0000000   0.1470772), wk =   0.1666667
        k(    9) = (  -0.4436221   0.0000000  -0.2941544), wk =   0.0833333
        k(   10) = (  -0.4436221   0.2742866   0.0000000), wk =   0.1666667
        k(   11) = (  -0.4436221   0.2742866   0.1470772), wk =   0.3333333
        k(   12) = (  -0.4436221   0.2742866  -0.2941544), wk =   0.1666667

     Largest allocated arrays     est. size (Mb)     dimensions
     Largest temporary arrays     est. size (Mb)     dimensions

     Initial potential from superposition of free atoms

     Starting from uniform charge
     Starting wfc are    0 randomized atomic wfcs

     Writing output data file Prototype-La-oP16-Fe3C.save

     Self-consistent Calculation

[...]

     iteration #  7     ecut=    40.00 Ry     beta=0.70
     CG style diagonalization
     ethr =  3.32E-04,  avg # of iterations =  3.8

[...]

     total energy              =   -5339.71653239 Ry
     Harris-Foulkes estimate   =   -5339.71660134 Ry
     estimated scf accuracy    <       0.00012068 Ry

     iteration # 11     ecut=    40.00 Ry     beta=0.70
     CG style diagonalization
     c_bands:  1 eigenvalues not converged
     ethr =  3.51E-08,  avg # of iterations =  4.0

     End of self-consistent calculation

[...]

          k = 0.0000 0.2743-0.2942 (  6756 PWs)   bands (ev):

[...]

          k =-0.4436 0.2743-0.2942 (  6804 PWs)   bands (ev):

   -85.0730 -85.0730 -85.0714 -85.0714 -85.0636 -85.0636 -85.0463 -85.0463
   -84.8871 -84.8871 -84.8603 -84.8603 -44.3049 -44.3049 -44.2965 -44.2965
   -44.2876 -44.2876 -44.2777 -44.2777 -44.1007 -44.1007 -44.0949 -44.0949
   -43.9510 -43.9510 -43.9460 -43.9460 -43.8871 -43.8871 -43.8831 -43.8831
   -43.8079 -43.8079 -43.8030 -43.8030 -43.7285 -43.7285 -43.7234 -43.7234
   -43.6961 -43.6961 -43.6922 -43.6922 -43.5707 -43.5707 -43.5589 -43.5589
   -10.6795 -10.6795 -10.6791 -10.6791   6.9506   6.9506   6.9539   6.9539
     7.3802   7.3802   7.3914   7.3914   7.8163   7.8163   7.8397   7.8397
    12.3236  12.3236  12.3347  12.3347  12.5502  12.5502  12.5788  12.5788
    12.5995  12.5995  12.8326  12.8326  12.9751  12.9751  13.0708  13.0708
    13.1417  13.1417  13.3451  13.3451  13.3579  13.3579  13.4331  13.4331
    13.6078  13.6078  13.6327  13.6327  13.7964  13.7964  13.8358  13.8358
    14.0015  14.0015  14.0600  14.0600  14.1609  14.1609  14.2274  14.2274
    14.3350  14.3350  14.4126  14.4126  14.5244  14.5244  14.5854  14.5854
    15.3604  15.3604  15.3955  15.3955  15.9768  15.9768  16.1188  16.1188
    16.5302  16.5302  16.5502  16.5502  24.5797  24.5797  24.7541  24.7541
    26.6926  26.6926  26.8349  26.8349  28.1972  28.1972  28.9192  28.9192
    29.8283  29.8283  31.1057  31.1057  31.6565  31.6565  31.6996  31.6996
    32.8081  32.8081  33.7533  33.7533  34.2615  34.2615  34.5569  34.5569
    35.0791  35.0791  35.7066  35.7066  36.4021  36.4021  36.5788  36.5788
    37.0714  37.0714  37.6040  37.6040  38.7468  38.7468  39.0949  39.0949
    40.0874  40.0874  40.3996  40.3996  40.8448  40.8448  41.0581  41.0581
    41.3918  41.3918  41.7850  41.7850  43.0398  43.0399  43.2995  43.2995
    44.0404  44.0405  44.8811  44.8811  45.1139  45.1140  45.1983  45.1983
    45.4784  45.4785  45.7231  45.7232  46.5400  46.5402  46.7233  46.7233
    47.1036  47.1039  47.2102  47.2103  47.5213  47.5214

     the Fermi energy is    40.4824 ev

!    total energy              =   -5339.71656403 Ry
     Harris-Foulkes estimate   =   -5339.71658305 Ry
     estimated scf accuracy    <       0.00002021 Ry

     The total energy is the sum of the following terms:

     one-electron contribution =   -1165.39140535 Ry
     hartree contribution      =     869.68110665 Ry
     xc contribution           =    -451.03998993 Ry
     ewald contribution        =   -4592.52031784 Ry
     smearing contrib. (-TS)   =      -0.44595755 Ry

     convergence has been achieved in  11 iterations

     Forces acting on atoms (Ry/au):

     atom    1 type  1   force =     0.40141021   -0.47771607   -0.55855339
     atom    2 type  1   force =    -0.40141021   -0.47771607    0.55855339
     atom    3 type  1   force =     0.40141021    0.47771607   -0.55855339
     atom    4 type  1   force =    -0.71919117   -0.28658249    0.00000000
     atom    5 type  1   force =    -0.40141021   -0.47771607   -0.55855339
     atom    6 type  1   force =     0.40141021   -0.47771607    0.55855339
     atom    7 type  1   force =     0.71919117   -0.28658249    0.00000000
     atom    8 type  1   force =    -0.40141021    0.47771607   -0.55855339
     atom    9 type  1   force =     0.40141021    0.47771607    0.55855339
     atom   10 type  1   force =     0.71919117    0.28658249    0.00000000
     atom   11 type  1   force =    -0.40141021    0.47771607    0.55855339
     atom   12 type  1   force =    -0.71919117    0.28658249    0.00000000
     atom   13 type  2   force =     0.00000000    0.00000000    0.00000000
     atom   14 type  2   force =     0.00000000    0.00000000    0.00000000
     atom   15 type  2   force =     0.00000000    0.00000000    0.00000000
     atom   16 type  2   force =     0.00000000    0.00000000    0.00000000

     Total force =     2.829851     Total SCF correction =     0.000000

     entering subroutine stress ...

          total   stress  (Ry/bohr**3)                   (kbar)     P= 3794.52
   0.02657420   0.00000000   0.00000000       3909.20      0.00      0.00
   0.00000000   0.02484574   0.00000000          0.00   3654.93      0.00
   0.00000000   0.00000000   0.02596391          0.00      0.00   3819.42

     Writing output data file Prototype-La-oP16-Fe3C.save

     General routines

     Parallel routines

   This run was terminated on:  13:54:36  22Mar2018

   JOB DONE.