     Program PWSCF v.5.0.2 starts on 22Mar2018 at 17:33: 5

     Current dimensions of program PWSCF are:
     Max number of different atomic species (ntypx) = 10
     Max number of k-points (npk) =  40000
     Max angular momentum in pseudopotentials (lmaxx) =  3
     Waiting for input...
     Reading input from standard input

     Subspace diagonalization in iterative solution of the eigenvalue problem:
     a serial algorithm will be used

     bravais-lattice index     =            0
     lattice parameter (alat)  =      12.0168  a.u.
     unit-cell volume          =    1187.3413 (a.u.)^3
     number of atoms/cell      =            8
     number of atomic types    =            2
     number of electrons       =       126.00
     number of Kohn-Sham states=           76
     kinetic-energy cutoff     =      40.0000  Ry
     charge density cutoff     =     160.0000  Ry
     convergence threshold     =      1.0E-04
     mixing beta               =       0.7000
     number of iterations used =            8  plain     mixing
     Exchange-correlation      = SLA-PZ-NOGX-NOGC ( 1 1 0 0 0)
     EXX-fraction              =        0.00
     nstep                     =           50

     celldm(1)=  12.016801  celldm(2)=   0.000000  celldm(3)=   0.000000
     celldm(4)=   0.000000  celldm(5)=   0.000000  celldm(6)=   0.000000

     crystal axes: (cart. coord. in units of alat)
               a(1) = (   1.000000   0.000000   0.000000 )
               a(2) = (  -0.500000   0.866025   0.000000 )
               a(3) = (   0.000000   0.000000   0.790093 )

     reciprocal axes: (cart. coord. in units 2 pi/alat)
               b(1) = (  1.000000  0.577350  0.000000 )
               b(2) = (  0.000000  1.154701  0.000000 )
               b(3) = (  0.000000  0.000000  1.265674 )

     PseudoPot. # 1 for Nd read from file:
     /home/cwx6513/pp.La/Nd.UPF
     MD5 check sum: c66c5b6abe7b5840ced9b1e244e3bed6
     Pseudo is Norm-conserving, Zval = 14.0
     Generated in analytical, separable form
     Using radial grid of 1257 points,  6 beta functions with:
                l(1) =   0
                l(2) =   0
                l(3) =   1
                l(4) =   1
                l(5) =   2
                l(6) =   3

     PseudoPot. # 2 for Ho read from file:
     /home/cwx6513/pp.La/Ho.UPF
     MD5 check sum: f307ee11bce99f5b724fa279e3790763
     Pseudo is Norm-conserving, Zval = 21.0
     Generated in analytical, separable form
     Using radial grid of 1265 points,  6 beta functions with:
                l(1) =   0
                l(2) =   0
                l(3) =   1
                l(4) =   1
                l(5) =   2
                l(6) =   3

     atomic species   valence    mass     pseudopotential
        Mg            14.00    24.30500     Nd( 1.00)
        Cd            21.00   112.41100     Ho( 1.00)

     24 Sym. Ops., with inversion, found (12 have fractional translation)

   Cartesian axes

     site n.     atom                  positions (alat units)
         1           Mg  tau(   1) = (   0.2478935   0.7204716   0.1975233  )
         2           Mg  tau(   2) = (   0.7478935   0.1455538   0.5925699  )
         3           Mg  tau(   3) = (   0.2521065   0.1455538   0.5925699  )
         4           Mg  tau(   4) = (  -0.2478935   0.7204716   0.1975233  )
         5           Mg  tau(   5) = (   0.0000000   0.2911075   0.1975233  )
         6           Mg  tau(   6) = (   0.5000000   0.5749179   0.5925699  )
         7           Cd  tau(   7) = (   0.5000005   0.2886748   0.1975233  )
         8           Cd  tau(   8) = (  -0.0000005   0.5773506   0.5925699  )

     number of k points=    64  gaussian smearing, width (Ry)=  0.1000
                       cart. coord. in units 2pi/alat
        k(    1) = (   0.0000000   0.0000000   0.0000000), wk =   0.0095238
        k(    2) = (   0.0000000   0.0000000   0.1808105), wk =   0.0190476
        k(    3) = (   0.0000000   0.0000000   0.3616210), wk =   0.0190476
        k(    4) = (   0.0000000   0.0000000   0.5424315), wk =   0.0190476
        k(    5) = (   0.0000000   0.1924501   0.0000000), wk =   0.0190476
        k(    6) = (   0.0000000   0.1924501   0.1808105), wk =   0.0380952
        k(    7) = (   0.0000000   0.1924501   0.3616210), wk =   0.0380952
        k(    8) = (   0.0000000   0.1924501   0.5424315), wk =   0.0380952
        k(    9) = (   0.0000000   0.3849002   0.0000000), wk =   0.0190476
        k(   10) = (   0.0000000   0.3849002   0.1808105), wk =   0.0380952
        k(   11) = (   0.0000000   0.3849002   0.3616210), wk =   0.0380952
        k(   12) = (   0.0000000   0.3849002   0.5424315), wk =   0.0380952
        k(   13) = (   0.0000000  -0.5773503   0.0000000), wk =   0.0095238
        k(   14) = (   0.0000000  -0.5773503   0.1808105), wk =   0.0190476
        k(   15) = (   0.0000000  -0.5773503   0.3616210), wk =   0.0190476
        k(   16) = (   0.0000000  -0.5773503   0.5424315), wk =   0.0190476
        k(   17) = (   0.2000000   0.1154701   0.0000000), wk =   0.0190476
        k(   18) = (   0.2000000   0.1154701   0.1808105), wk =   0.0380952
        k(   19) = (   0.2000000   0.1154701   0.3616210), wk =   0.0380952
        k(   20) = (   0.2000000   0.1154701   0.5424315), wk =   0.0380952
        k(   21) = (   0.2000000   0.3079201   0.0000000), wk =   0.0190476
        k(   22) = (   0.2000000   0.3079201   0.1808105), wk =   0.0380952
        k(   23) = (   0.2000000   0.3079201   0.3616210), wk =   0.0380952
        k(   24) = (   0.2000000   0.3079201   0.5424315), wk =   0.0380952
        k(   25) = (   0.2000000   0.5003702   0.0000000), wk =   0.0190476
        k(   26) = (   0.2000000   0.5003702   0.1808105), wk =   0.0380952
        k(   27) = (   0.2000000   0.5003702   0.3616210), wk =   0.0380952
        k(   28) = (   0.2000000   0.5003702   0.5424315), wk =   0.0380952
        k(   29) = (   0.2000000  -0.4618802   0.0000000), wk =   0.0190476
        k(   30) = (   0.2000000  -0.4618802   0.1808105), wk =   0.0380952
        k(   31) = (   0.2000000  -0.4618802   0.3616210), wk =   0.0380952
        k(   32) = (   0.2000000  -0.4618802   0.5424315), wk =   0.0380952
        k(   33) = (   0.2000000  -0.2694301   0.0000000), wk =   0.0190476
        k(   34) = (   0.2000000  -0.2694301   0.1808105), wk =   0.0380952
        k(   35) = (   0.2000000  -0.2694301   0.3616210), wk =   0.0380952
        k(   36) = (   0.2000000  -0.2694301   0.5424315), wk =   0.0380952
        k(   37) = (   0.2000000  -0.0769800   0.0000000), wk =   0.0190476
        k(   38) = (   0.2000000  -0.0769800   0.1808105), wk =   0.0380952
        k(   39) = (   0.2000000  -0.0769800   0.3616210), wk =   0.0380952
        k(   40) = (   0.2000000  -0.0769800   0.5424315), wk =   0.0380952
        k(   41) = (   0.4000000   0.2309401   0.0000000), wk =   0.0190476
        k(   42) = (   0.4000000   0.2309401   0.1808105), wk =   0.0380952
        k(   43) = (   0.4000000   0.2309401   0.3616210), wk =   0.0380952
        k(   44) = (   0.4000000   0.2309401   0.5424315), wk =   0.0380952
        k(   45) = (   0.4000000   0.4233902   0.0000000), wk =   0.0190476
        k(   46) = (   0.4000000   0.4233902   0.1808105), wk =   0.0380952
        k(   47) = (   0.4000000   0.4233902   0.3616210), wk =   0.0380952
        k(   48) = (   0.4000000   0.4233902   0.5424315), wk =   0.0380952
        k(   49) = (   0.4000000   0.6158403   0.0000000), wk =   0.0190476
        k(   50) = (   0.4000000   0.6158403   0.1808105), wk =   0.0380952
        k(   51) = (   0.4000000   0.6158403   0.3616210), wk =   0.0380952
        k(   52) = (   0.4000000   0.6158403   0.5424315), wk =   0.0380952
        k(   53) = (   0.4000000  -0.3464102   0.0000000), wk =   0.0190476
        k(   54) = (   0.4000000  -0.3464102   0.1808105), wk =   0.0380952
        k(   55) = (   0.4000000  -0.3464102   0.3616210), wk =   0.0380952
        k(   56) = (   0.4000000  -0.3464102   0.5424315), wk =   0.0380952
        k(   57) = (   0.4000000  -0.1539601   0.0000000), wk =   0.0190476
        k(   58) = (   0.4000000  -0.1539601   0.1808105), wk =   0.0380952
        k(   59) = (   0.4000000  -0.1539601   0.3616210), wk =   0.0380952
        k(   60) = (   0.4000000  -0.1539601   0.5424315), wk =   0.0380952
        k(   61) = (   0.4000000   0.0384900   0.0000000), wk =   0.0190476
        k(   62) = (   0.4000000   0.0384900   0.1808105), wk =   0.0380952
        k(   63) = (   0.4000000   0.0384900   0.3616210), wk =   0.0380952
        k(   64) = (   0.4000000   0.0384900   0.5424315), wk =   0.0380952

     Largest allocated arrays     est. size (Mb)     dimensions
     Largest temporary arrays     est. size (Mb)     dimensions

     Initial potential from superposition of free atoms

     Starting from uniform charge
     Starting wfc are    0 randomized atomic wfcs

     Self-consistent Calculation

     iteration #  1     ecut=    40.00 Ry     beta=0.70
     CG style diagonalization
     c_bands:  3 eigenvalues not converged
     c_bands:  2 eigenvalues not converged
     c_bands:  1 eigenvalues not converged
     c_bands:  1 eigenvalues not converged
     c_bands:  2 eigenvalues not converged
     c_bands:  1 eigenvalues not converged
     c_bands:  2 eigenvalues not converged
     c_bands:  1 eigenvalues not converged
     c_bands:  1 eigenvalues not converged
     c_bands:  2 eigenvalues not converged
     c_bands:  2 eigenvalues not converged
     c_bands:  2 eigenvalues not converged
     c_bands:  1 eigenvalues not converged
     c_bands:  2 eigenvalues not converged
     c_bands:  2 eigenvalues not converged
     c_bands:  2 eigenvalues not converged
     c_bands:  1 eigenvalues not converged
     c_bands:  1 eigenvalues not converged
     c_bands:  1 eigenvalues not converged
     c_bands:  2 eigenvalues not converged
     c_bands:  1 eigenvalues not converged
     c_bands:  2 eigenvalues not converged
     c_bands:  2 eigenvalues not converged
     c_bands:  2 eigenvalues not converged
     c_bands:  2 eigenvalues not converged
     c_bands:  1 eigenvalues not converged
     c_bands:  3 eigenvalues not converged
     c_bands:  2 eigenvalues not converged
     c_bands:  2 eigenvalues not converged
     c_bands:  2 eigenvalues not converged
     c_bands:  1 eigenvalues not converged
     c_bands:  1 eigenvalues not converged
     c_bands:  1 eigenvalues not converged
     c_bands:  2 eigenvalues not converged
     c_bands:  2 eigenvalues not converged
     c_bands:  1 eigenvalues not converged
     c_bands:  3 eigenvalues not converged
     c_bands:  3 eigenvalues not converged
     c_bands:  1 eigenvalues not converged
     c_bands:  1 eigenvalues not converged
     c_bands:  3 eigenvalues not converged
     c_bands:  1 eigenvalues not converged
     c_bands:  1 eigenvalues not converged
     c_bands:  2 eigenvalues not converged
     c_bands:  4 eigenvalues not converged
     c_bands:  2 eigenvalues not converged
     c_bands:  2 eigenvalues not converged
     c_bands:  2 eigenvalues not converged
     c_bands:  2 eigenvalues not converged
     c_bands:  1 eigenvalues not converged
[...]
        k(   10) = (   0.0000000   0.3952483   0.1807356), wk =   0.0380952
        k(   11) = (   0.0000000   0.3952483   0.3614711), wk =   0.0380952
        k(   12) = (   0.0000000   0.3952483   0.5422067), wk =   0.0380952
        k(   13) = (   0.0000000  -0.5928724   0.0000000), wk =   0.0095238
        k(   14) = (   0.0000000  -0.5928724   0.1807356), wk =   0.0190476
        k(   15) = (   0.0000000  -0.5928724   0.3614711), wk =   0.0190476
        k(   16) = (   0.0000000  -0.5928724   0.5422067), wk =   0.0190476
        k(   17) = (   0.2053770   0.1185745   0.0000000), wk =   0.0190476
        k(   18) = (   0.2053770   0.1185745   0.1807356), wk =   0.0380952
        k(   19) = (   0.2053770   0.1185745   0.3614711), wk =   0.0380952
        k(   20) = (   0.2053770   0.1185745   0.5422067), wk =   0.0380952
        k(   21) = (   0.2053770   0.3161986   0.0000000), wk =   0.0190476
        k(   22) = (   0.2053770   0.3161986   0.1807356), wk =   0.0380952
        k(   23) = (   0.2053770   0.3161986   0.3614711), wk =   0.0380952
        k(   24) = (   0.2053770   0.3161986   0.5422067), wk =   0.0380952
        k(   25) = (   0.2053770   0.5138228   0.0000000), wk =   0.0190476
        k(   26) = (   0.2053770   0.5138228   0.1807356), wk =   0.0380952
        k(   27) = (   0.2053770   0.5138228   0.3614711), wk =   0.0380952
        k(   28) = (   0.2053770   0.5138228   0.5422067), wk =   0.0380952
        k(   29) = (   0.2053770  -0.4742979   0.0000000), wk =   0.0190476
        k(   30) = (   0.2053770  -0.4742979   0.1807356), wk =   0.0380952
        k(   31) = (   0.2053770  -0.4742979   0.3614711), wk =   0.0380952
        k(   32) = (   0.2053770  -0.4742979   0.5422067), wk =   0.0380952
        k(   33) = (   0.2053770  -0.2766738   0.0000000), wk =   0.0190476
        k(   34) = (   0.2053770  -0.2766738   0.1807356), wk =   0.0380952
        k(   35) = (   0.2053770  -0.2766738   0.3614711), wk =   0.0380952
        k(   36) = (   0.2053770  -0.2766738   0.5422067), wk =   0.0380952
        k(   37) = (   0.2053770  -0.0790497   0.0000000), wk =   0.0190476
        k(   38) = (   0.2053770  -0.0790497   0.1807356), wk =   0.0380952
        k(   39) = (   0.2053770  -0.0790497   0.3614711), wk =   0.0380952
        k(   40) = (   0.2053770  -0.0790497   0.5422067), wk =   0.0380952
        k(   41) = (   0.4107541   0.2371490   0.0000000), wk =   0.0190476
        k(   42) = (   0.4107541   0.2371490   0.1807356), wk =   0.0380952
        k(   43) = (   0.4107541   0.2371490   0.3614711), wk =   0.0380952
        k(   44) = (   0.4107541   0.2371490   0.5422067), wk =   0.0380952
        k(   45) = (   0.4107541   0.4347731   0.0000000), wk =   0.0190476
        k(   46) = (   0.4107541   0.4347731   0.1807356), wk =   0.0380952
        k(   47) = (   0.4107541   0.4347731   0.3614711), wk =   0.0380952
        k(   48) = (   0.4107541   0.4347731   0.5422067), wk =   0.0380952
        k(   49) = (   0.4107541   0.6323972   0.0000000), wk =   0.0190476
        k(   50) = (   0.4107541   0.6323972   0.1807356), wk =   0.0380952
        k(   51) = (   0.4107541   0.6323972   0.3614711), wk =   0.0380952
        k(   52) = (   0.4107541   0.6323972   0.5422067), wk =   0.0380952
        k(   53) = (   0.4107541  -0.3557235   0.0000000), wk =   0.0190476
        k(   54) = (   0.4107541  -0.3557235   0.1807356), wk =   0.0380952
        k(   55) = (   0.4107541  -0.3557235   0.3614711), wk =   0.0380952
        k(   56) = (   0.4107541  -0.3557235   0.5422067), wk =   0.0380952
        k(   57) = (   0.4107541  -0.1580993   0.0000000), wk =   0.0190476
        k(   58) = (   0.4107541  -0.1580993   0.1807356), wk =   0.0380952
        k(   59) = (   0.4107541  -0.1580993   0.3614711), wk =   0.0380952
        k(   60) = (   0.4107541  -0.1580993   0.5422067), wk =   0.0380952
        k(   61) = (   0.4107541   0.0395248   0.0000000), wk =   0.0190476
        k(   62) = (   0.4107541   0.0395248   0.1807356), wk =   0.0380952
        k(   63) = (   0.4107541   0.0395248   0.3614711), wk =   0.0380952
        k(   64) = (   0.4107541   0.0395248   0.5422067), wk =   0.0380952

[...]

     The maximum number of steps has been reached.

     End of BFGS Geometry Optimization
Begin final coordinates
     new unit-cell volume =   1126.44989 a.u.^3 (   166.92265 Ang^3 )

CELL_PARAMETERS (alat= 12.01680127)
   0.973818739   0.000000000   0.000000000
  -0.486909369   0.843351767   0.000000000
   0.000000000   0.000000000   0.790420791

ATOMIC_POSITIONS (crystal)
Mg       0.671580496   0.835790248   0.250000000
Mg       0.835790248   0.164209752   0.750000000
Mg       0.328419504   0.164209752   0.750000000
Mg       0.164209752   0.835790248   0.250000000
Mg       0.164209752   0.328419504   0.250000000
Mg       0.835790248   0.671580496   0.750000000
Cd       0.666667000   0.333333000   0.250000000
Cd       0.333333000   0.666667000   0.750000000
End final coordinates

     A final scf calculation at the relaxed structure.
     The G-vectors are recalculated for the final unit cell
     Results may differ from those at the preceding step.

     bravais-lattice index     =            0
     lattice parameter (alat)  =      12.0168  a.u.
     unit-cell volume          =    1126.4499 (a.u.)^3
     number of atoms/cell      =            8
     number of atomic types    =            2
     number of electrons       =       126.00
     number of Kohn-Sham states=           76
     kinetic-energy cutoff     =      40.0000  Ry
     charge density cutoff     =     160.0000  Ry
     convergence threshold     =      2.8E-05
     mixing beta               =       0.7000
     number of iterations used =            8  plain     mixing
     Exchange-correlation      = SLA-PZ-NOGX-NOGC ( 1 1 0 0 0)
     EXX-fraction              =        0.00

     celldm(1)=  12.016801  celldm(2)=   0.000000  celldm(3)=   0.000000
     celldm(4)=   0.000000  celldm(5)=   0.000000  celldm(6)=   0.000000

     crystal axes: (cart. coord. in units of alat)
               a(1) = (   0.973819   0.000000   0.000000 )
               a(2) = (  -0.486909   0.843352   0.000000 )
               a(3) = (   0.000000   0.000000   0.790421 )

     reciprocal axes: (cart. coord. in units 2 pi/alat)
               b(1) = (  1.026885  0.592872  0.000000 )
               b(2) = (  0.000000  1.185745  0.000000 )
               b(3) = (  0.000000  0.000000  1.265149 )

     PseudoPot. # 1 for Nd read from file:
     /home/cwx6513/pp.La/Nd.UPF
     MD5 check sum: c66c5b6abe7b5840ced9b1e244e3bed6
     Pseudo is Norm-conserving, Zval = 14.0
     Generated in analytical, separable form
     Using radial grid of 1257 points,  6 beta functions with:
                l(1) =   0
                l(2) =   0
                l(3) =   1
                l(4) =   1
                l(5) =   2
                l(6) =   3

     PseudoPot. # 2 for Ho read from file:
     /home/cwx6513/pp.La/Ho.UPF
     MD5 check sum: f307ee11bce99f5b724fa279e3790763
     Pseudo is Norm-conserving, Zval = 21.0
     Generated in analytical, separable form
     Using radial grid of 1265 points,  6 beta functions with:
                l(1) =   0
                l(2) =   0
                l(3) =   1
                l(4) =   1
                l(5) =   2
                l(6) =   3

     atomic species   valence    mass     pseudopotential
        Mg            14.00    24.30500     Nd( 1.00)
        Cd            21.00   112.41100     Ho( 1.00)

     24 Sym. Ops., with inversion, found (12 have fractional translation)

   Cartesian axes

     site n.     atom                  positions (alat units)
         1           Mg  tau(   1) = (   0.2470436   0.7048652   0.1976052  )
         2           Mg  tau(   2) = (   0.7339529   0.1384866   0.5928156  )
         3           Mg  tau(   3) = (   0.2398658   0.1384866   0.5928156  )
         4           Mg  tau(   4) = (  -0.2470436   0.7048652   0.1976052  )
         5           Mg  tau(   5) = (   0.0000000   0.2769732   0.1976052  )
         6           Mg  tau(   6) = (   0.4869094   0.5663786   0.5928156  )
         7           Cd  tau(   7) = (   0.4869099   0.2811170   0.1976052  )
         8           Cd  tau(   8) = (  -0.0000005   0.5622348   0.5928156  )

     number of k points=    64  gaussian smearing, width (Ry)=  0.1000
                       cart. coord. in units 2pi/alat
        k(    1) = (   0.0000000   0.0000000   0.0000000), wk =   0.0095238
        k(    2) = (   0.0000000   0.0000000   0.1807356), wk =   0.0190476
        k(    3) = (   0.0000000   0.0000000   0.3614711), wk =   0.0190476
        k(    4) = (   0.0000000   0.0000000   0.5422067), wk =   0.0190476
        k(    5) = (   0.0000000   0.1976241   0.0000000), wk =   0.0190476
        k(    6) = (   0.0000000   0.1976241   0.1807356), wk =   0.0380952
        k(    7) = (   0.0000000   0.1976241   0.3614711), wk =   0.0380952
        k(    8) = (   0.0000000   0.1976241   0.5422067), wk =   0.0380952
        k(    9) = (   0.0000000   0.3952483   0.0000000), wk =   0.0190476
        k(   10) = (   0.0000000   0.3952483   0.1807356), wk =   0.0380952
        k(   11) = (   0.0000000   0.3952483   0.3614711), wk =   0.0380952
        k(   12) = (   0.0000000   0.3952483   0.5422067), wk =   0.0380952
        k(   13) = (   0.0000000  -0.5928724   0.0000000), wk =   0.0095238
        k(   14) = (   0.0000000  -0.5928724   0.1807356), wk =   0.0190476
        k(   15) = (   0.0000000  -0.5928724   0.3614711), wk =   0.0190476
        k(   16) = (   0.0000000  -0.5928724   0.5422067), wk =   0.0190476
        k(   17) = (   0.2053770   0.1185745   0.0000000), wk =   0.0190476
        k(   18) = (   0.2053770   0.1185745   0.1807356), wk =   0.0380952
        k(   19) = (   0.2053770   0.1185745   0.3614711), wk =   0.0380952
        k(   20) = (   0.2053770   0.1185745   0.5422067), wk =   0.0380952
        k(   21) = (   0.2053770   0.3161986   0.0000000), wk =   0.0190476
        k(   22) = (   0.2053770   0.3161986   0.1807356), wk =   0.0380952
        k(   23) = (   0.2053770   0.3161986   0.3614711), wk =   0.0380952
        k(   24) = (   0.2053770   0.3161986   0.5422067), wk =   0.0380952
        k(   25) = (   0.2053770   0.5138228   0.0000000), wk =   0.0190476
        k(   26) = (   0.2053770   0.5138228   0.1807356), wk =   0.0380952
        k(   27) = (   0.2053770   0.5138228   0.3614711), wk =   0.0380952
        k(   28) = (   0.2053770   0.5138228   0.5422067), wk =   0.0380952
        k(   29) = (   0.2053770  -0.4742979   0.0000000), wk =   0.0190476
        k(   30) = (   0.2053770  -0.4742979   0.1807356), wk =   0.0380952
        k(   31) = (   0.2053770  -0.4742979   0.3614711), wk =   0.0380952
        k(   32) = (   0.2053770  -0.4742979   0.5422067), wk =   0.0380952
        k(   33) = (   0.2053770  -0.2766738   0.0000000), wk =   0.0190476
        k(   34) = (   0.2053770  -0.2766738   0.1807356), wk =   0.0380952
        k(   35) = (   0.2053770  -0.2766738   0.3614711), wk =   0.0380952
        k(   36) = (   0.2053770  -0.2766738   0.5422067), wk =   0.0380952
        k(   37) = (   0.2053770  -0.0790497   0.0000000), wk =   0.0190476
        k(   38) = (   0.2053770  -0.0790497   0.1807356), wk =   0.0380952
        k(   39) = (   0.2053770  -0.0790497   0.3614711), wk =   0.0380952
        k(   40) = (   0.2053770  -0.0790497   0.5422067), wk =   0.0380952
        k(   41) = (   0.4107541   0.2371490   0.0000000), wk =   0.0190476
        k(   42) = (   0.4107541   0.2371490   0.1807356), wk =   0.0380952
        k(   43) = (   0.4107541   0.2371490   0.3614711), wk =   0.0380952
        k(   44) = (   0.4107541   0.2371490   0.5422067), wk =   0.0380952
        k(   45) = (   0.4107541   0.4347731   0.0000000), wk =   0.0190476
        k(   46) = (   0.4107541   0.4347731   0.1807356), wk =   0.0380952
        k(   47) = (   0.4107541   0.4347731   0.3614711), wk =   0.0380952
        k(   48) = (   0.4107541   0.4347731   0.5422067), wk =   0.0380952
        k(   49) = (   0.4107541   0.6323972   0.0000000), wk =   0.0190476
        k(   50) = (   0.4107541   0.6323972   0.1807356), wk =   0.0380952
        k(   51) = (   0.4107541   0.6323972   0.3614711), wk =   0.0380952
        k(   52) = (   0.4107541   0.6323972   0.5422067), wk =   0.0380952
        k(   53) = (   0.4107541  -0.3557235   0.0000000), wk =   0.0190476
        k(   54) = (   0.4107541  -0.3557235   0.1807356), wk =   0.0380952
        k(   55) = (   0.4107541  -0.3557235   0.3614711), wk =   0.0380952
        k(   56) = (   0.4107541  -0.3557235   0.5422067), wk =   0.0380952
        k(   57) = (   0.4107541  -0.1580993   0.0000000), wk =   0.0190476
        k(   58) = (   0.4107541  -0.1580993   0.1807356), wk =   0.0380952
        k(   59) = (   0.4107541  -0.1580993   0.3614711), wk =   0.0380952
        k(   60) = (   0.4107541  -0.1580993   0.5422067), wk =   0.0380952
        k(   61) = (   0.4107541   0.0395248   0.0000000), wk =   0.0190476
        k(   62) = (   0.4107541   0.0395248   0.1807356), wk =   0.0380952
        k(   63) = (   0.4107541   0.0395248   0.3614711), wk =   0.0380952
        k(   64) = (   0.4107541   0.0395248   0.5422067), wk =   0.0380952

     Largest allocated arrays     est. size (Mb)     dimensions
     Largest temporary arrays     est. size (Mb)     dimensions

     Initial potential from superposition of free atoms

     Starting from uniform charge
     Starting wfc are    0 randomized atomic wfcs

     Writing output data file Prototype-La-hP8-Mg3Cd.save

     Self-consistent Calculation

[...]

     iteration #  5     ecut=    40.00 Ry     beta=0.70
     CG style diagonalization
     ethr =  1.00E-02,  avg # of iterations =  3.6

[...]

     total energy              =   -1249.74572694 Ry
     Harris-Foulkes estimate   =   -1249.74575009 Ry
     estimated scf accuracy    <       0.00005055 Ry

     iteration # 10     ecut=    40.00 Ry     beta=0.70
     CG style diagonalization
     c_bands:  1 eigenvalues not converged
     ethr =  4.01E-08,  avg # of iterations =  5.0

     End of self-consistent calculation

[...]

          k = 0.4108 0.0395 0.5422 (  4795 PWs)   bands (ev):

   -68.3335 -68.3310 -32.4676 -32.4649 -32.4636 -32.4593 -32.4531 -32.4519
   -24.7150 -24.6522 -24.5812 -24.5538 -24.5243 -24.5025  -3.8281  -3.8004
    -3.7404  -3.7078  -3.5733  -3.5288  -3.0783  -2.9486  -2.8292  -2.8175
    -2.6824  -2.5871  -2.5279  -2.4984  -2.4520  -2.3620  -2.3022  -2.2877
    11.3575  11.3769  11.3812  11.4041  11.4364  11.4454  11.4882  11.4958
    11.5460  11.5685  16.0679  16.1126  18.6768  18.8966  19.2676  19.3589
    19.7303  19.9316  19.9709  20.1046  20.3944  20.4718  20.8501  20.9112
    21.3115  21.3767  21.8288  21.8650  22.5048  22.6003  22.6769  23.6248
    23.8165  24.0270  24.5504  24.6935  24.7838  24.8771  25.2915  25.3683
    26.0693  26.1636  26.5178  26.7983

     the Fermi energy is    23.2390 ev

!    total energy              =   -1249.74576719 Ry
     Harris-Foulkes estimate   =   -1249.74577300 Ry
     estimated scf accuracy    <       0.00000813 Ry

     The total energy is the sum of the following terms:

     one-electron contribution =    -165.37572351 Ry
     hartree contribution      =     168.76682323 Ry
     xc contribution           =    -130.42705443 Ry
     ewald contribution        =   -1122.27363334 Ry
     smearing contrib. (-TS)   =      -0.43617913 Ry

     convergence has been achieved in  10 iterations

     Forces acting on atoms (Ry/au):

     atom    1 type  1   force =     0.01777035    0.01025972    0.00000000
     atom    2 type  1   force =     0.01777035   -0.01025972    0.00000000
     atom    3 type  1   force =    -0.01777035   -0.01025972    0.00000000
     atom    4 type  1   force =    -0.01777035    0.01025972    0.00000000
     atom    5 type  1   force =     0.00000000   -0.02051943    0.00000000
     atom    6 type  1   force =     0.00000000    0.02051943    0.00000000
     atom    7 type  2   force =     0.00000000    0.00000000    0.00000000
     atom    8 type  2   force =     0.00000000    0.00000000    0.00000000

     Total force =     0.050262     Total SCF correction =     0.000000

     entering subroutine stress ...

          total   stress  (Ry/bohr**3)                   (kbar)     P=  -27.26
  -0.00025729   0.00000000   0.00000000        -37.85      0.00      0.00
   0.00000000  -0.00025729   0.00000000          0.00    -37.85      0.00
   0.00000000   0.00000000  -0.00004139          0.00      0.00     -6.09

     Writing output data file Prototype-La-hP8-Mg3Cd.save

     General routines

     Parallel routines

   This run was terminated on:  18: 8:21  22Mar2018

   JOB DONE.