     Program PWSCF v.5.0.2 starts on 22Mar2018 at 17:33: 3

     Current dimensions of program PWSCF are:
     Max number of different atomic species (ntypx) = 10
     Max number of k-points (npk) =  40000
     Max angular momentum in pseudopotentials (lmaxx) =  3
     Waiting for input...
     Reading input from standard input

     Subspace diagonalization in iterative solution of the eigenvalue problem:
     a serial algorithm will be used

     bravais-lattice index     =            0
     lattice parameter (alat)  =       9.9235  a.u.
     unit-cell volume          =    1361.0366 (a.u.)^3
     number of atoms/cell      =           12
     number of atomic types    =            2
     number of electrons       =       224.00
     number of Kohn-Sham states=          134
     kinetic-energy cutoff     =      40.0000  Ry
     charge density cutoff     =     160.0000  Ry
     convergence threshold     =      1.0E-04
     mixing beta               =       0.7000
     number of iterations used =            8  plain     mixing
     Exchange-correlation      = SLA-PZ-NOGX-NOGC ( 1 1 0 0 0)
     EXX-fraction              =        0.00
     nstep                     =           50

     celldm(1)=   9.923489  celldm(2)=   0.000000  celldm(3)=   0.000000
     celldm(4)=   0.000000  celldm(5)=   0.000000  celldm(6)=   0.000000

     crystal axes: (cart. coord. in units of alat)
               a(1) = (   1.000000   0.000000   0.000000 )
               a(2) = (  -0.500000   0.866025   0.000000 )
               a(3) = (   0.000000   0.000000   1.608222 )

     reciprocal axes: (cart. coord. in units 2 pi/alat)
               b(1) = (  1.000000  0.577350  0.000000 )
               b(2) = (  0.000000  1.154701  0.000000 )
               b(3) = (  0.000000  0.000000  0.621805 )

     PseudoPot. # 1 for Nd read from file:
     /home/cwx6513/pp.La/Nd.UPF
     MD5 check sum: c66c5b6abe7b5840ced9b1e244e3bed6
     Pseudo is Norm-conserving, Zval = 14.0
     Generated in analytical, separable form
     Using radial grid of 1257 points,  6 beta functions with:
                l(1) =   0
                l(2) =   0
                l(3) =   1
                l(4) =   1
                l(5) =   2
                l(6) =   3

     PseudoPot. # 2 for Ho read from file:
     /home/cwx6513/pp.La/Ho.UPF
     MD5 check sum: f307ee11bce99f5b724fa279e3790763
     Pseudo is Norm-conserving, Zval = 21.0
     Generated in analytical, separable form
     Using radial grid of 1265 points,  6 beta functions with:
                l(1) =   0
                l(2) =   0
                l(3) =   1
                l(4) =   1
                l(5) =   2
                l(6) =   3

     atomic species   valence    mass     pseudopotential
        Mg            14.00    24.30500     Nd( 1.00)
        Zn            21.00    65.39000     Ho( 1.00)

     24 Sym. Ops., with inversion, found (12 have fractional translation)

   Cartesian axes

     site n.     atom                  positions (alat units)
         1           Mg  tau(   1) = (  -0.0000005   0.5773506   0.1003820  )
         2           Mg  tau(   2) = (   0.5000005   0.2886748   0.9044931  )
         3           Mg  tau(   3) = (   0.5000005   0.2886748   1.5078402  )
         4           Mg  tau(   4) = (  -0.0000005   0.5773506   0.7037291  )
         5           Zn  tau(   5) = (   0.0000000   0.0000000   0.0000000  )
         6           Zn  tau(   6) = (   0.0000000   0.0000000   0.8041111  )
         7           Zn  tau(   7) = (   0.0000000   0.2950739   1.2061667  )
         8           Zn  tau(   8) = (   0.7444585   0.1475370   0.4020556  )
         9           Zn  tau(   9) = (   0.2555415   0.1475370   0.4020556  )
        10           Zn  tau(  10) = (   0.2444585   0.7184884   1.2061667  )
        11           Zn  tau(  11) = (  -0.2444585   0.7184884   1.2061667  )
        12           Zn  tau(  12) = (   0.5000000   0.5709515   0.4020556  )

     number of k points=    12  gaussian smearing, width (Ry)=  0.1000
                       cart. coord. in units 2pi/alat
        k(    1) = (   0.0000000   0.0000000   0.0000000), wk =   0.0833333
        k(    2) = (   0.0000000   0.0000000   0.1554512), wk =   0.1666667
        k(    3) = (   0.0000000   0.0000000  -0.3109023), wk =   0.0833333
        k(    4) = (   0.0000000   0.3849002   0.0000000), wk =   0.1666667
        k(    5) = (   0.0000000   0.3849002   0.1554512), wk =   0.3333333
        k(    6) = (   0.0000000   0.3849002  -0.3109023), wk =   0.1666667
        k(    7) = (  -0.5000000  -0.2886751   0.0000000), wk =   0.0833333
        k(    8) = (  -0.5000000  -0.2886751   0.1554512), wk =   0.1666667
        k(    9) = (  -0.5000000  -0.2886751  -0.3109023), wk =   0.0833333
        k(   10) = (  -0.5000000   0.0962250   0.0000000), wk =   0.1666667
        k(   11) = (  -0.5000000   0.0962250   0.1554512), wk =   0.3333333
        k(   12) = (  -0.5000000   0.0962250  -0.3109023), wk =   0.1666667

     Largest allocated arrays     est. size (Mb)     dimensions
     Largest temporary arrays     est. size (Mb)     dimensions

     Initial potential from superposition of free atoms

     Starting from uniform charge
     Starting wfc are    0 randomized atomic wfcs

     Self-consistent Calculation

     iteration #  1     ecut=    40.00 Ry     beta=0.70
     CG style diagonalization
     c_bands:  2 eigenvalues not converged
     c_bands:  3 eigenvalues not converged
     c_bands:  1 eigenvalues not converged
     c_bands:  1 eigenvalues not converged
     c_bands:  1 eigenvalues not converged
     c_bands:  3 eigenvalues not converged
     ethr =  1.00E-02,  avg # of iterations = 20.3

     total energy              =   -1805.67724728 Ry
     Harris-Foulkes estimate   =   -3735.47762487 Ry
     estimated scf accuracy    <    2324.60875891 Ry

     iteration #  2     ecut=    40.00 Ry     beta=0.70
     CG style diagonalization
     ethr =  1.00E-02,  avg # of iterations = 19.5

[...]

     End of self-consistent calculation

          k = 0.0000 0.0000 0.0000 (  5769 PWs)   bands (ev):

   -61.6790 -61.6433 -61.6161 -61.5395 -61.5380 -61.5379 -61.5294 -61.5294
   -27.0102 -26.8027 -26.4913 -26.1364 -26.1364 -26.0933 -26.0933 -26.0437
   -25.9742 -25.9742 -25.8167 -25.6981 -25.6981 -25.6908 -25.6908 -25.5280
   -25.5280 -25.5084 -25.4762 -25.4762 -25.4193 -25.4192 -25.3991 -25.3835
   -15.3669 -15.3022 -15.2118 -15.1515   5.7349   5.7600   5.7692   5.7692
     5.7953   5.7953   6.3711   6.3758   6.3832   6.3832   6.4389   6.4389
    12.6645  13.3222  13.8696  14.8021  14.8021  15.0659  15.0660  15.4325
    15.4662  15.4663  15.8608  15.8609  16.6870  16.8981  17.0278  17.0278
    17.4524  17.4524  17.8378  18.3057  18.3057  18.5238  18.5238  18.5552
    18.6797  19.1245  19.1245  19.1303  19.1481  19.1481  19.1901  19.2042
    19.2042  19.2142  19.2142  20.3176  20.3176  20.8296  20.8296  20.8783
    21.5202  21.5215  22.6192  25.4461  26.1261  26.7911  26.7911  26.8124
    26.8125  27.1433  27.4203  27.4203  28.0290  28.0290  29.3450  29.3450
    29.3849  29.3849  30.7937  30.8289  32.4902  33.0556  33.0556  33.3187
    33.3187  34.2330  34.2330  34.3681  34.3681  34.7276  34.7868  34.7875
    34.7875  35.6522  35.9612  36.2497  36.6055  36.6056  36.6414  37.4682
    37.9081  37.9098  38.2396  38.2403  38.2930  38.3020

[...]

          k =-0.5000-0.2887 0.0000 (  5800 PWs)   bands (ev):

[...]

     the Fermi energy is    32.7725 ev

!    total energy              =   -2787.04549828 Ry
     Harris-Foulkes estimate   =   -2787.04551094 Ry
     estimated scf accuracy    <       0.00001428 Ry

     The total energy is the sum of the following terms:

     one-electron contribution =    -496.86948830 Ry
     hartree contribution      =     441.67794794 Ry
     xc contribution           =    -264.08596492 Ry
     ewald contribution        =   -2467.34628673 Ry
     smearing contrib. (-TS)   =      -0.42170626 Ry

     convergence has been achieved in  11 iterations

     Forces acting on atoms (Ry/au):

     atom    1 type  1   force =     0.00000000    0.00000000    0.02367985
     atom    2 type  1   force =     0.00000000    0.00000000    0.02367985
     atom    3 type  1   force =     0.00000000    0.00000000   -0.02367985
     atom    4 type  1   force =     0.00000000    0.00000000   -0.02367985
     atom    5 type  2   force =     0.00000000    0.00000000    0.00000000
     atom    6 type  2   force =     0.00000000    0.00000000    0.00000000
     atom    7 type  2   force =     0.00000000    0.11918432    0.00000000
     atom    8 type  2   force =    -0.10321665    0.05959216    0.00000000
     atom    9 type  2   force =     0.10321665    0.05959216    0.00000000
     atom   10 type  2   force =    -0.10321665   -0.05959216    0.00000000
     atom   11 type  2   force =     0.10321665   -0.05959216    0.00000000
     atom   12 type  2   force =     0.00000000   -0.11918432    0.00000000

     Total force =     0.295757     Total SCF correction =     0.000000

     entering subroutine stress ...

          total   stress  (Ry/bohr**3)                   (kbar)     P=  947.60
   0.00640633   0.00000000   0.00000000        942.40      0.00      0.00
   0.00000000   0.00640633   0.00000000          0.00    942.40      0.00
   0.00000000   0.00000000   0.00651239          0.00      0.00    958.01

     BFGS Geometry Optimization

     number of scf cycles    =   1
     number of bfgs steps    =   0

     enthalpy new            =   -2787.0454982763 Ry

     new trust radius        =       0.5000000000 bohr
     new conv_thr            =       0.0001000000 Ry

     new unit-cell volume =   1653.47836 a.u.^3 (   245.02021 Ang^3 )

CELL_PARAMETERS (alat=  9.92348860)
   1.066661253   0.000000000   0.000000000
  -0.533330626   0.923755742   0.000000000
   0.000000000   0.000000000   1.717203317

ATOMIC_POSITIONS (crystal)
Mg       0.333333000   0.666667000   0.063035580
Mg       0.666667000   0.333333000   0.563035580
Mg       0.666667000   0.333333000   0.936964420
Mg       0.333333000   0.666667000   0.436964420
Zn       0.000000000   0.000000000   0.000000000
Zn       0.000000000   0.000000000   0.500000000
Zn       0.173247148   0.346494296   0.750000000
Zn       0.826752852   0.173247148   0.250000000
Zn       0.346494296   0.173247148   0.250000000
Zn       0.653505704   0.826752852   0.750000000
Zn       0.173247148   0.826752852   0.750000000
Zn       0.826752852   0.653505704   0.250000000

     Writing output data file Prototype-La-hP12-MgZn2.save
     NEW-OLD atomic charge density approx. for the potential
     NEW k-points:
        k(    1) = (   0.0000000   0.0000000   0.0000000), wk =   0.0833333
        k(    2) = (   0.0000000   0.0000000   0.1455856), wk =   0.1666667
        k(    3) = (   0.0000000   0.0000000  -0.2911711), wk =   0.0833333
        k(    4) = (   0.0000000   0.3608457   0.0000000), wk =   0.1666667
        k(    5) = (   0.0000000   0.3608457   0.1455856), wk =   0.3333333
        k(    6) = (   0.0000000   0.3608457  -0.2911711), wk =   0.1666667
        k(    7) = (  -0.4687524  -0.2706343   0.0000000), wk =   0.0833333
        k(    8) = (  -0.4687524  -0.2706343   0.1455856), wk =   0.1666667
        k(    9) = (  -0.4687524  -0.2706343  -0.2911711), wk =   0.0833333
        k(   10) = (  -0.4687524   0.0902114   0.0000000), wk =   0.1666667
        k(   11) = (  -0.4687524   0.0902114   0.1455856), wk =   0.3333333
        k(   12) = (  -0.4687524   0.0902114  -0.2911711), wk =   0.1666667

[...]

     enthalpy old            =   -2787.0454982763 Ry
     enthalpy new            =   -2787.5975842315 Ry

     CASE: enthalpy_new < enthalpy_old

     small trust_radius: resetting bfgs history

     new trust radius        =       0.3648063918 bohr
     new conv_thr            =       0.0000282791 Ry

[...]

     number of scf cycles    =   3
     number of bfgs steps    =   2

     enthalpy old            =   -2787.5975842315 Ry
     enthalpy new            =   -2787.4979137443 Ry

     CASE: enthalpy_new > enthalpy_old

     new trust radius        =       0.1395959005 bohr

     trust_radius < trust_radius_min

     resetting bfgs history

     Message from routine bfgs:
     history already reset at previous step: stopping
     new conv_thr            =       0.0000282791 Ry

     new unit-cell volume =   1446.75897 a.u.^3 (   214.38756 Ang^3 )

[...]

ATOMIC_POSITIONS (crystal)
Mg       0.333333000   0.666667000   0.063769750
Mg       0.666667000   0.333333000   0.563769750
Mg       0.666667000   0.333333000   0.936230250
Mg       0.333333000   0.666667000   0.436230250
Zn       0.000000000   0.000000000   0.000000000
Zn       0.000000000   0.000000000   0.500000000
Zn       0.171572881   0.343145763   0.750000000
Zn       0.828427119   0.171572881   0.250000000
Zn       0.343145763   0.171572881   0.250000000
Zn       0.656854237   0.828427119   0.750000000
Zn       0.171572881   0.828427119   0.750000000
Zn       0.828427119   0.656854237   0.250000000

     Writing output data file Prototype-La-hP12-MgZn2.save
     NEW-OLD atomic charge density approx. for the potential
     NEW k-points:
        k(    1) = (   0.0000000   0.0000000   0.0000000), wk =   0.0833333
        k(    2) = (   0.0000000   0.0000000   0.1526865), wk =   0.1666667
        k(    3) = (   0.0000000   0.0000000  -0.3053729), wk =   0.0833333
        k(    4) = (   0.0000000   0.3766879   0.0000000), wk =   0.1666667
        k(    5) = (   0.0000000   0.3766879   0.1526865), wk =   0.3333333
        k(    6) = (   0.0000000   0.3766879  -0.3053729), wk =   0.1666667
        k(    7) = (  -0.4893319  -0.2825159   0.0000000), wk =   0.0833333
        k(    8) = (  -0.4893319  -0.2825159   0.1526865), wk =   0.1666667
        k(    9) = (  -0.4893319  -0.2825159  -0.3053729), wk =   0.0833333
        k(   10) = (  -0.4893319   0.0941720   0.0000000), wk =   0.1666667
        k(   11) = (  -0.4893319   0.0941720   0.1526865), wk =   0.3333333
        k(   12) = (  -0.4893319   0.0941720  -0.3053729), wk =   0.1666667

[...]

     The maximum number of steps has been reached.

     End of BFGS Geometry Optimization
Begin final coordinates
     new unit-cell volume =   1446.75897 a.u.^3 (   214.38756 Ang^3 )

CELL_PARAMETERS (alat=  9.92348860)
   1.021801326   0.000000000   0.000000000
  -0.510900663   0.884905906   0.000000000
   0.000000000   0.000000000   1.637342381

ATOMIC_POSITIONS (crystal)
Mg       0.333333000   0.666667000   0.063769750
Mg       0.666667000   0.333333000   0.563769750
Mg       0.666667000   0.333333000   0.936230250
Mg       0.333333000   0.666667000   0.436230250
Zn       0.000000000   0.000000000   0.000000000
Zn       0.000000000   0.000000000   0.500000000
Zn       0.171572881   0.343145763   0.750000000
Zn       0.828427119   0.171572881   0.250000000
Zn       0.343145763   0.171572881   0.250000000
Zn       0.656854237   0.828427119   0.750000000
Zn       0.171572881   0.828427119   0.750000000
Zn       0.828427119   0.656854237   0.250000000
End final coordinates

     A final scf calculation at the relaxed structure.
     The G-vectors are recalculated for the final unit cell
     Results may differ from those at the preceding step.

     bravais-lattice index     =            0
     lattice parameter (alat)  =       9.9235  a.u.
     unit-cell volume          =    1446.7590 (a.u.)^3
     number of atoms/cell      =           12
     number of atomic types    =            2
     number of electrons       =       224.00
     number of Kohn-Sham states=          134
     kinetic-energy cutoff     =      40.0000  Ry
     charge density cutoff     =     160.0000  Ry
     convergence threshold     =      2.8E-05
     mixing beta               =       0.7000
     number of iterations used =            8  plain     mixing
     Exchange-correlation      = SLA-PZ-NOGX-NOGC ( 1 1 0 0 0)
     EXX-fraction              =        0.00

     celldm(1)=   9.923489  celldm(2)=   0.000000  celldm(3)=   0.000000
     celldm(4)=   0.000000  celldm(5)=   0.000000  celldm(6)=   0.000000

     crystal axes: (cart. coord. in units of alat)
               a(1) = (   1.021801   0.000000   0.000000 )
               a(2) = (  -0.510901   0.884906   0.000000 )
               a(3) = (   0.000000   0.000000   1.637342 )

     reciprocal axes: (cart. coord. in units 2 pi/alat)
               b(1) = (  0.978664  0.565032  0.000000 )
               b(2) = (  0.000000  1.130064  0.000000 )
               b(3) = (  0.000000  0.000000  0.610746 )

     PseudoPot. # 1 for Nd read from file:
     /home/cwx6513/pp.La/Nd.UPF
     MD5 check sum: c66c5b6abe7b5840ced9b1e244e3bed6
     Pseudo is Norm-conserving, Zval = 14.0
     Generated in analytical, separable form
     Using radial grid of 1257 points,  6 beta functions with:
                l(1) =   0
                l(2) =   0
                l(3) =   1
                l(4) =   1
                l(5) =   2
                l(6) =   3

     PseudoPot. # 2 for Ho read from file:
     /home/cwx6513/pp.La/Ho.UPF
     MD5 check sum: f307ee11bce99f5b724fa279e3790763
     Pseudo is Norm-conserving, Zval = 21.0
     Generated in analytical, separable form
     Using radial grid of 1265 points,  6 beta functions with:
                l(1) =   0
                l(2) =   0
                l(3) =   1
                l(4) =   1
                l(5) =   2
                l(6) =   3

     atomic species   valence    mass     pseudopotential
        Mg            14.00    24.30500     Nd( 1.00)
        Zn            21.00    65.39000     Ho( 1.00)

     24 Sym. Ops., with inversion, found (12 have fractional translation)

   Cartesian axes

     site n.     atom                  positions (alat units)
         1           Mg  tau(   1) = (  -0.0000005   0.5899376   0.1044129  )
         2           Mg  tau(   2) = (   0.5109012   0.2949683   0.9230841  )
         3           Mg  tau(   3) = (   0.5109012   0.2949683   1.5329295  )
         4           Mg  tau(   4) = (  -0.0000005   0.5899376   0.7142583  )
         5           Zn  tau(   5) = (   0.0000000   0.0000000   0.0000000  )
         6           Zn  tau(   6) = (   0.0000000   0.0000000   0.8186712  )
         7           Zn  tau(   7) = (   0.0000000   0.3036517   1.2280068  )
         8           Zn  tau(   8) = (   0.7588312   0.1518259   0.4093356  )
         9           Zn  tau(   9) = (   0.2629701   0.1518259   0.4093356  )
        10           Zn  tau(  10) = (   0.2479306   0.7330801   1.2280068  )
        11           Zn  tau(  11) = (  -0.2479306   0.7330801   1.2280068  )
        12           Zn  tau(  12) = (   0.5109007   0.5812542   0.4093356  )

     number of k points=    12  gaussian smearing, width (Ry)=  0.1000
                       cart. coord. in units 2pi/alat
        k(    1) = (   0.0000000   0.0000000   0.0000000), wk =   0.0833333
        k(    2) = (   0.0000000   0.0000000   0.1526865), wk =   0.1666667
        k(    3) = (   0.0000000   0.0000000  -0.3053729), wk =   0.0833333
        k(    4) = (   0.0000000   0.3766879   0.0000000), wk =   0.1666667
        k(    5) = (   0.0000000   0.3766879   0.1526865), wk =   0.3333333
        k(    6) = (   0.0000000   0.3766879  -0.3053729), wk =   0.1666667
        k(    7) = (  -0.4893319  -0.2825159   0.0000000), wk =   0.0833333
        k(    8) = (  -0.4893319  -0.2825159   0.1526865), wk =   0.1666667
        k(    9) = (  -0.4893319  -0.2825159  -0.3053729), wk =   0.0833333
        k(   10) = (  -0.4893319   0.0941720   0.0000000), wk =   0.1666667
        k(   11) = (  -0.4893319   0.0941720   0.1526865), wk =   0.3333333
        k(   12) = (  -0.4893319   0.0941720  -0.3053729), wk =   0.1666667

     Largest allocated arrays     est. size (Mb)     dimensions
     Largest temporary arrays     est. size (Mb)     dimensions

     Initial potential from superposition of free atoms

     Starting from uniform charge
     Starting wfc are    0 randomized atomic wfcs

     Writing output data file Prototype-La-hP12-MgZn2.save

     Self-consistent Calculation

[...]

     iteration #  6     ecut=    40.00 Ry     beta=0.70
     CG style diagonalization
     ethr =  3.58E-03,  avg # of iterations =  3.6

[...]

     total energy              =   -2787.93172041 Ry
     Harris-Foulkes estimate   =   -2787.93193598 Ry
     estimated scf accuracy    <       0.00044924 Ry

     iteration # 11     ecut=    40.00 Ry     beta=0.70
     CG style diagonalization
     c_bands:  1 eigenvalues not converged
     ethr =  2.01E-07,  avg # of iterations =  3.9

     End of self-consistent calculation

[...]

          k = 0.0000 0.3767-0.3054 (  6170 PWs)   bands (ev):

[...]

          k =-0.4893 0.0942-0.3054 (  6180 PWs)   bands (ev):

   -63.4257 -63.4256 -63.4076 -63.4076 -63.3708 -63.3708 -63.3566 -63.3566
   -28.2971 -28.2971 -28.0937 -28.0937 -27.8267 -27.8267 -27.7404 -27.7404
   -27.6644 -27.6644 -27.6296 -27.6296 -27.5344 -27.5344 -27.4460 -27.4460
   -27.3762 -27.3762 -27.3538 -27.3538 -27.3275 -27.3275 -27.3179 -27.3179
   -17.4561 -17.4561 -17.3947 -17.3946   3.6836   3.6836   3.7146   3.7146
     3.8845   3.8845   4.1406   4.1407   4.3303   4.3304   4.3429   4.3429
    12.7701  12.7702  13.6603  13.6604  13.9258  13.9258  14.2129  14.2129
    14.3168  14.3168  15.0221  15.0221  15.1583  15.1583  15.3786  15.3786
    15.7126  15.7126  15.8392  15.8392  16.0825  16.0825  16.3348  16.3348
    16.5276  16.5276  16.9507  16.9507  17.0116  17.0117  17.2988  17.2988
    17.3614  17.3614  17.4425  17.4425  17.7217  17.7217  18.4578  18.4578
    19.0126  19.0126  20.9522  20.9522  23.6293  23.6293  24.3008  24.3008
    26.2185  26.2185  26.8769  26.8769  27.2491  27.2491  27.5085  27.5085
    27.8554  27.8554  28.8072  28.8072  29.6896  29.6896  30.2296  30.2296
    30.6344  30.6344  30.8003  30.8003  32.1013  32.1013  32.5958  32.5958
    33.2177  33.2178  34.2697  34.2697  34.9362  34.9363  35.7121  35.7122
    36.0586  36.0587  36.4334  36.4336  36.6848  36.6848

     the Fermi energy is    30.5758 ev

!    total energy              =   -2787.93184699 Ry
     Harris-Foulkes estimate   =   -2787.93187343 Ry
     estimated scf accuracy    <       0.00002769 Ry

     The total energy is the sum of the following terms:

     one-electron contribution =    -566.10613593 Ry
     hartree contribution      =     460.41431609 Ry
     xc contribution           =    -262.82747719 Ry
     ewald contribution        =   -2418.96416682 Ry
     smearing contrib. (-TS)   =      -0.44838315 Ry

     convergence has been achieved in  11 iterations

     Forces acting on atoms (Ry/au):

     atom    1 type  1   force =     0.00000000    0.00000000    0.02401256
     atom    2 type  1   force =     0.00000000    0.00000000    0.02401256
     atom    3 type  1   force =     0.00000000    0.00000000   -0.02401256
     atom    4 type  1   force =     0.00000000    0.00000000   -0.02401256
     atom    5 type  2   force =     0.00000000    0.00000000    0.00000000
     atom    6 type  2   force =     0.00000000    0.00000000    0.00000000
     atom    7 type  2   force =     0.00000000    0.06685382    0.00000000
     atom    8 type  2   force =    -0.05789711    0.03342691    0.00000000
     atom    9 type  2   force =     0.05789711    0.03342691    0.00000000
     atom   10 type  2   force =    -0.05789711   -0.03342691    0.00000000
     atom   11 type  2   force =     0.05789711   -0.03342691    0.00000000
     atom   12 type  2   force =     0.00000000   -0.06685382    0.00000000

     Total force =     0.170655     Total SCF correction =     0.000000

     entering subroutine stress ...

          total   stress  (Ry/bohr**3)                   (kbar)     P=  589.20
   0.00399812   0.00000000   0.00000000        588.14      0.00      0.00
   0.00000000   0.00399812   0.00000000          0.00    588.14      0.00
   0.00000000   0.00000000   0.00401968          0.00      0.00    591.32

     Writing output data file Prototype-La-hP12-MgZn2.save

     General routines

     Parallel routines

   This run was terminated on:  18: 1:40  22Mar2018

   JOB DONE.