     Program PWSCF v.5.0.2 starts on 22Mar2018 at 17:33: 6

     Current dimensions of program PWSCF are:
     Max number of different atomic species (ntypx) = 10
     Max number of k-points (npk) =  40000
     Max angular momentum in pseudopotentials (lmaxx) =  3
     Waiting for input...
     Reading input from standard input

     Subspace diagonalization in iterative solution of the eigenvalue problem:
     a serial algorithm will be used

     bravais-lattice index     =            0
     lattice parameter (alat)  =       7.0151  a.u.
     unit-cell volume          =     862.2778 (a.u.)^3
     number of atoms/cell      =           12
     number of atomic types    =            2
     number of electrons       =       196.00
     number of Kohn-Sham states=          118
     kinetic-energy cutoff     =      40.0000  Ry
     charge density cutoff     =     160.0000  Ry
     convergence threshold     =      1.0E-04
     mixing beta               =       0.7000
     number of iterations used =            8  plain     mixing
     Exchange-correlation      = SLA-PZ-NOGX-NOGC ( 1 1 0 0 0)
     EXX-fraction              =        0.00
     nstep                     =           50

     celldm(1)=   7.015105  celldm(2)=   0.000000  celldm(3)=   0.000000
     celldm(4)=   0.000000  celldm(5)=   0.000000  celldm(6)=   0.000000

     crystal axes: (cart. coord. in units of alat)
               a(1) = (   1.000000   0.000000   0.000000 )
               a(2) = (   0.000000   1.315963   0.000000 )
               a(3) = (   0.000000   0.000000   1.898020 )

     reciprocal axes: (cart. coord. in units 2 pi/alat)
               b(1) = (  1.000000  0.000000  0.000000 )
               b(2) = (  0.000000  0.759900  0.000000 )
               b(3) = (  0.000000  0.000000  0.526865 )

     PseudoPot. # 1 for Nd read from file:
     /home/cwx6513/pp.La/Nd.UPF
     MD5 check sum: c66c5b6abe7b5840ced9b1e244e3bed6
     Pseudo is Norm-conserving, Zval = 14.0
     Generated in analytical, separable form
     Using radial grid of 1257 points,  6 beta functions with:
                l(1) =   0
                l(2) =   0
                l(3) =   1
                l(4) =   1
                l(5) =   2
                l(6) =   3

     PseudoPot. # 2 for Ho read from file:
     /home/cwx6513/pp.La/Ho.UPF
     MD5 check sum: f307ee11bce99f5b724fa279e3790763
     Pseudo is Norm-conserving, Zval = 21.0
     Generated in analytical, separable form
     Using radial grid of 1265 points,  6 beta functions with:
                l(1) =   0
                l(2) =   0
                l(3) =   1
                l(4) =   1
                l(5) =   2
                l(6) =   3

     atomic species   valence    mass     pseudopotential
        Co            14.00    58.93320     Nd( 1.00)
        Si            21.00    28.08550     Ho( 1.00)

      8 Sym. Ops., with inversion, found ( 6 have fractional translation)

   Cartesian axes

     site n.     atom                  positions (alat units)
         1           Co  tau(   1) = (   0.7500000   1.0875135   0.8270358  )
         2           Co  tau(   2) = (   0.2500000   0.2284499   1.0709846  )
         3           Co  tau(   3) = (   0.7500000   0.4295318   0.1219744  )
         4           Co  tau(   4) = (   0.2500000   0.8864316   1.7760460  )
         5           Co  tau(   5) = (   0.2500000   0.7067855   0.5358966  )
         6           Co  tau(   6) = (   0.7500000   0.6091779   1.3621238  )
         7           Co  tau(   7) = (   0.2500000   0.0488038   0.4131136  )
         8           Co  tau(   8) = (   0.7500000   1.2671596   1.4849068  )
         9           Si  tau(   9) = (   0.2500000   0.2669484   1.6960710  )
        10           Si  tau(  10) = (   0.7500000   1.0490149   0.2019494  )
        11           Si  tau(  11) = (   0.2500000   0.9249301   1.1509596  )
        12           Si  tau(  12) = (   0.7500000   0.3910333   0.7470608  )

     number of k points=    12  gaussian smearing, width (Ry)=  0.1000
                       cart. coord. in units 2pi/alat
        k(    1) = (   0.0000000   0.0000000   0.0000000), wk =   0.0833333
        k(    2) = (   0.0000000   0.0000000   0.1317162), wk =   0.1666667
        k(    3) = (   0.0000000   0.0000000  -0.2634324), wk =   0.0833333
        k(    4) = (   0.0000000   0.2532999   0.0000000), wk =   0.1666667
        k(    5) = (   0.0000000   0.2532999   0.1317162), wk =   0.3333333
        k(    6) = (   0.0000000   0.2532999  -0.2634324), wk =   0.1666667
        k(    7) = (  -0.5000000   0.0000000   0.0000000), wk =   0.0833333
        k(    8) = (  -0.5000000   0.0000000   0.1317162), wk =   0.1666667
        k(    9) = (  -0.5000000   0.0000000  -0.2634324), wk =   0.0833333
        k(   10) = (  -0.5000000   0.2532999   0.0000000), wk =   0.1666667
        k(   11) = (  -0.5000000   0.2532999   0.1317162), wk =   0.3333333
        k(   12) = (  -0.5000000   0.2532999  -0.2634324), wk =   0.1666667

     Largest allocated arrays     est. size (Mb)     dimensions
     Largest temporary arrays     est. size (Mb)     dimensions

     Initial potential from superposition of free atoms

     Starting from uniform charge
     Starting wfc are    0 randomized atomic wfcs

     Self-consistent Calculation

     iteration #  1     ecut=    40.00 Ry     beta=0.70
     CG style diagonalization
     c_bands:  4 eigenvalues not converged
     c_bands:  2 eigenvalues not converged
     c_bands:  5 eigenvalues not converged
     c_bands:  4 eigenvalues not converged
     c_bands:  4 eigenvalues not converged
     c_bands:  5 eigenvalues not converged
     c_bands:  5 eigenvalues not converged
     ethr =  1.00E-02,  avg # of iterations = 14.1

     total energy              =   -1322.09739542 Ry
     Harris-Foulkes estimate   =   -2436.20794218 Ry
     estimated scf accuracy    <    1346.66226409 Ry

[...]

     iteration #  3     ecut=    40.00 Ry     beta=0.70
     CG style diagonalization
     ethr =  1.00E-02,  avg # of iterations = 12.5

[...]

     End of self-consistent calculation

          k = 0.0000 0.0000 0.0000 (  3675 PWs)   bands (ev):

   -46.2495 -46.2439 -46.2389 -46.2305 -11.1374 -11.1190 -11.1177 -11.0885
   -11.0413 -11.0407 -11.0272 -10.9986 -10.8542 -10.7836 -10.6838 -10.6423
    -2.6289  -1.3974  -0.9378  -0.5855  -0.2476   0.0476   0.0727   0.2598
    15.5679  16.3197  16.8912  17.1952  17.2969  17.4108  18.0878  18.3747
    18.8938  19.1193  19.1868  19.4130  19.4724  20.1933  20.4844  20.7746
    20.8648  21.1243  21.4010  22.0072  22.4279  22.9074  23.3766  23.8964
    29.5655  30.0712  30.6071  30.6744  30.7426  30.9160  30.9550  31.3144
    31.3175  31.7956  32.2839  32.4010  32.6127  33.4745  33.5864  33.6400
    33.6868  34.0383  34.2858  34.4154  36.4371  38.3365  39.6114  39.9211
    40.3103  40.7790  41.3247  41.8307  42.0602  42.2295  42.4120  42.6114
    42.7260  43.5250  43.7148  43.7953  43.9246  44.4251  45.0140  45.1862
    45.9987  46.6331  47.2125  47.3242  47.6240  47.8638  48.4734  49.3112
    49.8101  49.8513  50.0511  50.1841  50.3127  50.5517  51.4851  51.9807
    52.2499  52.6424  52.6703  52.7994  53.3296  53.6030  53.6846  54.1515
    55.3142  55.3641  56.3089  56.3175  56.4631  56.5781

[...]

          k =-0.5000 0.0000 0.0000 (  3722 PWs)   bands (ev):

[...]

     the Fermi energy is    49.1115 ev

!    total energy              =   -2043.72625933 Ry
     Harris-Foulkes estimate   =   -2043.72626041 Ry
     estimated scf accuracy    <       0.00000133 Ry

     The total energy is the sum of the following terms:

     one-electron contribution =     282.32931309 Ry
     hartree contribution      =     161.70871167 Ry
     xc contribution           =    -225.48854216 Ry
     ewald contribution        =   -2261.93564522 Ry
     smearing contrib. (-TS)   =      -0.34009670 Ry

     convergence has been achieved in  11 iterations

     Forces acting on atoms (Ry/au):

     atom    1 type  1   force =     0.00000000   -0.06458870   -0.03854817
     atom    2 type  1   force =     0.00000000    0.06458870    0.03854817
     atom    3 type  1   force =     0.00000000   -0.06458870    0.03854817
     atom    4 type  1   force =     0.00000000    0.06458870   -0.03854817
     atom    5 type  1   force =     0.00000000    0.19719983   -0.30931642
     atom    6 type  1   force =     0.00000000   -0.19719983    0.30931642
     atom    7 type  1   force =     0.00000000    0.19719983    0.30931642
     atom    8 type  1   force =     0.00000000   -0.19719983   -0.30931642
     atom    9 type  2   force =     0.00000000   -0.18758071   -0.00458526
     atom   10 type  2   force =     0.00000000    0.18758071    0.00458526
     atom   11 type  2   force =     0.00000000   -0.18758071    0.00458526
     atom   12 type  2   force =     0.00000000    0.18758071   -0.00458526

     Total force =     0.837686     Total SCF correction =     0.000000

     entering subroutine stress ...

          total   stress  (Ry/bohr**3)                   (kbar)     P= 6804.28
   0.05008319   0.00000000   0.00000000       7367.49      0.00      0.00
   0.00000000   0.04276340   0.00000000          0.00   6290.71      0.00
   0.00000000   0.00000000   0.04591711          0.00      0.00   6754.64

     BFGS Geometry Optimization

     number of scf cycles    =   1
     number of bfgs steps    =   0

     enthalpy new            =   -2043.7262593298 Ry

     new trust radius        =       0.5000000000 bohr
     new conv_thr            =       0.0001000000 Ry

     new unit-cell volume =   1082.05207 a.u.^3 (   160.34357 Ang^3 )

CELL_PARAMETERS (alat=  7.01510508)
   1.085136619   0.000000000   0.000000000
   0.000000000   1.411625608   0.000000000
   0.000000000   0.000000000   2.046169795

ATOMIC_POSITIONS (crystal)
Co       0.750000000   0.825925267   0.435539142
Co       0.250000000   0.174074733   0.564460858
Co       0.750000000   0.325925267   0.064460858
Co       0.250000000   0.674074733   0.935539142
Co       0.250000000   0.538538489   0.280765381
Co       0.750000000   0.461461511   0.719234619
Co       0.250000000   0.038538489   0.219234619
Co       0.750000000   0.961461511   0.780765381
Si       0.250000000   0.201472361   0.893576584
Si       0.750000000   0.798527639   0.106423416
Si       0.250000000   0.701472361   0.606423416
Si       0.750000000   0.298527639   0.393576584

     Writing output data file Prototype-La-oP12-Co2Si.save
     NEW-OLD atomic charge density approx. for the potential
     NEW k-points:
        k(    1) = (   0.0000000   0.0000000   0.0000000), wk =   0.0833333
        k(    2) = (   0.0000000   0.0000000   0.1221795), wk =   0.1666667
        k(    3) = (   0.0000000   0.0000000  -0.2443590), wk =   0.0833333
        k(    4) = (   0.0000000   0.2361344   0.0000000), wk =   0.1666667
        k(    5) = (   0.0000000   0.2361344   0.1221795), wk =   0.3333333
        k(    6) = (   0.0000000   0.2361344  -0.2443590), wk =   0.1666667
        k(    7) = (  -0.4607715   0.0000000   0.0000000), wk =   0.0833333
        k(    8) = (  -0.4607715   0.0000000   0.1221795), wk =   0.1666667
        k(    9) = (  -0.4607715   0.0000000  -0.2443590), wk =   0.0833333
        k(   10) = (  -0.4607715   0.2361344   0.0000000), wk =   0.1666667
        k(   11) = (  -0.4607715   0.2361344   0.1221795), wk =   0.3333333
        k(   12) = (  -0.4607715   0.2361344  -0.2443590), wk =   0.1666667

[...]

     enthalpy old            =   -2043.7262593298 Ry
     enthalpy new            =   -2050.2654801464 Ry

     CASE: enthalpy_new < enthalpy_old

     small trust_radius: resetting bfgs history

     new trust radius        =       2.9902849656 bohr
     new conv_thr            =       0.0001000000 Ry

[...]

          total   stress  (Ry/bohr**3)                   (kbar)     P=-1882.68
  -0.01378910   0.00000000   0.00000000      -2028.45      0.00      0.00
   0.00000000  -0.01184053   0.00000000          0.00  -1741.80      0.00
   0.00000000   0.00000000  -0.01276499          0.00      0.00  -1877.79

     number of scf cycles    =   3
     number of bfgs steps    =   2

     enthalpy old            =   -2050.2654801464 Ry
     enthalpy new            =   -2035.4507761960 Ry

     CASE: enthalpy_new > enthalpy_old

     new trust radius        =       1.0466900579 bohr

     trust_radius < trust_radius_min

     resetting bfgs history

     Message from routine bfgs:
     history already reset at previous step: stopping
     new conv_thr            =       0.0001000000 Ry

     new unit-cell volume =   1277.65910 a.u.^3 (   189.32954 Ang^3 )

[...]

ATOMIC_POSITIONS (crystal)
Co       0.750000000   0.825349632   0.435470659
Co       0.250000000   0.174650368   0.564529341
Co       0.750000000   0.325349632   0.064529341
Co       0.250000000   0.674650368   0.935470659
Co       0.250000000   0.539794917   0.279605878
Co       0.750000000   0.460205083   0.720394122
Co       0.250000000   0.039794917   0.220394122
Co       0.750000000   0.960205083   0.779605878
Si       0.250000000   0.200226763   0.893665229
Si       0.750000000   0.799773237   0.106334771
Si       0.250000000   0.700226763   0.606334771
Si       0.750000000   0.299773237   0.393665229

     Writing output data file Prototype-La-oP12-Co2Si.save
     NEW-OLD atomic charge density approx. for the potential
     NEW k-points:
        k(    1) = (   0.0000000   0.0000000   0.0000000), wk =   0.0833333
        k(    2) = (   0.0000000   0.0000000   0.1155669), wk =   0.1666667
        k(    3) = (   0.0000000   0.0000000  -0.2311338), wk =   0.0833333
        k(    4) = (   0.0000000   0.2253209   0.0000000), wk =   0.1666667
        k(    5) = (   0.0000000   0.2253209   0.1155669), wk =   0.3333333
        k(    6) = (   0.0000000   0.2253209  -0.2311338), wk =   0.1666667
        k(    7) = (  -0.4323560   0.0000000   0.0000000), wk =   0.0833333
        k(    8) = (  -0.4323560   0.0000000   0.1155669), wk =   0.1666667
        k(    9) = (  -0.4323560   0.0000000  -0.2311338), wk =   0.0833333
        k(   10) = (  -0.4323560   0.2253209   0.0000000), wk =   0.1666667
        k(   11) = (  -0.4323560   0.2253209   0.1155669), wk =   0.3333333
        k(   12) = (  -0.4323560   0.2253209  -0.2311338), wk =   0.1666667

[...]

     The maximum number of steps has been reached.

     End of BFGS Geometry Optimization
Begin final coordinates
     new unit-cell volume =   1277.65910 a.u.^3 (   189.32954 Ang^3 )

CELL_PARAMETERS (alat=  7.01510508)
   1.156454398   0.000000000   0.000000000
   0.000000000   1.479371866   0.000000000
   0.000000000   0.000000000   2.163249362

ATOMIC_POSITIONS (crystal)
Co       0.750000000   0.825349632   0.435470659
Co       0.250000000   0.174650368   0.564529341
Co       0.750000000   0.325349632   0.064529341
Co       0.250000000   0.674650368   0.935470659
Co       0.250000000   0.539794917   0.279605878
Co       0.750000000   0.460205083   0.720394122
Co       0.250000000   0.039794917   0.220394122
Co       0.750000000   0.960205083   0.779605878
Si       0.250000000   0.200226763   0.893665229
Si       0.750000000   0.799773237   0.106334771
Si       0.250000000   0.700226763   0.606334771
Si       0.750000000   0.299773237   0.393665229
End final coordinates

     A final scf calculation at the relaxed structure.
     The G-vectors are recalculated for the final unit cell
     Results may differ from those at the preceding step.

     bravais-lattice index     =            0
     lattice parameter (alat)  =       7.0151  a.u.
     unit-cell volume          =    1277.6591 (a.u.)^3
     number of atoms/cell      =           12
     number of atomic types    =            2
     number of electrons       =       196.00
     number of Kohn-Sham states=          118
     kinetic-energy cutoff     =      40.0000  Ry
     charge density cutoff     =     160.0000  Ry
     convergence threshold     =      1.0E-04
     mixing beta               =       0.7000
     number of iterations used =            8  plain     mixing
     Exchange-correlation      = SLA-PZ-NOGX-NOGC ( 1 1 0 0 0)
     EXX-fraction              =        0.00

     celldm(1)=   7.015105  celldm(2)=   0.000000  celldm(3)=   0.000000
     celldm(4)=   0.000000  celldm(5)=   0.000000  celldm(6)=   0.000000

     crystal axes: (cart. coord. in units of alat)
               a(1) = (   1.156454   0.000000   0.000000 )
               a(2) = (   0.000000   1.479372   0.000000 )
               a(3) = (   0.000000   0.000000   2.163249 )

     reciprocal axes: (cart. coord. in units 2 pi/alat)
               b(1) = (  0.864712  0.000000  0.000000 )
               b(2) = (  0.000000  0.675963  0.000000 )
               b(3) = (  0.000000  0.000000  0.462268 )

     PseudoPot. # 1 for Nd read from file:
     /home/cwx6513/pp.La/Nd.UPF
     MD5 check sum: c66c5b6abe7b5840ced9b1e244e3bed6
     Pseudo is Norm-conserving, Zval = 14.0
     Generated in analytical, separable form
     Using radial grid of 1257 points,  6 beta functions with:
                l(1) =   0
                l(2) =   0
                l(3) =   1
                l(4) =   1
                l(5) =   2
                l(6) =   3

     PseudoPot. # 2 for Ho read from file:
     /home/cwx6513/pp.La/Ho.UPF
     MD5 check sum: f307ee11bce99f5b724fa279e3790763
     Pseudo is Norm-conserving, Zval = 21.0
     Generated in analytical, separable form
     Using radial grid of 1265 points,  6 beta functions with:
                l(1) =   0
                l(2) =   0
                l(3) =   1
                l(4) =   1
                l(5) =   2
                l(6) =   3

     atomic species   valence    mass     pseudopotential
        Co            14.00    58.93320     Nd( 1.00)
        Si            21.00    28.08550     Ho( 1.00)

      8 Sym. Ops., with inversion, found ( 6 have fractional translation)

   Cartesian axes

     site n.     atom                  positions (alat units)
         1           Co  tau(   1) = (   0.8673408   1.2209990   0.9420316  )
         2           Co  tau(   2) = (   0.2891136   0.2583728   1.2212177  )
         3           Co  tau(   3) = (   0.8673408   0.4813131   0.1395931  )
         4           Co  tau(   4) = (   0.2891136   0.9980588   2.0236563  )
         5           Co  tau(   5) = (   0.2891136   0.7985574   0.6048572  )
         6           Co  tau(   6) = (   0.8673408   0.6808145   1.5583921  )
         7           Co  tau(   7) = (   0.2891136   0.0588715   0.4767674  )
         8           Co  tau(   8) = (   0.8673408   1.4205004   1.6864819  )
         9           Si  tau(   9) = (   0.2891136   0.2962098   1.9332207  )
        10           Si  tau(  10) = (   0.8673408   1.1831620   0.2300286  )
        11           Si  tau(  11) = (   0.2891136   1.0358958   1.3116533  )
        12           Si  tau(  12) = (   0.8673408   0.4434761   0.8515961  )

     number of k points=    12  gaussian smearing, width (Ry)=  0.1000
                       cart. coord. in units 2pi/alat
        k(    1) = (   0.0000000   0.0000000   0.0000000), wk =   0.0833333
        k(    2) = (   0.0000000   0.0000000   0.1155669), wk =   0.1666667
        k(    3) = (   0.0000000   0.0000000  -0.2311338), wk =   0.0833333
        k(    4) = (   0.0000000   0.2253209   0.0000000), wk =   0.1666667
        k(    5) = (   0.0000000   0.2253209   0.1155669), wk =   0.3333333
        k(    6) = (   0.0000000   0.2253209  -0.2311338), wk =   0.1666667
        k(    7) = (  -0.4323560   0.0000000   0.0000000), wk =   0.0833333
        k(    8) = (  -0.4323560   0.0000000   0.1155669), wk =   0.1666667
        k(    9) = (  -0.4323560   0.0000000  -0.2311338), wk =   0.0833333
        k(   10) = (  -0.4323560   0.2253209   0.0000000), wk =   0.1666667
        k(   11) = (  -0.4323560   0.2253209   0.1155669), wk =   0.3333333
        k(   12) = (  -0.4323560   0.2253209  -0.2311338), wk =   0.1666667

     Largest allocated arrays     est. size (Mb)     dimensions
     Largest temporary arrays     est. size (Mb)     dimensions

     Initial potential from superposition of free atoms

     Starting from uniform charge
     Starting wfc are    0 randomized atomic wfcs

     Writing output data file Prototype-La-oP12-Co2Si.save

     Self-consistent Calculation

[...]

     iteration #  6     ecut=    40.00 Ry     beta=0.70
     CG style diagonalization
     ethr =  2.83E-03,  avg # of iterations =  3.8

[...]

     total energy              =   -2054.94774815 Ry
     Harris-Foulkes estimate   =   -2054.94822498 Ry
     estimated scf accuracy    <       0.00128456 Ry

     iteration # 11     ecut=    40.00 Ry     beta=0.70
     CG style diagonalization
     c_bands:  1 eigenvalues not converged
     ethr =  6.55E-07,  avg # of iterations =  3.5

     End of self-consistent calculation

[...]

          k = 0.0000 0.2253-0.2311 (  5448 PWs)   bands (ev):

[...]

          k =-0.4324 0.2253-0.2311 (  5480 PWs)   bands (ev):

   -60.4827 -60.4827 -60.4721 -60.4721 -24.8001 -24.8001 -24.7985 -24.7985
   -24.7693 -24.7693 -24.7665 -24.7665 -24.6793 -24.6793 -24.6680 -24.6680
   -15.9476 -15.9476 -15.7679 -15.7680 -15.6631 -15.6631 -15.6303 -15.6303
     4.0547   4.0547   4.4146   4.4146   4.5178   4.5178   4.6909   4.6909
     4.7616   4.7616   5.4955   5.4955   5.7857   5.7857   6.0043   6.0043
     6.2075   6.2075   6.2213   6.2213   6.4913   6.4913   6.5952   6.5952
    18.3249  18.3249  18.3800  18.3800  18.4723  18.4723  18.5922  18.5922
    18.7666  18.7666  18.8229  18.8229  18.9849  18.9849  19.0272  19.0272
    19.2747  19.2747  19.3156  19.3156  23.9949  23.9949  24.7913  24.7913
    26.9500  26.9500  27.1745  27.1745  27.3588  27.3588  27.8307  27.8307
    27.9144  27.9144  28.7910  28.7910  28.8904  28.8904  29.3530  29.3530
    29.6253  29.6253  30.1342  30.1342  30.5659  30.5659  31.5272  31.5272
    31.7230  31.7230  32.0218  32.0218  32.7700  32.7700  33.6076  33.6076
    33.6349  33.6349  33.9668  33.9668  34.5415  34.5415  35.1715  35.1715
    36.8960  36.8960  37.6115  37.6116  38.7437  38.7438

     the Fermi energy is    32.2237 ev

!    total energy              =   -2054.94799558 Ry
     Harris-Foulkes estimate   =   -2054.94801245 Ry
     estimated scf accuracy    <       0.00002169 Ry

     The total energy is the sum of the following terms:

     one-electron contribution =     -92.90768186 Ry
     hartree contribution      =     237.84188542 Ry
     xc contribution           =    -214.06999525 Ry
     ewald contribution        =   -1985.29690375 Ry
     smearing contrib. (-TS)   =      -0.51530014 Ry

     convergence has been achieved in  11 iterations

     Forces acting on atoms (Ry/au):

     atom    1 type  1   force =     0.00000000   -0.04836427   -0.00104493
     atom    2 type  1   force =     0.00000000    0.04836427    0.00104493
     atom    3 type  1   force =     0.00000000   -0.04836427    0.00104493
     atom    4 type  1   force =     0.00000000    0.04836427   -0.00104493
     atom    5 type  1   force =     0.00000000    0.07814208   -0.11190090
     atom    6 type  1   force =     0.00000000   -0.07814208    0.11190090
     atom    7 type  1   force =     0.00000000    0.07814208    0.11190090
     atom    8 type  1   force =     0.00000000   -0.07814208   -0.11190090
     atom    9 type  2   force =     0.00000000   -0.07688904    0.00680096
     atom   10 type  2   force =     0.00000000    0.07688904   -0.00680096
     atom   11 type  2   force =     0.00000000   -0.07688904   -0.00680096
     atom   12 type  2   force =     0.00000000    0.07688904    0.00680096

     Total force =     0.328185     Total SCF correction =     0.000000

     entering subroutine stress ...

          total   stress  (Ry/bohr**3)                   (kbar)     P= 1237.17
   0.00920587   0.00000000   0.00000000       1354.23      0.00      0.00
   0.00000000   0.00758950   0.00000000          0.00   1116.45      0.00
   0.00000000   0.00000000   0.00843492          0.00      0.00   1240.82

     Writing output data file Prototype-La-oP12-Co2Si.save

     General routines

     Parallel routines

   This run was terminated on:  17:48:34  22Mar2018

   JOB DONE.