     Program PWSCF v.5.0.2 starts on 23Mar2018 at 10:11:37

     Current dimensions of program PWSCF are:
     Max number of different atomic species (ntypx) = 10
     Max number of k-points (npk) =  40000
     Max angular momentum in pseudopotentials (lmaxx) =  3
     Waiting for input...
     Reading input from standard input

     bravais-lattice index     =            0
     lattice parameter (alat)  =       6.7790  a.u.
     unit-cell volume          =     417.0796 (a.u.)^3
     number of atoms/cell      =            2
     number of atomic types    =            1
     number of electrons       =        44.00
     number of Kohn-Sham states=           26
     kinetic-energy cutoff     =      60.0000  Ry
     charge density cutoff     =     240.0000  Ry
     convergence threshold     =      1.0E-06
     mixing beta               =       0.7000
     number of iterations used =            8  plain     mixing
     Exchange-correlation      = SLA-PZ-NOGX-NOGC ( 1 1 0 0 0)
     EXX-fraction              =        0.00
     nstep                     =           50

     celldm(1)=   6.779024  celldm(2)=   0.000000  celldm(3)=   0.000000
     celldm(4)=   0.000000  celldm(5)=   0.000000  celldm(6)=   0.000000

     crystal axes: (cart. coord. in units of alat)
               a(1) = (   1.000000   0.000000   0.000000 )
               a(2) = (  -0.500000   0.866025   0.000000 )
               a(3) = (   0.000000   0.000000   1.545919 )

     reciprocal axes: (cart. coord. in units 2 pi/alat)
               b(1) = (  1.000000  0.577350  0.000000 )
               b(2) = (  0.000000  1.154701  0.000000 )
               b(3) = (  0.000000  0.000000  0.646864 )

     PseudoPot. # 1 for Er read from file:
     /home/cwx6513/pp.La/Er.UPF
     MD5 check sum: e152ae21b84514339d8526f066caf99b
     Pseudo is Norm-conserving, Zval = 22.0
     Generated in analytical, separable form
     Using radial grid of 1267 points,  6 beta functions with:
                l(1) =   0
                l(2) =   0
                l(3) =   1
                l(4) =   1
                l(5) =   2
                l(6) =   3

     atomic species   valence    mass     pseudopotential
        Er            22.00   167.25900     Er( 1.00)

     24 Sym. Ops., with inversion, found (12 have fractional translation)

   Cartesian axes

     site n.     atom                  positions (alat units)
         1           Er  tau(   1) = (  -0.0000005   0.5773506   0.3864798  )
         2           Er  tau(   2) = (   0.5000005   0.2886748   1.1594394  )

     number of k points=    64  gaussian smearing, width (Ry)=  0.1000
                       cart. coord. in units 2pi/alat
        k(    1) = (   0.0000000   0.0000000   0.0000000), wk =   0.0095238
        k(    2) = (   0.0000000   0.0000000   0.0924092), wk =   0.0190476
        k(    3) = (   0.0000000   0.0000000   0.1848184), wk =   0.0190476
        k(    4) = (   0.0000000   0.0000000   0.2772276), wk =   0.0190476
        k(    5) = (   0.0000000   0.1924501   0.0000000), wk =   0.0190476
        k(    6) = (   0.0000000   0.1924501   0.0924092), wk =   0.0380952
        k(    7) = (   0.0000000   0.1924501   0.1848184), wk =   0.0380952
        k(    8) = (   0.0000000   0.1924501   0.2772276), wk =   0.0380952
        k(    9) = (   0.0000000   0.3849002   0.0000000), wk =   0.0190476
        k(   10) = (   0.0000000   0.3849002   0.0924092), wk =   0.0380952
        k(   11) = (   0.0000000   0.3849002   0.1848184), wk =   0.0380952
        k(   12) = (   0.0000000   0.3849002   0.2772276), wk =   0.0380952
        k(   13) = (   0.0000000  -0.5773503   0.0000000), wk =   0.0095238
        k(   14) = (   0.0000000  -0.5773503   0.0924092), wk =   0.0190476
        k(   15) = (   0.0000000  -0.5773503   0.1848184), wk =   0.0190476
        k(   16) = (   0.0000000  -0.5773503   0.2772276), wk =   0.0190476
        k(   17) = (   0.2000000   0.1154701   0.0000000), wk =   0.0190476
        k(   18) = (   0.2000000   0.1154701   0.0924092), wk =   0.0380952
        k(   19) = (   0.2000000   0.1154701   0.1848184), wk =   0.0380952
        k(   20) = (   0.2000000   0.1154701   0.2772276), wk =   0.0380952
        k(   21) = (   0.2000000   0.3079201   0.0000000), wk =   0.0190476
        k(   22) = (   0.2000000   0.3079201   0.0924092), wk =   0.0380952
        k(   23) = (   0.2000000   0.3079201   0.1848184), wk =   0.0380952
        k(   24) = (   0.2000000   0.3079201   0.2772276), wk =   0.0380952
        k(   25) = (   0.2000000   0.5003702   0.0000000), wk =   0.0190476
        k(   26) = (   0.2000000   0.5003702   0.0924092), wk =   0.0380952
        k(   27) = (   0.2000000   0.5003702   0.1848184), wk =   0.0380952
        k(   28) = (   0.2000000   0.5003702   0.2772276), wk =   0.0380952
        k(   29) = (   0.2000000  -0.4618802   0.0000000), wk =   0.0190476
        k(   30) = (   0.2000000  -0.4618802   0.0924092), wk =   0.0380952
        k(   31) = (   0.2000000  -0.4618802   0.1848184), wk =   0.0380952
        k(   32) = (   0.2000000  -0.4618802   0.2772276), wk =   0.0380952
        k(   33) = (   0.2000000  -0.2694301   0.0000000), wk =   0.0190476
        k(   34) = (   0.2000000  -0.2694301   0.0924092), wk =   0.0380952
        k(   35) = (   0.2000000  -0.2694301   0.1848184), wk =   0.0380952
        k(   36) = (   0.2000000  -0.2694301   0.2772276), wk =   0.0380952
        k(   37) = (   0.2000000  -0.0769800   0.0000000), wk =   0.0190476
        k(   38) = (   0.2000000  -0.0769800   0.0924092), wk =   0.0380952
        k(   39) = (   0.2000000  -0.0769800   0.1848184), wk =   0.0380952
        k(   40) = (   0.2000000  -0.0769800   0.2772276), wk =   0.0380952
        k(   41) = (   0.4000000   0.2309401   0.0000000), wk =   0.0190476
        k(   42) = (   0.4000000   0.2309401   0.0924092), wk =   0.0380952
        k(   43) = (   0.4000000   0.2309401   0.1848184), wk =   0.0380952
        k(   44) = (   0.4000000   0.2309401   0.2772276), wk =   0.0380952
        k(   45) = (   0.4000000   0.4233902   0.0000000), wk =   0.0190476
        k(   46) = (   0.4000000   0.4233902   0.0924092), wk =   0.0380952
        k(   47) = (   0.4000000   0.4233902   0.1848184), wk =   0.0380952
        k(   48) = (   0.4000000   0.4233902   0.2772276), wk =   0.0380952
        k(   49) = (   0.4000000   0.6158403   0.0000000), wk =   0.0190476
        k(   50) = (   0.4000000   0.6158403   0.0924092), wk =   0.0380952
        k(   51) = (   0.4000000   0.6158403   0.1848184), wk =   0.0380952
        k(   52) = (   0.4000000   0.6158403   0.2772276), wk =   0.0380952
        k(   53) = (   0.4000000  -0.3464102   0.0000000), wk =   0.0190476
        k(   54) = (   0.4000000  -0.3464102   0.0924092), wk =   0.0380952
        k(   55) = (   0.4000000  -0.3464102   0.1848184), wk =   0.0380952
        k(   56) = (   0.4000000  -0.3464102   0.2772276), wk =   0.0380952
        k(   57) = (   0.4000000  -0.1539601   0.0000000), wk =   0.0190476
        k(   58) = (   0.4000000  -0.1539601   0.0924092), wk =   0.0380952
        k(   59) = (   0.4000000  -0.1539601   0.1848184), wk =   0.0380952
        k(   60) = (   0.4000000  -0.1539601   0.2772276), wk =   0.0380952
        k(   61) = (   0.4000000   0.0384900   0.0000000), wk =   0.0190476
        k(   62) = (   0.4000000   0.0384900   0.0924092), wk =   0.0380952
        k(   63) = (   0.4000000   0.0384900   0.1848184), wk =   0.0380952
        k(   64) = (   0.4000000   0.0384900   0.2772276), wk =   0.0380952

     Largest allocated arrays     est. size (Mb)     dimensions
     Largest temporary arrays     est. size (Mb)     dimensions

     Initial potential from superposition of free atoms

     Starting from uniform charge
     Starting wfc are    0 randomized atomic wfcs

     Self-consistent Calculation

     iteration #  1     ecut=    60.00 Ry     beta=0.70
     CG style diagonalization
     c_bands:  5 eigenvalues not converged
     c_bands:  5 eigenvalues not converged
     ethr =  1.00E-02,  avg # of iterations = 17.5

     total energy              =    -583.80907385 Ry
     Harris-Foulkes estimate   =    -906.95502476 Ry
     estimated scf accuracy    <     405.22190504 Ry

     iteration #  2     ecut=    60.00 Ry     beta=0.70
     CG style diagonalization
     ethr =  1.00E-02,  avg # of iterations =  7.6

[...]

     End of self-consistent calculation

          k = 0.0000 0.0000 0.0000 (  3343 PWs)   bands (ev):

   -83.6385 -83.6365 -45.6086 -45.5816 -45.5816 -45.5792 -45.5792 -45.5771
     1.5221   1.6929   1.6993   1.6993   1.7486   1.7487   1.7536   1.7536
     2.1645   2.1645   6.0137  11.4871  12.7005  21.6299  21.6301  21.8846
    21.9056  22.4704

[...]

     the Fermi energy is    17.4011 ev

!    total energy              =    -659.28510550 Ry
     Harris-Foulkes estimate   =    -659.28510619 Ry
     estimated scf accuracy    <       0.00000079 Ry

     The total energy is the sum of the following terms:

     one-electron contribution =    -283.43378214 Ry
     hartree contribution      =     150.64832660 Ry
     xc contribution           =     -55.16982329 Ry
     ewald contribution        =    -471.25152319 Ry
     smearing contrib. (-TS)   =      -0.07830348 Ry

     convergence has been achieved in  14 iterations

     Forces acting on atoms (Ry/au):

     atom    1 type  1   force =     0.00000000    0.00000000    0.00000000
     atom    2 type  1   force =     0.00000000    0.00000000    0.00000000

     Total force =     0.000000     Total SCF correction =     0.000000

     entering subroutine stress ...

          total   stress  (Ry/bohr**3)                   (kbar)     P=  -11.88
  -0.00014560   0.00000000   0.00000000        -21.42      0.00      0.00
   0.00000000  -0.00014560   0.00000000          0.00    -21.42      0.00
   0.00000000   0.00000000   0.00004893          0.00      0.00      7.20

     BFGS Geometry Optimization

     number of scf cycles    =   1
     number of bfgs steps    =   0

     enthalpy new            =    -659.2851055015 Ry

     new trust radius        =       0.0148670982 bohr
     new conv_thr            =       0.0000010000 Ry

     new unit-cell volume =    414.55530 a.u.^3 (    61.43076 Ang^3 )

CELL_PARAMETERS (alat=  6.77902392)
   0.996360123   0.000000000   0.000000000
  -0.498180061   0.862873177   0.000000000
   0.000000000   0.000000000   1.547810069

ATOMIC_POSITIONS (crystal)
Er       0.333333000   0.666667000   0.250000000
Er       0.666667000   0.333333000   0.750000000

     Writing output data file Element-Er.q.save
     NEW-OLD atomic charge density approx. for the potential
     NEW k-points:
        k(    1) = (   0.0000000   0.0000000   0.0000000), wk =   0.0095238
        k(    2) = (   0.0000000   0.0000000   0.0922963), wk =   0.0190476
        k(    3) = (   0.0000000   0.0000000   0.1845926), wk =   0.0190476
        k(    4) = (   0.0000000   0.0000000   0.2768889), wk =   0.0190476
        k(    5) = (   0.0000000   0.1931531   0.0000000), wk =   0.0190476
        k(    6) = (   0.0000000   0.1931531   0.0922963), wk =   0.0380952
[...]
     new conv_thr            =       0.0000000100 Ry

[...]

     WARNING: bfgs curvature condition failed, Theta= 0.526
     uphill step: resetting bfgs history

[...]

     CASE: enthalpy_new < enthalpy_old

     small trust_radius: resetting bfgs history

     new trust radius        =       0.0100000000 bohr
     new conv_thr            =       0.0000000100 Ry

[...]

          total   stress  (Ry/bohr**3)                   (kbar)     P=  804.21
   0.00602721   0.00000000   0.00000000        886.63      0.00      0.00
   0.00000000   0.00602721   0.00000000          0.00    886.63      0.00
   0.00000000   0.00000000   0.00434627          0.00      0.00    639.36

     number of scf cycles    =  26
     number of bfgs steps    =  25

     enthalpy old            =    -730.9310096485 Ry
     enthalpy new            =    -730.9295568483 Ry

     CASE: enthalpy_new > enthalpy_old

     new trust radius        =       0.0030714701 bohr

     trust_radius < trust_radius_min

     resetting bfgs history

     Message from routine bfgs:
     history already reset at previous step: stopping
     new conv_thr            =       0.0000000100 Ry

     new unit-cell volume =     74.58089 a.u.^3 (    11.05175 Ang^3 )

[...]

ATOMIC_POSITIONS (crystal)
Er       0.333333000   0.666667000   0.250000000
Er       0.666667000   0.333333000   0.750000000

     Writing output data file Element-Er.q.save
     NEW-OLD atomic charge density approx. for the potential
     NEW k-points:
        k(    1) = (   0.0000000   0.0000000   0.0000000), wk =   0.0095238
        k(    2) = (   0.0000000   0.0000000   0.1552900), wk =   0.0190476
        k(    3) = (   0.0000000   0.0000000   0.3105800), wk =   0.0190476
        k(    4) = (   0.0000000   0.0000000   0.4658701), wk =   0.0190476
        k(    5) = (   0.0000000   0.3510747   0.0000000), wk =   0.0190476
        k(    6) = (   0.0000000   0.3510747   0.1552900), wk =   0.0380952
        k(    7) = (   0.0000000   0.3510747   0.3105800), wk =   0.0380952
        k(    8) = (   0.0000000   0.3510747   0.4658701), wk =   0.0380952
        k(    9) = (   0.0000000   0.7021495   0.0000000), wk =   0.0190476
        k(   10) = (   0.0000000   0.7021495   0.1552900), wk =   0.0380952
        k(   11) = (   0.0000000   0.7021495   0.3105800), wk =   0.0380952
        k(   12) = (   0.0000000   0.7021495   0.4658701), wk =   0.0380952
        k(   13) = (   0.0000000  -1.0532242   0.0000000), wk =   0.0095238
        k(   14) = (   0.0000000  -1.0532242   0.1552900), wk =   0.0190476
        k(   15) = (   0.0000000  -1.0532242   0.3105800), wk =   0.0190476
        k(   16) = (   0.0000000  -1.0532242   0.4658701), wk =   0.0190476
        k(   17) = (   0.3648476   0.2106448   0.0000000), wk =   0.0190476
        k(   18) = (   0.3648476   0.2106448   0.1552900), wk =   0.0380952
        k(   19) = (   0.3648476   0.2106448   0.3105800), wk =   0.0380952
        k(   20) = (   0.3648476   0.2106448   0.4658701), wk =   0.0380952
        k(   21) = (   0.3648476   0.5617196   0.0000000), wk =   0.0190476
        k(   22) = (   0.3648476   0.5617196   0.1552900), wk =   0.0380952
        k(   23) = (   0.3648476   0.5617196   0.3105800), wk =   0.0380952
        k(   24) = (   0.3648476   0.5617196   0.4658701), wk =   0.0380952
        k(   25) = (   0.3648476   0.9127943   0.0000000), wk =   0.0190476
        k(   26) = (   0.3648476   0.9127943   0.1552900), wk =   0.0380952
        k(   27) = (   0.3648476   0.9127943   0.3105800), wk =   0.0380952
        k(   28) = (   0.3648476   0.9127943   0.4658701), wk =   0.0380952
        k(   29) = (   0.3648476  -0.8425794   0.0000000), wk =   0.0190476
        k(   30) = (   0.3648476  -0.8425794   0.1552900), wk =   0.0380952
        k(   31) = (   0.3648476  -0.8425794   0.3105800), wk =   0.0380952
        k(   32) = (   0.3648476  -0.8425794   0.4658701), wk =   0.0380952
        k(   33) = (   0.3648476  -0.4915046   0.0000000), wk =   0.0190476
        k(   34) = (   0.3648476  -0.4915046   0.1552900), wk =   0.0380952
        k(   35) = (   0.3648476  -0.4915046   0.3105800), wk =   0.0380952
        k(   36) = (   0.3648476  -0.4915046   0.4658701), wk =   0.0380952
        k(   37) = (   0.3648476  -0.1404299   0.0000000), wk =   0.0190476
        k(   38) = (   0.3648476  -0.1404299   0.1552900), wk =   0.0380952
        k(   39) = (   0.3648476  -0.1404299   0.3105800), wk =   0.0380952
        k(   40) = (   0.3648476  -0.1404299   0.4658701), wk =   0.0380952
        k(   41) = (   0.7296952   0.4212897   0.0000000), wk =   0.0190476
        k(   42) = (   0.7296952   0.4212897   0.1552900), wk =   0.0380952
        k(   43) = (   0.7296952   0.4212897   0.3105800), wk =   0.0380952
        k(   44) = (   0.7296952   0.4212897   0.4658701), wk =   0.0380952
        k(   45) = (   0.7296952   0.7723644   0.0000000), wk =   0.0190476
        k(   46) = (   0.7296952   0.7723644   0.1552900), wk =   0.0380952
        k(   47) = (   0.7296952   0.7723644   0.3105800), wk =   0.0380952
        k(   48) = (   0.7296952   0.7723644   0.4658701), wk =   0.0380952
        k(   49) = (   0.7296952   1.1234392   0.0000000), wk =   0.0190476
        k(   50) = (   0.7296952   1.1234392   0.1552900), wk =   0.0380952
        k(   51) = (   0.7296952   1.1234392   0.3105800), wk =   0.0380952
        k(   52) = (   0.7296952   1.1234392   0.4658701), wk =   0.0380952
        k(   53) = (   0.7296952  -0.6319345   0.0000000), wk =   0.0190476
        k(   54) = (   0.7296952  -0.6319345   0.1552900), wk =   0.0380952
        k(   55) = (   0.7296952  -0.6319345   0.3105800), wk =   0.0380952
        k(   56) = (   0.7296952  -0.6319345   0.4658701), wk =   0.0380952
        k(   57) = (   0.7296952  -0.2808598   0.0000000), wk =   0.0190476
        k(   58) = (   0.7296952  -0.2808598   0.1552900), wk =   0.0380952
        k(   59) = (   0.7296952  -0.2808598   0.3105800), wk =   0.0380952
        k(   60) = (   0.7296952  -0.2808598   0.4658701), wk =   0.0380952
        k(   61) = (   0.7296952   0.0702149   0.0000000), wk =   0.0190476
        k(   62) = (   0.7296952   0.0702149   0.1552900), wk =   0.0380952
        k(   63) = (   0.7296952   0.0702149   0.3105800), wk =   0.0380952
        k(   64) = (   0.7296952   0.0702149   0.4658701), wk =   0.0380952

[...]

     The maximum number of steps has been reached.

     End of BFGS Geometry Optimization
Begin final coordinates
     new unit-cell volume =     74.58089 a.u.^3 (    11.05175 Ang^3 )

CELL_PARAMETERS (alat=  6.77902392)
   0.548174117   0.000000000   0.000000000
  -0.274087059   0.474732711   0.000000000
   0.000000000   0.000000000   0.919937675

ATOMIC_POSITIONS (crystal)
Er       0.333333000   0.666667000   0.250000000
Er       0.666667000   0.333333000   0.750000000
End final coordinates

     A final scf calculation at the relaxed structure.
     The G-vectors are recalculated for the final unit cell
     Results may differ from those at the preceding step.

     bravais-lattice index     =            0
     lattice parameter (alat)  =       6.7790  a.u.
     unit-cell volume          =      74.5809 (a.u.)^3
     number of atoms/cell      =            2
     number of atomic types    =            1
     number of electrons       =        44.00
     number of Kohn-Sham states=           26
     kinetic-energy cutoff     =      60.0000  Ry
     charge density cutoff     =     240.0000  Ry
     convergence threshold     =      1.0E-08
     mixing beta               =       0.7000
     number of iterations used =            8  plain     mixing
     Exchange-correlation      = SLA-PZ-NOGX-NOGC ( 1 1 0 0 0)
     EXX-fraction              =        0.00

     celldm(1)=   6.779024  celldm(2)=   0.000000  celldm(3)=   0.000000
     celldm(4)=   0.000000  celldm(5)=   0.000000  celldm(6)=   0.000000

     crystal axes: (cart. coord. in units of alat)
               a(1) = (   0.548174   0.000000   0.000000 )
               a(2) = (  -0.274087   0.474733   0.000000 )
               a(3) = (   0.000000   0.000000   0.919938 )

     reciprocal axes: (cart. coord. in units 2 pi/alat)
               b(1) = (  1.824238  1.053224  0.000000 )
               b(2) = (  0.000000  2.106448  0.000000 )
               b(3) = (  0.000000  0.000000  1.087030 )

     PseudoPot. # 1 for Er read from file:
     /home/cwx6513/pp.La/Er.UPF
     MD5 check sum: e152ae21b84514339d8526f066caf99b
     Pseudo is Norm-conserving, Zval = 22.0
     Generated in analytical, separable form
     Using radial grid of 1267 points,  6 beta functions with:
                l(1) =   0
                l(2) =   0
                l(3) =   1
                l(4) =   1
                l(5) =   2
                l(6) =   3

     atomic species   valence    mass     pseudopotential
        Er            22.00   167.25900     Er( 1.00)

     24 Sym. Ops., with inversion, found (12 have fractional translation)

   Cartesian axes

     site n.     atom                  positions (alat units)
         1           Er  tau(   1) = (  -0.0000003   0.3164886   0.2299844  )
         2           Er  tau(   2) = (   0.2740873   0.1582441   0.6899533  )

     number of k points=    64  gaussian smearing, width (Ry)=  0.1000
                       cart. coord. in units 2pi/alat
        k(    1) = (   0.0000000   0.0000000   0.0000000), wk =   0.0095238
        k(    2) = (   0.0000000   0.0000000   0.1552900), wk =   0.0190476
        k(    3) = (   0.0000000   0.0000000   0.3105800), wk =   0.0190476
        k(    4) = (   0.0000000   0.0000000   0.4658701), wk =   0.0190476
        k(    5) = (   0.0000000   0.3510747   0.0000000), wk =   0.0190476
        k(    6) = (   0.0000000   0.3510747   0.1552900), wk =   0.0380952
        k(    7) = (   0.0000000   0.3510747   0.3105800), wk =   0.0380952
        k(    8) = (   0.0000000   0.3510747   0.4658701), wk =   0.0380952
        k(    9) = (   0.0000000   0.7021495   0.0000000), wk =   0.0190476
        k(   10) = (   0.0000000   0.7021495   0.1552900), wk =   0.0380952
        k(   11) = (   0.0000000   0.7021495   0.3105800), wk =   0.0380952
        k(   12) = (   0.0000000   0.7021495   0.4658701), wk =   0.0380952
        k(   13) = (   0.0000000  -1.0532242   0.0000000), wk =   0.0095238
        k(   14) = (   0.0000000  -1.0532242   0.1552900), wk =   0.0190476
        k(   15) = (   0.0000000  -1.0532242   0.3105800), wk =   0.0190476
        k(   16) = (   0.0000000  -1.0532242   0.4658701), wk =   0.0190476
        k(   17) = (   0.3648476   0.2106448   0.0000000), wk =   0.0190476
        k(   18) = (   0.3648476   0.2106448   0.1552900), wk =   0.0380952
        k(   19) = (   0.3648476   0.2106448   0.3105800), wk =   0.0380952
        k(   20) = (   0.3648476   0.2106448   0.4658701), wk =   0.0380952
        k(   21) = (   0.3648476   0.5617196   0.0000000), wk =   0.0190476
        k(   22) = (   0.3648476   0.5617196   0.1552900), wk =   0.0380952
        k(   23) = (   0.3648476   0.5617196   0.3105800), wk =   0.0380952
        k(   24) = (   0.3648476   0.5617196   0.4658701), wk =   0.0380952
        k(   25) = (   0.3648476   0.9127943   0.0000000), wk =   0.0190476
        k(   26) = (   0.3648476   0.9127943   0.1552900), wk =   0.0380952
        k(   27) = (   0.3648476   0.9127943   0.3105800), wk =   0.0380952
        k(   28) = (   0.3648476   0.9127943   0.4658701), wk =   0.0380952
        k(   29) = (   0.3648476  -0.8425794   0.0000000), wk =   0.0190476
        k(   30) = (   0.3648476  -0.8425794   0.1552900), wk =   0.0380952
        k(   31) = (   0.3648476  -0.8425794   0.3105800), wk =   0.0380952
        k(   32) = (   0.3648476  -0.8425794   0.4658701), wk =   0.0380952
        k(   33) = (   0.3648476  -0.4915046   0.0000000), wk =   0.0190476
        k(   34) = (   0.3648476  -0.4915046   0.1552900), wk =   0.0380952
        k(   35) = (   0.3648476  -0.4915046   0.3105800), wk =   0.0380952
        k(   36) = (   0.3648476  -0.4915046   0.4658701), wk =   0.0380952
        k(   37) = (   0.3648476  -0.1404299   0.0000000), wk =   0.0190476
        k(   38) = (   0.3648476  -0.1404299   0.1552900), wk =   0.0380952
        k(   39) = (   0.3648476  -0.1404299   0.3105800), wk =   0.0380952
        k(   40) = (   0.3648476  -0.1404299   0.4658701), wk =   0.0380952
        k(   41) = (   0.7296952   0.4212897   0.0000000), wk =   0.0190476
        k(   42) = (   0.7296952   0.4212897   0.1552900), wk =   0.0380952
        k(   43) = (   0.7296952   0.4212897   0.3105800), wk =   0.0380952
        k(   44) = (   0.7296952   0.4212897   0.4658701), wk =   0.0380952
        k(   45) = (   0.7296952   0.7723644   0.0000000), wk =   0.0190476
        k(   46) = (   0.7296952   0.7723644   0.1552900), wk =   0.0380952
        k(   47) = (   0.7296952   0.7723644   0.3105800), wk =   0.0380952
        k(   48) = (   0.7296952   0.7723644   0.4658701), wk =   0.0380952
        k(   49) = (   0.7296952   1.1234392   0.0000000), wk =   0.0190476
        k(   50) = (   0.7296952   1.1234392   0.1552900), wk =   0.0380952
        k(   51) = (   0.7296952   1.1234392   0.3105800), wk =   0.0380952
        k(   52) = (   0.7296952   1.1234392   0.4658701), wk =   0.0380952
        k(   53) = (   0.7296952  -0.6319345   0.0000000), wk =   0.0190476
        k(   54) = (   0.7296952  -0.6319345   0.1552900), wk =   0.0380952
        k(   55) = (   0.7296952  -0.6319345   0.3105800), wk =   0.0380952
        k(   56) = (   0.7296952  -0.6319345   0.4658701), wk =   0.0380952
        k(   57) = (   0.7296952  -0.2808598   0.0000000), wk =   0.0190476
        k(   58) = (   0.7296952  -0.2808598   0.1552900), wk =   0.0380952
        k(   59) = (   0.7296952  -0.2808598   0.3105800), wk =   0.0380952
        k(   60) = (   0.7296952  -0.2808598   0.4658701), wk =   0.0380952
        k(   61) = (   0.7296952   0.0702149   0.0000000), wk =   0.0190476
        k(   62) = (   0.7296952   0.0702149   0.1552900), wk =   0.0380952
        k(   63) = (   0.7296952   0.0702149   0.3105800), wk =   0.0380952
        k(   64) = (   0.7296952   0.0702149   0.4658701), wk =   0.0380952

     Largest allocated arrays     est. size (Mb)     dimensions
     Largest temporary arrays     est. size (Mb)     dimensions

     Initial potential from superposition of free atoms

     Starting from uniform charge
     Starting wfc are    0 randomized atomic wfcs

     Writing output data file Element-Er.q.save

     Self-consistent Calculation

[...]

     iteration #  3     ecut=    60.00 Ry     beta=0.70
     CG style diagonalization
     ethr =  1.00E-02,  avg # of iterations =  4.1

[...]

     total energy              =    -646.74926920 Ry
     Harris-Foulkes estimate   =    -646.74926941 Ry
     estimated scf accuracy    <       0.00000037 Ry

     iteration #  9     ecut=    60.00 Ry     beta=0.70
     CG style diagonalization
     c_bands:  1 eigenvalues not converged
     c_bands:  1 eigenvalues not converged
     ethr =  8.43E-10,  avg # of iterations =  4.4

     End of self-consistent calculation

[...]

          k = 0.7297 0.0702 0.4659 (   581 PWs)   bands (ev):

    -4.4333  -3.8638  26.5946  27.1968  32.1275  32.5109  34.3632  35.4042
    66.0463  66.5927  69.8937  71.8079  74.6787  76.4668  77.0687  78.4907
    88.7782  90.9907  96.5181  97.3973  98.6454 100.9259 101.0176 103.5700
   103.9872 105.1388

     the Fermi energy is    99.7338 ev

!    total energy              =    -646.74927029 Ry
     Harris-Foulkes estimate   =    -646.74927030 Ry
     estimated scf accuracy    <          4.2E-09 Ry

     The total energy is the sum of the following terms:

     one-electron contribution =     230.20691581 Ry
     hartree contribution      =      25.02569160 Ry
     xc contribution           =     -65.17188994 Ry
     ewald contribution        =    -836.73976788 Ry
     smearing contrib. (-TS)   =      -0.07021988 Ry

     convergence has been achieved in   9 iterations

     Forces acting on atoms (Ry/au):

     atom    1 type  1   force =     0.00000000    0.00000000    0.00000000
     atom    2 type  1   force =     0.00000000    0.00000000    0.00000000

     Total force =     0.000000     Total SCF correction =     0.000000

     entering subroutine stress ...

          total   stress  (Ry/bohr**3)                   (kbar)     P=23505.81
   0.16863854   0.00000000   0.00000000      24807.58      0.00      0.00
   0.00000000   0.16863854   0.00000000          0.00  24807.58      0.00
   0.00000000   0.00000000   0.14209065          0.00      0.00  20902.25

     Writing output data file Element-Er.q.save

     General routines

     Parallel routines

   This run was terminated on:  10:40:46  23Mar2018

   JOB DONE.