     Program PWSCF v.5.0.2 starts on 22Mar2018 at 18:41:48

     Current dimensions of program PWSCF are:
     Max number of different atomic species (ntypx) = 10
     Max number of k-points (npk) =  40000
     Max angular momentum in pseudopotentials (lmaxx) =  3
     Waiting for input...
     Reading input from standard input

     Subspace diagonalization in iterative solution of the eigenvalue problem:
     a serial algorithm will be used

     bravais-lattice index     =            0
     lattice parameter (alat)  =       7.0151  a.u.
     unit-cell volume          =     862.2778 (a.u.)^3
     number of atoms/cell      =           12
     number of atomic types    =            2
     number of electrons       =       176.00
     number of Kohn-Sham states=          106
     kinetic-energy cutoff     =      40.0000  Ry
     charge density cutoff     =     160.0000  Ry
     convergence threshold     =      1.0E-04
     mixing beta               =       0.7000
     number of iterations used =            8  plain     mixing
     Exchange-correlation      = SLA-PZ-NOGX-NOGC ( 1 1 0 0 0)
     EXX-fraction              =        0.00
     nstep                     =           50

     celldm(1)=   7.015105  celldm(2)=   0.000000  celldm(3)=   0.000000
     celldm(4)=   0.000000  celldm(5)=   0.000000  celldm(6)=   0.000000

     crystal axes: (cart. coord. in units of alat)
               a(1) = (   1.000000   0.000000   0.000000 )
               a(2) = (   0.000000   1.315963   0.000000 )
               a(3) = (   0.000000   0.000000   1.898020 )

     reciprocal axes: (cart. coord. in units 2 pi/alat)
               b(1) = (  1.000000  0.000000  0.000000 )
               b(2) = (  0.000000  0.759900  0.000000 )
               b(3) = (  0.000000  0.000000  0.526865 )

     PseudoPot. # 1 for Sm read from file:
     /home/cwx6513/pp.La/Sm.UPF
     MD5 check sum: 5079e8b144a06bfcdbc14fb02b96ab09
     Pseudo is Norm-conserving, Zval = 16.0
     Generated in analytical, separable form
     Using radial grid of 1259 points,  6 beta functions with:
                l(1) =   0
                l(2) =   0
                l(3) =   1
                l(4) =   1
                l(5) =   2
                l(6) =   3

     PseudoPot. # 2 for Ce read from file:
     /home/cwx6513/pp.La/Ce.UPF
     MD5 check sum: 44451aa79a44a00cf2bc029dc19922f6
     Pseudo is Norm-conserving, Zval = 12.0
     Generated in analytical, separable form
     Using radial grid of 1255 points,  6 beta functions with:
                l(1) =   0
                l(2) =   0
                l(3) =   1
                l(4) =   1
                l(5) =   2
                l(6) =   3

     atomic species   valence    mass     pseudopotential
        Co            16.00    58.93320     Sm( 1.00)
        Si            12.00    28.08550     Ce( 1.00)

      8 Sym. Ops., with inversion, found ( 6 have fractional translation)

   Cartesian axes

     site n.     atom                  positions (alat units)
         1           Co  tau(   1) = (   0.7500000   1.0875135   0.8270358  )
         2           Co  tau(   2) = (   0.2500000   0.2284499   1.0709846  )
         3           Co  tau(   3) = (   0.7500000   0.4295318   0.1219744  )
         4           Co  tau(   4) = (   0.2500000   0.8864316   1.7760460  )
         5           Co  tau(   5) = (   0.2500000   0.7067855   0.5358966  )
         6           Co  tau(   6) = (   0.7500000   0.6091779   1.3621238  )
         7           Co  tau(   7) = (   0.2500000   0.0488038   0.4131136  )
         8           Co  tau(   8) = (   0.7500000   1.2671596   1.4849068  )
         9           Si  tau(   9) = (   0.2500000   0.2669484   1.6960710  )
        10           Si  tau(  10) = (   0.7500000   1.0490149   0.2019494  )
        11           Si  tau(  11) = (   0.2500000   0.9249301   1.1509596  )
        12           Si  tau(  12) = (   0.7500000   0.3910333   0.7470608  )

     number of k points=    12  gaussian smearing, width (Ry)=  0.1000
                       cart. coord. in units 2pi/alat
        k(    1) = (   0.0000000   0.0000000   0.0000000), wk =   0.0833333
        k(    2) = (   0.0000000   0.0000000   0.1317162), wk =   0.1666667
        k(    3) = (   0.0000000   0.0000000  -0.2634324), wk =   0.0833333
        k(    4) = (   0.0000000   0.2532999   0.0000000), wk =   0.1666667
        k(    5) = (   0.0000000   0.2532999   0.1317162), wk =   0.3333333
        k(    6) = (   0.0000000   0.2532999  -0.2634324), wk =   0.1666667
        k(    7) = (  -0.5000000   0.0000000   0.0000000), wk =   0.0833333
        k(    8) = (  -0.5000000   0.0000000   0.1317162), wk =   0.1666667
        k(    9) = (  -0.5000000   0.0000000  -0.2634324), wk =   0.0833333
        k(   10) = (  -0.5000000   0.2532999   0.0000000), wk =   0.1666667
        k(   11) = (  -0.5000000   0.2532999   0.1317162), wk =   0.3333333
        k(   12) = (  -0.5000000   0.2532999  -0.2634324), wk =   0.1666667

     Largest allocated arrays     est. size (Mb)     dimensions
     Largest temporary arrays     est. size (Mb)     dimensions

     Initial potential from superposition of free atoms

     Starting from uniform charge
     Starting wfc are    0 randomized atomic wfcs

     Self-consistent Calculation

     iteration #  1     ecut=    40.00 Ry     beta=0.70
     CG style diagonalization
     c_bands:  1 eigenvalues not converged
     c_bands:  1 eigenvalues not converged
     c_bands:  2 eigenvalues not converged
     c_bands:  1 eigenvalues not converged
     ethr =  1.00E-02,  avg # of iterations = 11.5

     total energy              =   -1430.86286682 Ry
     Harris-Foulkes estimate   =   -1612.51769314 Ry
     estimated scf accuracy    <     243.82790468 Ry

     iteration #  2     ecut=    40.00 Ry     beta=0.70
     CG style diagonalization
     ethr =  1.00E-02,  avg # of iterations =  8.2

[...]

     End of self-consistent calculation

          k = 0.0000 0.0000 0.0000 (  3675 PWs)   bands (ev):

   -14.4575 -13.6573 -13.6312 -13.1695 -12.9975 -12.7105 -12.6903 -12.6427
     4.4054   4.7786   5.1156   6.4849   7.8640   8.7698   8.8285   9.0034
     9.3619   9.4640   9.5804   9.8126  10.1626  10.7096  10.9412  10.9421
    11.0621  11.1145  11.1529  11.5120  11.8070  11.9340  12.2894  12.3096
    12.3483  12.4396  13.1495  13.5517  22.5561  23.2612  23.6019  23.7340
    24.2029  24.2064  24.7179  24.8115  24.8639  25.1040  25.6367  25.6383
    33.1891  33.4426  33.7264  34.3094  34.3843  34.6880  35.0700  35.3297
    35.8466  36.8384  37.2416  37.6960  37.9647  38.4960  38.9639  39.0229
    39.8306  40.0847  40.5491  40.5655  40.7322  40.8367  41.5258  41.6502
    42.0694  42.1158  42.6958  43.6165  43.6476  43.7607  44.2400  45.0723
    45.2366  45.4025  45.6274  45.8623  45.9898  46.1372  46.3192  47.5129
    47.7341  48.1830  48.4092  48.7081  49.1311  49.6482  49.6820  49.9687
    50.3390  50.5689  50.7314  50.8371  52.1630  52.6868  52.7849  52.8244
    53.4835  53.7657

[...]

          k =-0.5000 0.0000 0.0000 (  3722 PWs)   bands (ev):

[...]

     the Fermi energy is    47.0728 ev

!    total energy              =   -1510.46155643 Ry
     Harris-Foulkes estimate   =   -1510.46157767 Ry
     estimated scf accuracy    <       0.00002428 Ry

     The total energy is the sum of the following terms:

     one-electron contribution =     418.50014444 Ry
     hartree contribution      =      67.48989042 Ry
     xc contribution           =    -188.76602794 Ry
     ewald contribution        =   -1807.28466685 Ry
     smearing contrib. (-TS)   =      -0.40089651 Ry

     convergence has been achieved in   9 iterations

     Forces acting on atoms (Ry/au):

     atom    1 type  1   force =     0.00000000   -0.01916413   -0.07960760
     atom    2 type  1   force =     0.00000000    0.01916413    0.07960760
     atom    3 type  1   force =     0.00000000   -0.01916413    0.07960760
     atom    4 type  1   force =     0.00000000    0.01916413   -0.07960760
     atom    5 type  1   force =     0.00000000    0.13421311   -0.15965935
     atom    6 type  1   force =     0.00000000   -0.13421311    0.15965935
     atom    7 type  1   force =     0.00000000    0.13421311    0.15965935
     atom    8 type  1   force =     0.00000000   -0.13421311   -0.15965935
     atom    9 type  2   force =     0.00000000   -0.18013666   -0.00340143
     atom   10 type  2   force =     0.00000000    0.18013666    0.00340143
     atom   11 type  2   force =     0.00000000   -0.18013666    0.00340143
     atom   12 type  2   force =     0.00000000    0.18013666   -0.00340143

     Total force =     0.575047     Total SCF correction =     0.000000

     entering subroutine stress ...

          total   stress  (Ry/bohr**3)                   (kbar)     P= 6455.63
   0.04443752   0.00000000   0.00000000       6536.98      0.00      0.00
   0.00000000   0.04284319   0.00000000          0.00   6302.45      0.00
   0.00000000   0.00000000   0.04437285          0.00      0.00   6527.47

     BFGS Geometry Optimization

     number of scf cycles    =   1
     number of bfgs steps    =   0

     enthalpy new            =   -1510.4615564312 Ry

     new trust radius        =       0.5000000000 bohr
     new conv_thr            =       0.0001000000 Ry

     new unit-cell volume =   1098.56733 a.u.^3 (   162.79088 Ang^3 )

CELL_PARAMETERS (alat=  7.01510508)
   1.085136619   0.000000000   0.000000000
   0.000000000   1.423980400   0.000000000
   0.000000000   0.000000000   2.059376283

ATOMIC_POSITIONS (crystal)
Co       0.750000000   0.826241912   0.435277810
Co       0.250000000   0.173758088   0.564722190
Co       0.750000000   0.326241912   0.064722190
Co       0.250000000   0.673758088   0.935277810
Co       0.250000000   0.538200150   0.281426063
Co       0.750000000   0.461799850   0.718573937
Co       0.250000000   0.038200150   0.218573937
Co       0.750000000   0.961799850   0.781426063
Si       0.250000000   0.201358623   0.893580423
Si       0.750000000   0.798641377   0.106419577
Si       0.250000000   0.701358623   0.606419577
Si       0.750000000   0.298641377   0.393580423

     Writing output data file Prototype-La-oP12-Co2Si.save
     NEW-OLD atomic charge density approx. for the potential
     NEW k-points:
        k(    1) = (   0.0000000   0.0000000   0.0000000), wk =   0.0833333
        k(    2) = (   0.0000000   0.0000000   0.1213960), wk =   0.1666667
        k(    3) = (   0.0000000   0.0000000  -0.2427920), wk =   0.0833333
        k(    4) = (   0.0000000   0.2340856   0.0000000), wk =   0.1666667
        k(    5) = (   0.0000000   0.2340856   0.1213960), wk =   0.3333333
        k(    6) = (   0.0000000   0.2340856  -0.2427920), wk =   0.1666667
        k(    7) = (  -0.4607715   0.0000000   0.0000000), wk =   0.0833333
        k(    8) = (  -0.4607715   0.0000000   0.1213960), wk =   0.1666667
        k(    9) = (  -0.4607715   0.0000000  -0.2427920), wk =   0.0833333
        k(   10) = (  -0.4607715   0.2340856   0.0000000), wk =   0.1666667
        k(   11) = (  -0.4607715   0.2340856   0.1213960), wk =   0.3333333
        k(   12) = (  -0.4607715   0.2340856  -0.2427920), wk =   0.1666667

[...]

     enthalpy old            =   -1510.4615564312 Ry
     enthalpy new            =   -1517.0706057028 Ry

     CASE: enthalpy_new < enthalpy_old

     small trust_radius: resetting bfgs history

     new trust radius        =       2.7062585867 bohr
     new conv_thr            =       0.0001000000 Ry

[...]

          total   stress  (Ry/bohr**3)                   (kbar)     P=-1101.80
  -0.00760236   0.00000000   0.00000000      -1118.35      0.00      0.00
   0.00000000  -0.00734657   0.00000000          0.00  -1080.72      0.00
   0.00000000   0.00000000  -0.00752065          0.00      0.00  -1106.33

     number of scf cycles    =   3
     number of bfgs steps    =   2

     enthalpy old            =   -1517.0706057028 Ry
     enthalpy new            =   -1509.4531490923 Ry

     CASE: enthalpy_new > enthalpy_old

     new trust radius        =       1.1600947016 bohr

     trust_radius < trust_radius_min

     resetting bfgs history

     Message from routine bfgs:
     history already reset at previous step: stopping
     new conv_thr            =       0.0001000000 Ry

     new unit-cell volume =   1313.66236 a.u.^3 (   194.66468 Ang^3 )

[...]

ATOMIC_POSITIONS (crystal)
Co       0.750000000   0.826092525   0.434884017
Co       0.250000000   0.173907475   0.565115983
Co       0.750000000   0.326092525   0.065115983
Co       0.250000000   0.673907475   0.934884017
Co       0.250000000   0.539030528   0.280527681
Co       0.750000000   0.460969472   0.719472319
Co       0.250000000   0.039030528   0.219472319
Co       0.750000000   0.960969472   0.780527681
Si       0.250000000   0.200276317   0.893552406
Si       0.750000000   0.799723683   0.106447594
Si       0.250000000   0.700276317   0.606447594
Si       0.750000000   0.299723683   0.393552406

     Writing output data file Prototype-La-oP12-Co2Si.save
     NEW-OLD atomic charge density approx. for the potential
     NEW k-points:
        k(    1) = (   0.0000000   0.0000000   0.0000000), wk =   0.0833333
        k(    2) = (   0.0000000   0.0000000   0.1142467), wk =   0.1666667
        k(    3) = (   0.0000000   0.0000000  -0.2284934), wk =   0.0833333
        k(    4) = (   0.0000000   0.2214040   0.0000000), wk =   0.1666667
        k(    5) = (   0.0000000   0.2214040   0.1142467), wk =   0.3333333
        k(    6) = (   0.0000000   0.2214040  -0.2284934), wk =   0.1666667
        k(    7) = (  -0.4328908   0.0000000   0.0000000), wk =   0.0833333
        k(    8) = (  -0.4328908   0.0000000   0.1142467), wk =   0.1666667
        k(    9) = (  -0.4328908   0.0000000  -0.2284934), wk =   0.0833333
        k(   10) = (  -0.4328908   0.2214040   0.0000000), wk =   0.1666667
        k(   11) = (  -0.4328908   0.2214040   0.1142467), wk =   0.3333333
        k(   12) = (  -0.4328908   0.2214040  -0.2284934), wk =   0.1666667

[...]

     The maximum number of steps has been reached.

     End of BFGS Geometry Optimization
Begin final coordinates
     new unit-cell volume =   1313.66236 a.u.^3 (   194.66468 Ang^3 )

CELL_PARAMETERS (alat=  7.01510508)
   1.155025602   0.000000000   0.000000000
   0.000000000   1.505543579   0.000000000
   0.000000000   0.000000000   2.188246652

ATOMIC_POSITIONS (crystal)
Co       0.750000000   0.826092525   0.434884017
Co       0.250000000   0.173907475   0.565115983
Co       0.750000000   0.326092525   0.065115983
Co       0.250000000   0.673907475   0.934884017
Co       0.250000000   0.539030528   0.280527681
Co       0.750000000   0.460969472   0.719472319
Co       0.250000000   0.039030528   0.219472319
Co       0.750000000   0.960969472   0.780527681
Si       0.250000000   0.200276317   0.893552406
Si       0.750000000   0.799723683   0.106447594
Si       0.250000000   0.700276317   0.606447594
Si       0.750000000   0.299723683   0.393552406
End final coordinates

     A final scf calculation at the relaxed structure.
     The G-vectors are recalculated for the final unit cell
     Results may differ from those at the preceding step.

     bravais-lattice index     =            0
     lattice parameter (alat)  =       7.0151  a.u.
     unit-cell volume          =    1313.6624 (a.u.)^3
     number of atoms/cell      =           12
     number of atomic types    =            2
     number of electrons       =       176.00
     number of Kohn-Sham states=          106
     kinetic-energy cutoff     =      40.0000  Ry
     charge density cutoff     =     160.0000  Ry
     convergence threshold     =      1.0E-04
     mixing beta               =       0.7000
     number of iterations used =            8  plain     mixing
     Exchange-correlation      = SLA-PZ-NOGX-NOGC ( 1 1 0 0 0)
     EXX-fraction              =        0.00

     celldm(1)=   7.015105  celldm(2)=   0.000000  celldm(3)=   0.000000
     celldm(4)=   0.000000  celldm(5)=   0.000000  celldm(6)=   0.000000

     crystal axes: (cart. coord. in units of alat)
               a(1) = (   1.155026   0.000000   0.000000 )
               a(2) = (   0.000000   1.505544   0.000000 )
               a(3) = (   0.000000   0.000000   2.188247 )

     reciprocal axes: (cart. coord. in units 2 pi/alat)
               b(1) = (  0.865782  0.000000  0.000000 )
               b(2) = (  0.000000  0.664212  0.000000 )
               b(3) = (  0.000000  0.000000  0.456987 )

     PseudoPot. # 1 for Sm read from file:
     /home/cwx6513/pp.La/Sm.UPF
     MD5 check sum: 5079e8b144a06bfcdbc14fb02b96ab09
     Pseudo is Norm-conserving, Zval = 16.0
     Generated in analytical, separable form
     Using radial grid of 1259 points,  6 beta functions with:
                l(1) =   0
                l(2) =   0
                l(3) =   1
                l(4) =   1
                l(5) =   2
                l(6) =   3

     PseudoPot. # 2 for Ce read from file:
     /home/cwx6513/pp.La/Ce.UPF
     MD5 check sum: 44451aa79a44a00cf2bc029dc19922f6
     Pseudo is Norm-conserving, Zval = 12.0
     Generated in analytical, separable form
     Using radial grid of 1255 points,  6 beta functions with:
                l(1) =   0
                l(2) =   0
                l(3) =   1
                l(4) =   1
                l(5) =   2
                l(6) =   3

     atomic species   valence    mass     pseudopotential
        Co            16.00    58.93320     Sm( 1.00)
        Si            12.00    28.08550     Ce( 1.00)

      8 Sym. Ops., with inversion, found ( 6 have fractional translation)

   Cartesian axes

     site n.     atom                  positions (alat units)
         1           Co  tau(   1) = (   0.8662692   1.2437183   0.9516335  )
         2           Co  tau(   2) = (   0.2887564   0.2618253   1.2366132  )
         3           Co  tau(   3) = (   0.8662692   0.4909465   0.1424898  )
         4           Co  tau(   4) = (   0.2887564   1.0145971   2.0457568  )
         5           Co  tau(   5) = (   0.2887564   0.8115340   0.6138638  )
         6           Co  tau(   6) = (   0.8662692   0.6940096   1.5743829  )
         7           Co  tau(   7) = (   0.2887564   0.0587622   0.4802596  )
         8           Co  tau(   8) = (   0.8662692   1.4467814   1.7079871  )
         9           Si  tau(   9) = (   0.2887564   0.3015247   1.9553131  )
        10           Si  tau(  10) = (   0.8662692   1.2040189   0.2329336  )
        11           Si  tau(  11) = (   0.2887564   1.0542965   1.3270569  )
        12           Si  tau(  12) = (   0.8662692   0.4512471   0.8611897  )

     number of k points=    12  gaussian smearing, width (Ry)=  0.1000
                       cart. coord. in units 2pi/alat
        k(    1) = (   0.0000000   0.0000000   0.0000000), wk =   0.0833333
        k(    2) = (   0.0000000   0.0000000   0.1142467), wk =   0.1666667
        k(    3) = (   0.0000000   0.0000000  -0.2284934), wk =   0.0833333
        k(    4) = (   0.0000000   0.2214040   0.0000000), wk =   0.1666667
        k(    5) = (   0.0000000   0.2214040   0.1142467), wk =   0.3333333
        k(    6) = (   0.0000000   0.2214040  -0.2284934), wk =   0.1666667
        k(    7) = (  -0.4328908   0.0000000   0.0000000), wk =   0.0833333
        k(    8) = (  -0.4328908   0.0000000   0.1142467), wk =   0.1666667
        k(    9) = (  -0.4328908   0.0000000  -0.2284934), wk =   0.0833333
        k(   10) = (  -0.4328908   0.2214040   0.0000000), wk =   0.1666667
        k(   11) = (  -0.4328908   0.2214040   0.1142467), wk =   0.3333333
        k(   12) = (  -0.4328908   0.2214040  -0.2284934), wk =   0.1666667

     Largest allocated arrays     est. size (Mb)     dimensions
     Largest temporary arrays     est. size (Mb)     dimensions

     Initial potential from superposition of free atoms

     Starting from uniform charge
     Starting wfc are    0 randomized atomic wfcs

     Writing output data file Prototype-La-oP12-Co2Si.save

     Self-consistent Calculation

[...]

     iteration # 10     ecut=    40.00 Ry     beta=0.70
     CG style diagonalization
     c_bands:  1 eigenvalues not converged
     c_bands:  2 eigenvalues not converged
     ethr =  5.02E-07,  avg # of iterations =  3.9

     total energy              =   -1520.47523996 Ry
     Harris-Foulkes estimate   =   -1520.47530907 Ry
     estimated scf accuracy    <       0.00015473 Ry

     iteration # 11     ecut=    40.00 Ry     beta=0.70
     CG style diagonalization
     ethr =  8.79E-08,  avg # of iterations =  4.0

     End of self-consistent calculation

[...]

          k = 0.0000 0.2214-0.2285 (  5592 PWs)   bands (ev):

[...]

          k =-0.4329 0.2214-0.2285 (  5600 PWs)   bands (ev):

   -28.2166 -28.2166 -28.1930 -28.1930 -28.1096 -28.1096 -28.0421 -28.0421
    -8.6874  -8.6874  -8.6068  -8.6068  -4.3381  -4.3381  -4.0729  -4.0729
    -4.0571  -4.0571  -3.8660  -3.8660  -3.5681  -3.5681  -3.5499  -3.5499
    -3.3727  -3.3727  -3.2074  -3.2074  -3.1449  -3.1449  -3.0861  -3.0861
    -2.9874  -2.9874  -2.9295  -2.9295   9.0482   9.0482   9.2070   9.2070
     9.4396   9.4396   9.4426   9.4426   9.5784   9.5784   9.6273   9.6273
    22.6562  22.6562  23.2444  23.2444  23.3798  23.3798  23.9338  23.9338
    24.1674  24.1674  24.2731  24.2731  24.4391  24.4391  24.9525  24.9525
    24.9663  24.9663  25.3240  25.3240  25.3374  25.3374  25.8093  25.8093
    26.0046  26.0046  26.7975  26.7975  26.8187  26.8187  27.2850  27.2850
    27.3129  27.3129  28.5163  28.5163  28.6437  28.6437  29.1907  29.1907
    29.5113  29.5113  29.8544  29.8544  30.9580  30.9580  31.6168  31.6168
    31.8908  31.8908  31.9904  31.9906  32.7356  32.7357  32.9185  32.9187
    33.9094  33.9094

     the Fermi energy is    29.6823 ev

!    total energy              =   -1520.47528433 Ry
     Harris-Foulkes estimate   =   -1520.47529095 Ry
     estimated scf accuracy    <       0.00000878 Ry

     The total energy is the sum of the following terms:

     one-electron contribution =     107.24335851 Ry
     hartree contribution      =     120.72316303 Ry
     xc contribution           =    -177.03274752 Ry
     ewald contribution        =   -1570.88878858 Ry
     smearing contrib. (-TS)   =      -0.52026977 Ry

     convergence has been achieved in  11 iterations

     Forces acting on atoms (Ry/au):

     atom    1 type  1   force =     0.00000000   -0.01374906   -0.01147457
     atom    2 type  1   force =     0.00000000    0.01374906    0.01147457
     atom    3 type  1   force =     0.00000000   -0.01374906    0.01147457
     atom    4 type  1   force =     0.00000000    0.01374906   -0.01147457
     atom    5 type  1   force =     0.00000000    0.03841333   -0.08085212
     atom    6 type  1   force =     0.00000000   -0.03841333    0.08085212
     atom    7 type  1   force =     0.00000000    0.03841333    0.08085212
     atom    8 type  1   force =     0.00000000   -0.03841333   -0.08085212
     atom    9 type  2   force =     0.00000000   -0.05944239    0.00942063
     atom   10 type  2   force =     0.00000000    0.05944239   -0.00942063
     atom   11 type  2   force =     0.00000000   -0.05944239   -0.00942063
     atom   12 type  2   force =     0.00000000    0.05944239    0.00942063

     Total force =     0.218682     Total SCF correction =     0.000000

     entering subroutine stress ...

          total   stress  (Ry/bohr**3)                   (kbar)     P= 1062.87
   0.00756640   0.00000000   0.00000000       1113.06      0.00      0.00
   0.00000000   0.00683252   0.00000000          0.00   1005.10      0.00
   0.00000000   0.00000000   0.00727674          0.00      0.00   1070.45

     Writing output data file Prototype-La-oP12-Co2Si.save

     General routines

     Parallel routines

   This run was terminated on:  18:56:51  22Mar2018

   JOB DONE.