     Program PWSCF v.5.0.2 starts on 22Mar2018 at 18:41:30

     Current dimensions of program PWSCF are:
     Max number of different atomic species (ntypx) = 10
     Max number of k-points (npk) =  40000
     Max angular momentum in pseudopotentials (lmaxx) =  3
     Waiting for input...
     Reading input from standard input

     Subspace diagonalization in iterative solution of the eigenvalue problem:
     a serial algorithm will be used

     bravais-lattice index     =            0
     lattice parameter (alat)  =       8.5346  a.u.
     unit-cell volume          =     621.6493 (a.u.)^3
     number of atoms/cell      =            8
     number of atomic types    =            2
     number of electrons       =       120.00
     number of Kohn-Sham states=           72
     kinetic-energy cutoff     =      40.0000  Ry
     charge density cutoff     =     160.0000  Ry
     convergence threshold     =      1.0E-04
     mixing beta               =       0.7000
     number of iterations used =            8  plain     mixing
     Exchange-correlation      = SLA-PZ-NOGX-NOGC ( 1 1 0 0 0)
     EXX-fraction              =        0.00
     nstep                     =           50

     celldm(1)=   8.534573  celldm(2)=   0.000000  celldm(3)=   0.000000
     celldm(4)=   0.000000  celldm(5)=   0.000000  celldm(6)=   0.000000

     crystal axes: (cart. coord. in units of alat)
               a(1) = (   1.000000   0.000000   0.000000 )
               a(2) = (   0.000000   1.000000   0.000000 )
               a(3) = (   0.000000   0.000000   1.000000 )

     reciprocal axes: (cart. coord. in units 2 pi/alat)
               b(1) = (  1.000000  0.000000  0.000000 )
               b(2) = (  0.000000  1.000000  0.000000 )
               b(3) = (  0.000000  0.000000  1.000000 )

     PseudoPot. # 1 for Sm read from file:
     /home/cwx6513/pp.La/Sm.UPF
     MD5 check sum: 5079e8b144a06bfcdbc14fb02b96ab09
     Pseudo is Norm-conserving, Zval = 16.0
     Generated in analytical, separable form
     Using radial grid of 1259 points,  6 beta functions with:
                l(1) =   0
                l(2) =   0
                l(3) =   1
                l(4) =   1
                l(5) =   2
                l(6) =   3

     PseudoPot. # 2 for Ce read from file:
     /home/cwx6513/pp.La/Ce.UPF
     MD5 check sum: 44451aa79a44a00cf2bc029dc19922f6
     Pseudo is Norm-conserving, Zval = 12.0
     Generated in analytical, separable form
     Using radial grid of 1255 points,  6 beta functions with:
                l(1) =   0
                l(2) =   0
                l(3) =   1
                l(4) =   1
                l(5) =   2
                l(6) =   3

     atomic species   valence    mass     pseudopotential
        Cr            16.00    51.99610     Sm( 1.00)
        Si            12.00    28.08550     Ce( 1.00)

     48 Sym. Ops., with inversion, found (24 have fractional translation)

   Cartesian axes

     site n.     atom                  positions (alat units)
         1           Cr  tau(   1) = (   0.0000000   0.5000000   0.2500000  )
         2           Cr  tau(   2) = (   0.0000000   0.5000000   0.7500000  )
         3           Cr  tau(   3) = (   0.5000000   0.7500000   0.0000000  )
         4           Cr  tau(   4) = (   0.5000000   0.2500000   0.0000000  )
         5           Cr  tau(   5) = (   0.7500000   0.0000000   0.5000000  )
         6           Cr  tau(   6) = (   0.2500000   0.0000000   0.5000000  )
         7           Si  tau(   7) = (   0.5000000   0.5000000   0.5000000  )
         8           Si  tau(   8) = (   0.0000000   0.0000000   0.0000000  )

     number of k points=    48  gaussian smearing, width (Ry)=  0.1000
                       cart. coord. in units 2pi/alat
        k(    1) = (   0.0000000   0.0000000   0.0000000), wk =   0.0095238
        k(    2) = (   0.0000000   0.0000000   0.1428571), wk =   0.0190476
        k(    3) = (   0.0000000   0.0000000   0.2857143), wk =   0.0190476
        k(    4) = (   0.0000000   0.0000000   0.4285714), wk =   0.0190476
        k(    5) = (   0.0000000   0.1666667   0.0000000), wk =   0.0190476
        k(    6) = (   0.0000000   0.1666667   0.1428571), wk =   0.0380952
        k(    7) = (   0.0000000   0.1666667   0.2857143), wk =   0.0380952
        k(    8) = (   0.0000000   0.1666667   0.4285714), wk =   0.0380952
        k(    9) = (   0.0000000   0.3333333   0.0000000), wk =   0.0190476
        k(   10) = (   0.0000000   0.3333333   0.1428571), wk =   0.0380952
        k(   11) = (   0.0000000   0.3333333   0.2857143), wk =   0.0380952
        k(   12) = (   0.0000000   0.3333333   0.4285714), wk =   0.0380952
        k(   13) = (   0.0000000  -0.5000000   0.0000000), wk =   0.0095238
        k(   14) = (   0.0000000  -0.5000000   0.1428571), wk =   0.0190476
        k(   15) = (   0.0000000  -0.5000000   0.2857143), wk =   0.0190476
        k(   16) = (   0.0000000  -0.5000000   0.4285714), wk =   0.0190476
        k(   17) = (   0.2000000   0.0000000   0.0000000), wk =   0.0190476
        k(   18) = (   0.2000000   0.0000000   0.1428571), wk =   0.0380952
        k(   19) = (   0.2000000   0.0000000   0.2857143), wk =   0.0380952
        k(   20) = (   0.2000000   0.0000000   0.4285714), wk =   0.0380952
        k(   21) = (   0.2000000   0.1666667   0.0000000), wk =   0.0380952
        k(   22) = (   0.2000000   0.1666667   0.1428571), wk =   0.0761905
        k(   23) = (   0.2000000   0.1666667   0.2857143), wk =   0.0761905
        k(   24) = (   0.2000000   0.1666667   0.4285714), wk =   0.0761905
        k(   25) = (   0.2000000   0.3333333   0.0000000), wk =   0.0380952
        k(   26) = (   0.2000000   0.3333333   0.1428571), wk =   0.0761905
        k(   27) = (   0.2000000   0.3333333   0.2857143), wk =   0.0761905
        k(   28) = (   0.2000000   0.3333333   0.4285714), wk =   0.0761905
        k(   29) = (   0.2000000  -0.5000000   0.0000000), wk =   0.0190476
        k(   30) = (   0.2000000  -0.5000000   0.1428571), wk =   0.0380952
        k(   31) = (   0.2000000  -0.5000000   0.2857143), wk =   0.0380952
        k(   32) = (   0.2000000  -0.5000000   0.4285714), wk =   0.0380952
        k(   33) = (   0.4000000   0.0000000   0.0000000), wk =   0.0190476
        k(   34) = (   0.4000000   0.0000000   0.1428571), wk =   0.0380952
        k(   35) = (   0.4000000   0.0000000   0.2857143), wk =   0.0380952
        k(   36) = (   0.4000000   0.0000000   0.4285714), wk =   0.0380952
        k(   37) = (   0.4000000   0.1666667   0.0000000), wk =   0.0380952
        k(   38) = (   0.4000000   0.1666667   0.1428571), wk =   0.0761905
        k(   39) = (   0.4000000   0.1666667   0.2857143), wk =   0.0761905
        k(   40) = (   0.4000000   0.1666667   0.4285714), wk =   0.0761905
        k(   41) = (   0.4000000   0.3333333   0.0000000), wk =   0.0380952
        k(   42) = (   0.4000000   0.3333333   0.1428571), wk =   0.0761905
        k(   43) = (   0.4000000   0.3333333   0.2857143), wk =   0.0761905
        k(   44) = (   0.4000000   0.3333333   0.4285714), wk =   0.0761905
        k(   45) = (   0.4000000  -0.5000000   0.0000000), wk =   0.0190476
        k(   46) = (   0.4000000  -0.5000000   0.1428571), wk =   0.0380952
        k(   47) = (   0.4000000  -0.5000000   0.2857143), wk =   0.0380952
        k(   48) = (   0.4000000  -0.5000000   0.4285714), wk =   0.0380952

     Largest allocated arrays     est. size (Mb)     dimensions
     Largest temporary arrays     est. size (Mb)     dimensions

     Initial potential from superposition of free atoms

     Starting from uniform charge
     Starting wfc are    0 randomized atomic wfcs

     Self-consistent Calculation

     iteration #  1     ecut=    40.00 Ry     beta=0.70
     CG style diagonalization
     c_bands:  1 eigenvalues not converged
     c_bands:  3 eigenvalues not converged
     c_bands:  2 eigenvalues not converged
     c_bands:  1 eigenvalues not converged
     c_bands:  1 eigenvalues not converged
     c_bands:  1 eigenvalues not converged
     c_bands:  1 eigenvalues not converged
     c_bands:  2 eigenvalues not converged
     c_bands:  1 eigenvalues not converged
     c_bands:  3 eigenvalues not converged
     c_bands:  1 eigenvalues not converged
     c_bands:  1 eigenvalues not converged
     c_bands:  3 eigenvalues not converged
     c_bands:  1 eigenvalues not converged
     c_bands:  1 eigenvalues not converged
     c_bands:  1 eigenvalues not converged
     c_bands:  3 eigenvalues not converged
     c_bands:  2 eigenvalues not converged
     c_bands:  1 eigenvalues not converged
     c_bands:  2 eigenvalues not converged
     c_bands:  1 eigenvalues not converged
     c_bands:  1 eigenvalues not converged
     c_bands:  1 eigenvalues not converged
     c_bands:  1 eigenvalues not converged
     c_bands:  1 eigenvalues not converged
     ethr =  1.00E-02,  avg # of iterations = 11.4

     total energy              =    -984.58176536 Ry
     Harris-Foulkes estimate   =   -1145.46889013 Ry
     estimated scf accuracy    <     210.79993489 Ry

[...]

     iteration #  4     ecut=    40.00 Ry     beta=0.70
     CG style diagonalization
     ethr =  1.00E-02,  avg # of iterations =  3.4

[...]

     End of self-consistent calculation

          k = 0.0000 0.0000 0.0000 (  2601 PWs)   bands (ev):

   -17.5508 -16.7429 -16.7429 -15.1509 -15.1509 -15.1509   2.2776   3.5048
     3.5048   4.2015   6.0997   6.0997   6.0997   6.2282   8.5373   8.5373
     8.5373   8.6103   8.6103   8.6103   9.4407   9.4407   9.4407  12.1587
    12.1587  12.1587  21.2647  21.2647  21.2647  21.7526  21.7526  21.7526
    32.4198  32.4198  32.4650  32.4650  32.4650  32.4922  33.1039  35.3061
    35.3061  35.3061  35.9795  35.9795  37.1822  38.5418  38.5418  38.5418
    38.7777  40.8267  40.8267  40.8267  40.8808  40.8808  41.0163  41.0163
    41.0163  42.9067  42.9067  42.9067  42.9916  42.9916  42.9916  44.0295
    44.0295  45.1611  45.1611  45.3468  45.3468  45.3468  49.6488  49.6483

[...]

     the Fermi energy is    43.3636 ev

!    total energy              =   -1058.37608592 Ry
     Harris-Foulkes estimate   =   -1058.37611117 Ry
     estimated scf accuracy    <       0.00002956 Ry

     The total energy is the sum of the following terms:

     one-electron contribution =     238.63764894 Ry
     hartree contribution      =      55.27572314 Ry
     xc contribution           =    -128.17833057 Ry
     ewald contribution        =   -1223.81870215 Ry
     smearing contrib. (-TS)   =      -0.29242529 Ry

     convergence has been achieved in   8 iterations

     Forces acting on atoms (Ry/au):

     atom    1 type  1   force =     0.00000000    0.00000000    0.00000000
     atom    2 type  1   force =     0.00000000    0.00000000    0.00000000
     atom    3 type  1   force =     0.00000000    0.00000000    0.00000000
     atom    4 type  1   force =     0.00000000    0.00000000    0.00000000
     atom    5 type  1   force =     0.00000000    0.00000000    0.00000000
     atom    6 type  1   force =     0.00000000    0.00000000    0.00000000
     atom    7 type  2   force =     0.00000000    0.00000000    0.00000000
[...]
     enthalpy new            =   -1062.1070359636 Ry

     CASE: enthalpy_new < enthalpy_old

     small trust_radius: resetting bfgs history

     new trust radius        =       1.1207263572 bohr
     new conv_thr            =       0.0000010000 Ry

[...]

     negative rho (up, down):  0.749E-05 0.000E+00

[...]

          total   stress  (Ry/bohr**3)                   (kbar)     P=-1012.26
  -0.00688117   0.00000000   0.00000000      -1012.26      0.00      0.00
   0.00000000  -0.00688117   0.00000000          0.00  -1012.26      0.00
   0.00000000   0.00000000  -0.00688117          0.00      0.00  -1012.26

     number of scf cycles    =   3
     number of bfgs steps    =   2

     enthalpy old            =   -1062.1070359636 Ry
     enthalpy new            =   -1060.7105253907 Ry

     CASE: enthalpy_new > enthalpy_old

     new trust radius        =       0.4468791048 bohr

     trust_radius < trust_radius_min

     resetting bfgs history

     Message from routine bfgs:
     history already reset at previous step: stopping
     new conv_thr            =       0.0000010000 Ry

     new unit-cell volume =   1041.57733 a.u.^3 (   154.34583 Ang^3 )

[...]

ATOMIC_POSITIONS (crystal)
Cr       0.000000000   0.500000000   0.250000000
Cr       0.000000000   0.500000000   0.750000000
Cr       0.500000000   0.750000000   0.000000000
Cr       0.500000000   0.250000000   0.000000000
Cr       0.750000000   0.000000000   0.500000000
Cr       0.250000000   0.000000000   0.500000000
Si       0.500000000   0.500000000   0.500000000
Si       0.000000000   0.000000000   0.000000000

     Writing output data file Prototype-La-cP8-Cr3Si.save
     NEW-OLD atomic charge density approx. for the potential
     NEW k-points:
        k(    1) = (   0.0000000   0.0000000   0.0000000), wk =   0.0095238
        k(    2) = (   0.0000000   0.0000000   0.1202781), wk =   0.0190476
        k(    3) = (   0.0000000   0.0000000   0.2405562), wk =   0.0190476
        k(    4) = (   0.0000000   0.0000000   0.3608343), wk =   0.0190476
        k(    5) = (   0.0000000   0.1403245   0.0000000), wk =   0.0190476
        k(    6) = (   0.0000000   0.1403245   0.1202781), wk =   0.0380952
        k(    7) = (   0.0000000   0.1403245   0.2405562), wk =   0.0380952
        k(    8) = (   0.0000000   0.1403245   0.3608343), wk =   0.0380952
        k(    9) = (   0.0000000   0.2806489   0.0000000), wk =   0.0190476
        k(   10) = (   0.0000000   0.2806489   0.1202781), wk =   0.0380952
        k(   11) = (   0.0000000   0.2806489   0.2405562), wk =   0.0380952
        k(   12) = (   0.0000000   0.2806489   0.3608343), wk =   0.0380952
        k(   13) = (   0.0000000  -0.4209734   0.0000000), wk =   0.0095238
        k(   14) = (   0.0000000  -0.4209734   0.1202781), wk =   0.0190476
        k(   15) = (   0.0000000  -0.4209734   0.2405562), wk =   0.0190476
        k(   16) = (   0.0000000  -0.4209734   0.3608343), wk =   0.0190476
        k(   17) = (   0.1683894   0.0000000   0.0000000), wk =   0.0190476
        k(   18) = (   0.1683894   0.0000000   0.1202781), wk =   0.0380952
        k(   19) = (   0.1683894   0.0000000   0.2405562), wk =   0.0380952
        k(   20) = (   0.1683894   0.0000000   0.3608343), wk =   0.0380952
        k(   21) = (   0.1683894   0.1403245   0.0000000), wk =   0.0380952
        k(   22) = (   0.1683894   0.1403245   0.1202781), wk =   0.0761905
        k(   23) = (   0.1683894   0.1403245   0.2405562), wk =   0.0761905
        k(   24) = (   0.1683894   0.1403245   0.3608343), wk =   0.0761905
        k(   25) = (   0.1683894   0.2806489   0.0000000), wk =   0.0380952
        k(   26) = (   0.1683894   0.2806489   0.1202781), wk =   0.0761905
        k(   27) = (   0.1683894   0.2806489   0.2405562), wk =   0.0761905
        k(   28) = (   0.1683894   0.2806489   0.3608343), wk =   0.0761905
        k(   29) = (   0.1683894  -0.4209734   0.0000000), wk =   0.0190476
        k(   30) = (   0.1683894  -0.4209734   0.1202781), wk =   0.0380952
        k(   31) = (   0.1683894  -0.4209734   0.2405562), wk =   0.0380952
        k(   32) = (   0.1683894  -0.4209734   0.3608343), wk =   0.0380952
        k(   33) = (   0.3367787   0.0000000   0.0000000), wk =   0.0190476
        k(   34) = (   0.3367787   0.0000000   0.1202781), wk =   0.0380952
        k(   35) = (   0.3367787   0.0000000   0.2405562), wk =   0.0380952
        k(   36) = (   0.3367787   0.0000000   0.3608343), wk =   0.0380952
        k(   37) = (   0.3367787   0.1403245   0.0000000), wk =   0.0380952
        k(   38) = (   0.3367787   0.1403245   0.1202781), wk =   0.0761905
        k(   39) = (   0.3367787   0.1403245   0.2405562), wk =   0.0761905
        k(   40) = (   0.3367787   0.1403245   0.3608343), wk =   0.0761905
        k(   41) = (   0.3367787   0.2806489   0.0000000), wk =   0.0380952
        k(   42) = (   0.3367787   0.2806489   0.1202781), wk =   0.0761905
        k(   43) = (   0.3367787   0.2806489   0.2405562), wk =   0.0761905
        k(   44) = (   0.3367787   0.2806489   0.3608343), wk =   0.0761905
        k(   45) = (   0.3367787  -0.4209734   0.0000000), wk =   0.0190476
        k(   46) = (   0.3367787  -0.4209734   0.1202781), wk =   0.0380952
        k(   47) = (   0.3367787  -0.4209734   0.2405562), wk =   0.0380952
        k(   48) = (   0.3367787  -0.4209734   0.3608343), wk =   0.0380952

[...]

     The maximum number of steps has been reached.

     End of BFGS Geometry Optimization
Begin final coordinates
     new unit-cell volume =   1041.57733 a.u.^3 (   154.34583 Ang^3 )

CELL_PARAMETERS (alat=  8.53457320)
   1.187723546   0.000000000   0.000000000
   0.000000000   1.187723546   0.000000000
   0.000000000   0.000000000   1.187723546

ATOMIC_POSITIONS (crystal)
Cr       0.000000000   0.500000000   0.250000000
Cr       0.000000000   0.500000000   0.750000000
Cr       0.500000000   0.750000000   0.000000000
Cr       0.500000000   0.250000000   0.000000000
Cr       0.750000000   0.000000000   0.500000000
Cr       0.250000000   0.000000000   0.500000000
Si       0.500000000   0.500000000   0.500000000
Si       0.000000000   0.000000000   0.000000000
End final coordinates

     A final scf calculation at the relaxed structure.
     The G-vectors are recalculated for the final unit cell
     Results may differ from those at the preceding step.

     bravais-lattice index     =            0
     lattice parameter (alat)  =       8.5346  a.u.
     unit-cell volume          =    1041.5773 (a.u.)^3
     number of atoms/cell      =            8
     number of atomic types    =            2
     number of electrons       =       120.00
     number of Kohn-Sham states=           72
     kinetic-energy cutoff     =      40.0000  Ry
     charge density cutoff     =     160.0000  Ry
     convergence threshold     =      1.0E-06
     mixing beta               =       0.7000
     number of iterations used =            8  plain     mixing
     Exchange-correlation      = SLA-PZ-NOGX-NOGC ( 1 1 0 0 0)
     EXX-fraction              =        0.00

     celldm(1)=   8.534573  celldm(2)=   0.000000  celldm(3)=   0.000000
     celldm(4)=   0.000000  celldm(5)=   0.000000  celldm(6)=   0.000000

     crystal axes: (cart. coord. in units of alat)
               a(1) = (   1.187724   0.000000   0.000000 )
               a(2) = (   0.000000   1.187724   0.000000 )
               a(3) = (   0.000000   0.000000   1.187724 )

     reciprocal axes: (cart. coord. in units 2 pi/alat)
               b(1) = (  0.841947  0.000000  0.000000 )
               b(2) = (  0.000000  0.841947  0.000000 )
               b(3) = (  0.000000  0.000000  0.841947 )

     PseudoPot. # 1 for Sm read from file:
     /home/cwx6513/pp.La/Sm.UPF
     MD5 check sum: 5079e8b144a06bfcdbc14fb02b96ab09
     Pseudo is Norm-conserving, Zval = 16.0
     Generated in analytical, separable form
     Using radial grid of 1259 points,  6 beta functions with:
                l(1) =   0
                l(2) =   0
                l(3) =   1
                l(4) =   1
                l(5) =   2
                l(6) =   3

     PseudoPot. # 2 for Ce read from file:
     /home/cwx6513/pp.La/Ce.UPF
     MD5 check sum: 44451aa79a44a00cf2bc029dc19922f6
     Pseudo is Norm-conserving, Zval = 12.0
     Generated in analytical, separable form
     Using radial grid of 1255 points,  6 beta functions with:
                l(1) =   0
                l(2) =   0
                l(3) =   1
                l(4) =   1
                l(5) =   2
                l(6) =   3

     atomic species   valence    mass     pseudopotential
        Cr            16.00    51.99610     Sm( 1.00)
        Si            12.00    28.08550     Ce( 1.00)

     48 Sym. Ops., with inversion, found (24 have fractional translation)

   Cartesian axes

     site n.     atom                  positions (alat units)
         1           Cr  tau(   1) = (   0.0000000   0.5938618   0.2969309  )
         2           Cr  tau(   2) = (   0.0000000   0.5938618   0.8907927  )
         3           Cr  tau(   3) = (   0.5938618   0.8907927   0.0000000  )
         4           Cr  tau(   4) = (   0.5938618   0.2969309   0.0000000  )
         5           Cr  tau(   5) = (   0.8907927   0.0000000   0.5938618  )
         6           Cr  tau(   6) = (   0.2969309   0.0000000   0.5938618  )
         7           Si  tau(   7) = (   0.5938618   0.5938618   0.5938618  )
         8           Si  tau(   8) = (   0.0000000   0.0000000   0.0000000  )

     number of k points=    48  gaussian smearing, width (Ry)=  0.1000
                       cart. coord. in units 2pi/alat
        k(    1) = (   0.0000000   0.0000000   0.0000000), wk =   0.0095238
        k(    2) = (   0.0000000   0.0000000   0.1202781), wk =   0.0190476
        k(    3) = (   0.0000000   0.0000000   0.2405562), wk =   0.0190476
        k(    4) = (   0.0000000   0.0000000   0.3608343), wk =   0.0190476
        k(    5) = (   0.0000000   0.1403245   0.0000000), wk =   0.0190476
        k(    6) = (   0.0000000   0.1403245   0.1202781), wk =   0.0380952
        k(    7) = (   0.0000000   0.1403245   0.2405562), wk =   0.0380952
        k(    8) = (   0.0000000   0.1403245   0.3608343), wk =   0.0380952
        k(    9) = (   0.0000000   0.2806489   0.0000000), wk =   0.0190476
        k(   10) = (   0.0000000   0.2806489   0.1202781), wk =   0.0380952
        k(   11) = (   0.0000000   0.2806489   0.2405562), wk =   0.0380952
        k(   12) = (   0.0000000   0.2806489   0.3608343), wk =   0.0380952
        k(   13) = (   0.0000000  -0.4209734   0.0000000), wk =   0.0095238
        k(   14) = (   0.0000000  -0.4209734   0.1202781), wk =   0.0190476
        k(   15) = (   0.0000000  -0.4209734   0.2405562), wk =   0.0190476
        k(   16) = (   0.0000000  -0.4209734   0.3608343), wk =   0.0190476
        k(   17) = (   0.1683894   0.0000000   0.0000000), wk =   0.0190476
        k(   18) = (   0.1683894   0.0000000   0.1202781), wk =   0.0380952
        k(   19) = (   0.1683894   0.0000000   0.2405562), wk =   0.0380952
        k(   20) = (   0.1683894   0.0000000   0.3608343), wk =   0.0380952
        k(   21) = (   0.1683894   0.1403245   0.0000000), wk =   0.0380952
        k(   22) = (   0.1683894   0.1403245   0.1202781), wk =   0.0761905
        k(   23) = (   0.1683894   0.1403245   0.2405562), wk =   0.0761905
        k(   24) = (   0.1683894   0.1403245   0.3608343), wk =   0.0761905
        k(   25) = (   0.1683894   0.2806489   0.0000000), wk =   0.0380952
        k(   26) = (   0.1683894   0.2806489   0.1202781), wk =   0.0761905
        k(   27) = (   0.1683894   0.2806489   0.2405562), wk =   0.0761905
        k(   28) = (   0.1683894   0.2806489   0.3608343), wk =   0.0761905
        k(   29) = (   0.1683894  -0.4209734   0.0000000), wk =   0.0190476
        k(   30) = (   0.1683894  -0.4209734   0.1202781), wk =   0.0380952
        k(   31) = (   0.1683894  -0.4209734   0.2405562), wk =   0.0380952
        k(   32) = (   0.1683894  -0.4209734   0.3608343), wk =   0.0380952
        k(   33) = (   0.3367787   0.0000000   0.0000000), wk =   0.0190476
        k(   34) = (   0.3367787   0.0000000   0.1202781), wk =   0.0380952
        k(   35) = (   0.3367787   0.0000000   0.2405562), wk =   0.0380952
        k(   36) = (   0.3367787   0.0000000   0.3608343), wk =   0.0380952
        k(   37) = (   0.3367787   0.1403245   0.0000000), wk =   0.0380952
        k(   38) = (   0.3367787   0.1403245   0.1202781), wk =   0.0761905
        k(   39) = (   0.3367787   0.1403245   0.2405562), wk =   0.0761905
        k(   40) = (   0.3367787   0.1403245   0.3608343), wk =   0.0761905
        k(   41) = (   0.3367787   0.2806489   0.0000000), wk =   0.0380952
        k(   42) = (   0.3367787   0.2806489   0.1202781), wk =   0.0761905
        k(   43) = (   0.3367787   0.2806489   0.2405562), wk =   0.0761905
        k(   44) = (   0.3367787   0.2806489   0.3608343), wk =   0.0761905
        k(   45) = (   0.3367787  -0.4209734   0.0000000), wk =   0.0190476
        k(   46) = (   0.3367787  -0.4209734   0.1202781), wk =   0.0380952
        k(   47) = (   0.3367787  -0.4209734   0.2405562), wk =   0.0380952
        k(   48) = (   0.3367787  -0.4209734   0.3608343), wk =   0.0380952

     Largest allocated arrays     est. size (Mb)     dimensions
     Largest temporary arrays     est. size (Mb)     dimensions

     Initial potential from superposition of free atoms

     Starting from uniform charge
     Starting wfc are    0 randomized atomic wfcs

     Writing output data file Prototype-La-cP8-Cr3Si.save

     Self-consistent Calculation

[...]

     iteration # 10     ecut=    40.00 Ry     beta=0.70
     CG style diagonalization
     c_bands:  1 eigenvalues not converged
     c_bands:  1 eigenvalues not converged
     ethr =  4.27E-07,  avg # of iterations =  3.2

[...]

     total energy              =   -1063.96959649 Ry
     Harris-Foulkes estimate   =   -1063.96959749 Ry
     estimated scf accuracy    <       0.00000347 Ry

     iteration # 14     ecut=    40.00 Ry     beta=0.70
     CG style diagonalization
     ethr =  1.46E-09,  avg # of iterations =  3.4

     End of self-consistent calculation

[...]

          k = 0.3368-0.4210 0.3608 (  4464 PWs)   bands (ev):

   -33.2117 -33.1982 -33.1596 -33.1593 -33.1217 -33.1077 -13.2827 -13.2827
    -9.0059  -8.9098  -8.6671  -8.6661  -8.4685  -8.4587  -8.4564  -8.4180
    -8.2941  -8.2754  -8.2360  -8.2234  -8.1710  -8.1542  -8.1441  -8.1391
    -8.1295  -8.1274   4.6456   4.6509   4.6652   4.6654   4.6713   4.6716
    18.8919  18.9080  19.0383  19.1195  19.2266  19.2388  19.9533  19.9559
    20.0591  20.0657  20.2267  20.2498  20.3178  20.3254  20.5634  20.6723
    21.5332  21.5386  21.7178  21.8766  22.4078  22.4261  22.9728  23.0530
    23.1450  23.2168  23.5568  23.5710  23.8768  24.0432  25.6928  25.6947
    26.3548  26.3573  26.5354  26.6574  27.8753  27.9197  28.3148  28.5048

     the Fermi energy is    24.2800 ev

!    total energy              =   -1063.96959638 Ry
     Harris-Foulkes estimate   =   -1063.96959678 Ry
     estimated scf accuracy    <       0.00000044 Ry

     The total energy is the sum of the following terms:

     one-electron contribution =     -19.05526626 Ry
     hartree contribution      =     105.62610376 Ry
     xc contribution           =    -119.59892760 Ry
     ewald contribution        =   -1030.39020038 Ry
     smearing contrib. (-TS)   =      -0.55130590 Ry

     convergence has been achieved in  14 iterations

     Forces acting on atoms (Ry/au):

     atom    1 type  1   force =     0.00000000    0.00000000    0.00000000
     atom    2 type  1   force =     0.00000000    0.00000000    0.00000000
     atom    3 type  1   force =     0.00000000    0.00000000    0.00000000
     atom    4 type  1   force =     0.00000000    0.00000000    0.00000000
     atom    5 type  1   force =     0.00000000    0.00000000    0.00000000
     atom    6 type  1   force =     0.00000000    0.00000000    0.00000000
     atom    7 type  2   force =     0.00000000    0.00000000    0.00000000
     atom    8 type  2   force =     0.00000000    0.00000000    0.00000000

     Total force =     0.000000     Total SCF correction =     0.000000

     entering subroutine stress ...

          total   stress  (Ry/bohr**3)                   (kbar)     P=  279.60
   0.00190071   0.00000000   0.00000000        279.60      0.00      0.00
   0.00000000   0.00190071   0.00000000          0.00    279.60      0.00
   0.00000000   0.00000000   0.00190071          0.00      0.00    279.60

     Writing output data file Prototype-La-cP8-Cr3Si.save

     General routines

     Parallel routines

   This run was terminated on:  19: 5: 0  22Mar2018

   JOB DONE.