     Program PWSCF v.5.0.2 starts on 23Mar2018 at 10:11:41

     Current dimensions of program PWSCF are:
     Max number of different atomic species (ntypx) = 10
     Max number of k-points (npk) =  40000
     Max angular momentum in pseudopotentials (lmaxx) =  3
     Waiting for input...
     Reading input from standard input

     bravais-lattice index     =            0
     lattice parameter (alat)  =       6.7324  a.u.
     unit-cell volume          =     408.9522 (a.u.)^3
     number of atoms/cell      =            2
     number of atomic types    =            1
     number of electrons       =        46.00
     number of Kohn-Sham states=           28
     kinetic-energy cutoff     =      60.0000  Ry
     charge density cutoff     =     240.0000  Ry
     convergence threshold     =      1.0E-06
     mixing beta               =       0.7000
     number of iterations used =            8  plain     mixing
     Exchange-correlation      = SLA-PZ-NOGX-NOGC ( 1 1 0 0 0)
     EXX-fraction              =        0.00
     nstep                     =           50

     celldm(1)=   6.732424  celldm(2)=   0.000000  celldm(3)=   0.000000
     celldm(4)=   0.000000  celldm(5)=   0.000000  celldm(6)=   0.000000

     crystal axes: (cart. coord. in units of alat)
               a(1) = (   1.000000   0.000000   0.000000 )
               a(2) = (  -0.500000   0.866025   0.000000 )
               a(3) = (   0.000000   0.000000   1.547489 )

     reciprocal axes: (cart. coord. in units 2 pi/alat)
               b(1) = (  1.000000  0.577350  0.000000 )
               b(2) = (  0.000000  1.154701  0.000000 )
               b(3) = (  0.000000  0.000000  0.646208 )

     PseudoPot. # 1 for Tm read from file:
     /home/cwx6513/pp.La/Tm.UPF
     MD5 check sum: 245516e0878b5372ceeb9443ded2c4e1
     Pseudo is Norm-conserving, Zval = 23.0
     Generated in analytical, separable form
     Using radial grid of 1269 points,  6 beta functions with:
                l(1) =   0
                l(2) =   0
                l(3) =   1
                l(4) =   1
                l(5) =   2
                l(6) =   3

     atomic species   valence    mass     pseudopotential
        Tm            23.00   168.93400     Tm( 1.00)

     24 Sym. Ops., with inversion, found (12 have fractional translation)

   Cartesian axes

     site n.     atom                  positions (alat units)
         1           Tm  tau(   1) = (  -0.0000005   0.5773506   1.1606169  )
         2           Tm  tau(   2) = (   0.5000005   0.2886748   0.3868723  )

     number of k points=    64  gaussian smearing, width (Ry)=  0.1000
                       cart. coord. in units 2pi/alat
        k(    1) = (   0.0000000   0.0000000   0.0000000), wk =   0.0095238
        k(    2) = (   0.0000000   0.0000000   0.0923154), wk =   0.0190476
        k(    3) = (   0.0000000   0.0000000   0.1846309), wk =   0.0190476
        k(    4) = (   0.0000000   0.0000000   0.2769463), wk =   0.0190476
        k(    5) = (   0.0000000   0.1924501   0.0000000), wk =   0.0190476
        k(    6) = (   0.0000000   0.1924501   0.0923154), wk =   0.0380952
        k(    7) = (   0.0000000   0.1924501   0.1846309), wk =   0.0380952
        k(    8) = (   0.0000000   0.1924501   0.2769463), wk =   0.0380952
        k(    9) = (   0.0000000   0.3849002   0.0000000), wk =   0.0190476
        k(   10) = (   0.0000000   0.3849002   0.0923154), wk =   0.0380952
        k(   11) = (   0.0000000   0.3849002   0.1846309), wk =   0.0380952
        k(   12) = (   0.0000000   0.3849002   0.2769463), wk =   0.0380952
        k(   13) = (   0.0000000  -0.5773503   0.0000000), wk =   0.0095238
        k(   14) = (   0.0000000  -0.5773503   0.0923154), wk =   0.0190476
        k(   15) = (   0.0000000  -0.5773503   0.1846309), wk =   0.0190476
        k(   16) = (   0.0000000  -0.5773503   0.2769463), wk =   0.0190476
        k(   17) = (   0.2000000   0.1154701   0.0000000), wk =   0.0190476
        k(   18) = (   0.2000000   0.1154701   0.0923154), wk =   0.0380952
        k(   19) = (   0.2000000   0.1154701   0.1846309), wk =   0.0380952
        k(   20) = (   0.2000000   0.1154701   0.2769463), wk =   0.0380952
        k(   21) = (   0.2000000   0.3079201   0.0000000), wk =   0.0190476
        k(   22) = (   0.2000000   0.3079201   0.0923154), wk =   0.0380952
        k(   23) = (   0.2000000   0.3079201   0.1846309), wk =   0.0380952
        k(   24) = (   0.2000000   0.3079201   0.2769463), wk =   0.0380952
        k(   25) = (   0.2000000   0.5003702   0.0000000), wk =   0.0190476
        k(   26) = (   0.2000000   0.5003702   0.0923154), wk =   0.0380952
        k(   27) = (   0.2000000   0.5003702   0.1846309), wk =   0.0380952
        k(   28) = (   0.2000000   0.5003702   0.2769463), wk =   0.0380952
        k(   29) = (   0.2000000  -0.4618802   0.0000000), wk =   0.0190476
        k(   30) = (   0.2000000  -0.4618802   0.0923154), wk =   0.0380952
        k(   31) = (   0.2000000  -0.4618802   0.1846309), wk =   0.0380952
        k(   32) = (   0.2000000  -0.4618802   0.2769463), wk =   0.0380952
        k(   33) = (   0.2000000  -0.2694301   0.0000000), wk =   0.0190476
        k(   34) = (   0.2000000  -0.2694301   0.0923154), wk =   0.0380952
        k(   35) = (   0.2000000  -0.2694301   0.1846309), wk =   0.0380952
        k(   36) = (   0.2000000  -0.2694301   0.2769463), wk =   0.0380952
        k(   37) = (   0.2000000  -0.0769800   0.0000000), wk =   0.0190476
        k(   38) = (   0.2000000  -0.0769800   0.0923154), wk =   0.0380952
        k(   39) = (   0.2000000  -0.0769800   0.1846309), wk =   0.0380952
        k(   40) = (   0.2000000  -0.0769800   0.2769463), wk =   0.0380952
        k(   41) = (   0.4000000   0.2309401   0.0000000), wk =   0.0190476
        k(   42) = (   0.4000000   0.2309401   0.0923154), wk =   0.0380952
        k(   43) = (   0.4000000   0.2309401   0.1846309), wk =   0.0380952
        k(   44) = (   0.4000000   0.2309401   0.2769463), wk =   0.0380952
        k(   45) = (   0.4000000   0.4233902   0.0000000), wk =   0.0190476
        k(   46) = (   0.4000000   0.4233902   0.0923154), wk =   0.0380952
        k(   47) = (   0.4000000   0.4233902   0.1846309), wk =   0.0380952
        k(   48) = (   0.4000000   0.4233902   0.2769463), wk =   0.0380952
        k(   49) = (   0.4000000   0.6158403   0.0000000), wk =   0.0190476
        k(   50) = (   0.4000000   0.6158403   0.0923154), wk =   0.0380952
        k(   51) = (   0.4000000   0.6158403   0.1846309), wk =   0.0380952
        k(   52) = (   0.4000000   0.6158403   0.2769463), wk =   0.0380952
        k(   53) = (   0.4000000  -0.3464102   0.0000000), wk =   0.0190476
        k(   54) = (   0.4000000  -0.3464102   0.0923154), wk =   0.0380952
        k(   55) = (   0.4000000  -0.3464102   0.1846309), wk =   0.0380952
        k(   56) = (   0.4000000  -0.3464102   0.2769463), wk =   0.0380952
        k(   57) = (   0.4000000  -0.1539601   0.0000000), wk =   0.0190476
        k(   58) = (   0.4000000  -0.1539601   0.0923154), wk =   0.0380952
        k(   59) = (   0.4000000  -0.1539601   0.1846309), wk =   0.0380952
        k(   60) = (   0.4000000  -0.1539601   0.2769463), wk =   0.0380952
        k(   61) = (   0.4000000   0.0384900   0.0000000), wk =   0.0190476
        k(   62) = (   0.4000000   0.0384900   0.0923154), wk =   0.0380952
        k(   63) = (   0.4000000   0.0384900   0.1846309), wk =   0.0380952
        k(   64) = (   0.4000000   0.0384900   0.2769463), wk =   0.0380952

     Largest allocated arrays     est. size (Mb)     dimensions
     Largest temporary arrays     est. size (Mb)     dimensions

     Initial potential from superposition of free atoms

     Starting from uniform charge
     Starting wfc are    0 randomized atomic wfcs

     Self-consistent Calculation

     iteration #  1     ecut=    60.00 Ry     beta=0.70
     CG style diagonalization
     ethr =  1.00E-02,  avg # of iterations = 19.2

     total energy              =    -646.21443240 Ry
     Harris-Foulkes estimate   =   -1024.45323009 Ry
     estimated scf accuracy    <     471.87516839 Ry

[...]

     iteration #  6     ecut=    60.00 Ry     beta=0.70
     CG style diagonalization
     c_bands:  1 eigenvalues not converged
     c_bands:  1 eigenvalues not converged
     c_bands:  1 eigenvalues not converged
     c_bands:  1 eigenvalues not converged
     c_bands:  1 eigenvalues not converged
     c_bands:  1 eigenvalues not converged
     ethr =  5.15E-05,  avg # of iterations =  5.3

[...]

     End of self-consistent calculation

          k = 0.0000 0.0000 0.0000 (  3199 PWs)   bands (ev):

   -92.6862 -92.6854 -51.2439 -51.2178 -51.2149 -51.2149 -51.2058 -51.2058
    -1.8513  -1.7887  -1.7661  -1.7661  -1.7514  -1.7514  -1.7345  -1.7345
    -1.4618  -1.4618   5.4534  10.3161  12.7028  21.6906  21.6907  22.5417
    23.1121  23.2248  24.3531  24.3537

[...]

     the Fermi energy is    18.7224 ev

!    total energy              =    -735.64274697 Ry
     Harris-Foulkes estimate   =    -735.64274729 Ry
     estimated scf accuracy    <       0.00000036 Ry

     The total energy is the sum of the following terms:

     one-electron contribution =    -328.43172469 Ry
     hartree contribution      =     170.59874961 Ry
     xc contribution           =     -59.25813276 Ry
     ewald contribution        =    -518.46344085 Ry
     smearing contrib. (-TS)   =      -0.08819829 Ry

     convergence has been achieved in  10 iterations

     Forces acting on atoms (Ry/au):

     atom    1 type  1   force =     0.00000000    0.00000000    0.00000000
     atom    2 type  1   force =     0.00000000    0.00000000    0.00000000

     Total force =     0.000000     Total SCF correction =     0.000000

     entering subroutine stress ...

          total   stress  (Ry/bohr**3)                   (kbar)     P=  -17.88
  -0.00016724   0.00000000   0.00000000        -24.60      0.00      0.00
   0.00000000  -0.00016724   0.00000000          0.00    -24.60      0.00
   0.00000000   0.00000000  -0.00003019          0.00      0.00     -4.44

     BFGS Geometry Optimization

     number of scf cycles    =   1
     number of bfgs steps    =   0

     enthalpy new            =    -735.6427469734 Ry

     new trust radius        =       0.0169103646 bohr
     new conv_thr            =       0.0000010000 Ry

     new unit-cell volume =    405.23358 a.u.^3 (    60.04942 Ang^3 )

CELL_PARAMETERS (alat=  6.73242367)
   0.995818937   0.000000000   0.000000000
  -0.497909469   0.862404497   0.000000000
   0.000000000   0.000000000   1.546321219

ATOMIC_POSITIONS (crystal)
Tm       0.333333000   0.666667000   0.750000000
Tm       0.666667000   0.333333000   0.250000000

     Writing output data file Element-Tm.q.save
     NEW-OLD atomic charge density approx. for the potential
     NEW k-points:
        k(    1) = (   0.0000000   0.0000000   0.0000000), wk =   0.0095238
        k(    2) = (   0.0000000   0.0000000   0.0923852), wk =   0.0190476
        k(    3) = (   0.0000000   0.0000000   0.1847703), wk =   0.0190476
        k(    4) = (   0.0000000   0.0000000   0.2771555), wk =   0.0190476
[...]

[...]

     WARNING: bfgs curvature condition failed, Theta= 0.065
     new trust radius        =       0.6321582888 bohr
     new conv_thr            =       0.0000000100 Ry

[...]

     CASE: enthalpy_new < enthalpy_old

     small trust_radius: resetting bfgs history

     new trust radius        =       0.0100000000 bohr
     new conv_thr            =       0.0000000100 Ry

[...]

     number of scf cycles    =  16
     number of bfgs steps    =  15

     enthalpy old            =    -823.6803763096 Ry
     enthalpy new            =    -823.6782503681 Ry

     CASE: enthalpy_new > enthalpy_old

     new trust radius        =       0.0010751830 bohr

     trust_radius < trust_radius_min

     resetting bfgs history

     Message from routine bfgs:
     history already reset at previous step: stopping
     new conv_thr            =       0.0000000100 Ry

     new unit-cell volume =     74.24743 a.u.^3 (    11.00233 Ang^3 )

[...]

ATOMIC_POSITIONS (crystal)
Tm       0.333333000   0.666667000   0.750000000
Tm       0.666667000   0.333333000   0.250000000

     Writing output data file Element-Tm.q.save
     NEW-OLD atomic charge density approx. for the potential
     NEW k-points:
        k(    1) = (   0.0000000   0.0000000   0.0000000), wk =   0.0095238
        k(    2) = (   0.0000000   0.0000000   0.1646006), wk =   0.0190476
        k(    3) = (   0.0000000   0.0000000   0.3292013), wk =   0.0190476
        k(    4) = (   0.0000000   0.0000000   0.4938019), wk =   0.0190476
        k(    5) = (   0.0000000   0.3382479   0.0000000), wk =   0.0190476
        k(    6) = (   0.0000000   0.3382479   0.1646006), wk =   0.0380952
        k(    7) = (   0.0000000   0.3382479   0.3292013), wk =   0.0380952
        k(    8) = (   0.0000000   0.3382479   0.4938019), wk =   0.0380952
        k(    9) = (   0.0000000   0.6764958   0.0000000), wk =   0.0190476
        k(   10) = (   0.0000000   0.6764958   0.1646006), wk =   0.0380952
        k(   11) = (   0.0000000   0.6764958   0.3292013), wk =   0.0380952
        k(   12) = (   0.0000000   0.6764958   0.4938019), wk =   0.0380952
        k(   13) = (   0.0000000  -1.0147437   0.0000000), wk =   0.0095238
        k(   14) = (   0.0000000  -1.0147437   0.1646006), wk =   0.0190476
        k(   15) = (   0.0000000  -1.0147437   0.3292013), wk =   0.0190476
        k(   16) = (   0.0000000  -1.0147437   0.4938019), wk =   0.0190476
        k(   17) = (   0.3515175   0.2029487   0.0000000), wk =   0.0190476
        k(   18) = (   0.3515175   0.2029487   0.1646006), wk =   0.0380952
        k(   19) = (   0.3515175   0.2029487   0.3292013), wk =   0.0380952
        k(   20) = (   0.3515175   0.2029487   0.4938019), wk =   0.0380952
        k(   21) = (   0.3515175   0.5411966   0.0000000), wk =   0.0190476
        k(   22) = (   0.3515175   0.5411966   0.1646006), wk =   0.0380952
        k(   23) = (   0.3515175   0.5411966   0.3292013), wk =   0.0380952
        k(   24) = (   0.3515175   0.5411966   0.4938019), wk =   0.0380952
        k(   25) = (   0.3515175   0.8794445   0.0000000), wk =   0.0190476
        k(   26) = (   0.3515175   0.8794445   0.1646006), wk =   0.0380952
        k(   27) = (   0.3515175   0.8794445   0.3292013), wk =   0.0380952
        k(   28) = (   0.3515175   0.8794445   0.4938019), wk =   0.0380952
        k(   29) = (   0.3515175  -0.8117949   0.0000000), wk =   0.0190476
        k(   30) = (   0.3515175  -0.8117949   0.1646006), wk =   0.0380952
        k(   31) = (   0.3515175  -0.8117949   0.3292013), wk =   0.0380952
        k(   32) = (   0.3515175  -0.8117949   0.4938019), wk =   0.0380952
        k(   33) = (   0.3515175  -0.4735470   0.0000000), wk =   0.0190476
        k(   34) = (   0.3515175  -0.4735470   0.1646006), wk =   0.0380952
        k(   35) = (   0.3515175  -0.4735470   0.3292013), wk =   0.0380952
        k(   36) = (   0.3515175  -0.4735470   0.4938019), wk =   0.0380952
        k(   37) = (   0.3515175  -0.1352992   0.0000000), wk =   0.0190476
        k(   38) = (   0.3515175  -0.1352992   0.1646006), wk =   0.0380952
        k(   39) = (   0.3515175  -0.1352992   0.3292013), wk =   0.0380952
        k(   40) = (   0.3515175  -0.1352992   0.4938019), wk =   0.0380952
        k(   41) = (   0.7030350   0.4058975   0.0000000), wk =   0.0190476
        k(   42) = (   0.7030350   0.4058975   0.1646006), wk =   0.0380952
        k(   43) = (   0.7030350   0.4058975   0.3292013), wk =   0.0380952
        k(   44) = (   0.7030350   0.4058975   0.4938019), wk =   0.0380952
        k(   45) = (   0.7030350   0.7441453   0.0000000), wk =   0.0190476
        k(   46) = (   0.7030350   0.7441453   0.1646006), wk =   0.0380952
        k(   47) = (   0.7030350   0.7441453   0.3292013), wk =   0.0380952
        k(   48) = (   0.7030350   0.7441453   0.4938019), wk =   0.0380952
        k(   49) = (   0.7030350   1.0823932   0.0000000), wk =   0.0190476
        k(   50) = (   0.7030350   1.0823932   0.1646006), wk =   0.0380952
        k(   51) = (   0.7030350   1.0823932   0.3292013), wk =   0.0380952
        k(   52) = (   0.7030350   1.0823932   0.4938019), wk =   0.0380952
        k(   53) = (   0.7030350  -0.6088462   0.0000000), wk =   0.0190476
        k(   54) = (   0.7030350  -0.6088462   0.1646006), wk =   0.0380952
        k(   55) = (   0.7030350  -0.6088462   0.3292013), wk =   0.0380952
        k(   56) = (   0.7030350  -0.6088462   0.4938019), wk =   0.0380952
        k(   57) = (   0.7030350  -0.2705983   0.0000000), wk =   0.0190476
        k(   58) = (   0.7030350  -0.2705983   0.1646006), wk =   0.0380952
        k(   59) = (   0.7030350  -0.2705983   0.3292013), wk =   0.0380952
        k(   60) = (   0.7030350  -0.2705983   0.4938019), wk =   0.0380952
        k(   61) = (   0.7030350   0.0676496   0.0000000), wk =   0.0190476
        k(   62) = (   0.7030350   0.0676496   0.1646006), wk =   0.0380952
        k(   63) = (   0.7030350   0.0676496   0.3292013), wk =   0.0380952
        k(   64) = (   0.7030350   0.0676496   0.4938019), wk =   0.0380952

[...]

          total   stress  (Ry/bohr**3)                   (kbar)     P= 5581.38
   0.02925547   0.00000000   0.00000000       4303.63      0.00      0.00
   0.00000000   0.02925547   0.00000000          0.00   4303.63      0.00
   0.00000000   0.00000000   0.05531347          0.00      0.00   8136.89

     The maximum number of steps has been reached.

     End of BFGS Geometry Optimization
Begin final coordinates
     new unit-cell volume =     74.24743 a.u.^3 (    11.00233 Ang^3 )

CELL_PARAMETERS (alat=  6.73242367)
   0.568961697   0.000000000   0.000000000
  -0.284480848   0.492735283   0.000000000
   0.000000000   0.000000000   0.867901478

ATOMIC_POSITIONS (crystal)
Tm       0.333333000   0.666667000   0.750000000
Tm       0.666667000   0.333333000   0.250000000
End final coordinates

     A final scf calculation at the relaxed structure.
     The G-vectors are recalculated for the final unit cell
     Results may differ from those at the preceding step.

     bravais-lattice index     =            0
     lattice parameter (alat)  =       6.7324  a.u.
     unit-cell volume          =      74.2474 (a.u.)^3
     number of atoms/cell      =            2
     number of atomic types    =            1
     number of electrons       =        46.00
     number of Kohn-Sham states=           28
     kinetic-energy cutoff     =      60.0000  Ry
     charge density cutoff     =     240.0000  Ry
     convergence threshold     =      1.0E-08
     mixing beta               =       0.7000
     number of iterations used =            8  plain     mixing
     Exchange-correlation      = SLA-PZ-NOGX-NOGC ( 1 1 0 0 0)
     EXX-fraction              =        0.00

     celldm(1)=   6.732424  celldm(2)=   0.000000  celldm(3)=   0.000000
     celldm(4)=   0.000000  celldm(5)=   0.000000  celldm(6)=   0.000000

     crystal axes: (cart. coord. in units of alat)
               a(1) = (   0.568962   0.000000   0.000000 )
               a(2) = (  -0.284481   0.492735   0.000000 )
               a(3) = (   0.000000   0.000000   0.867901 )

     reciprocal axes: (cart. coord. in units 2 pi/alat)
               b(1) = (  1.757588  1.014744  0.000000 )
               b(2) = (  0.000000  2.029487  0.000000 )
               b(3) = (  0.000000  0.000000  1.152205 )

     PseudoPot. # 1 for Tm read from file:
     /home/cwx6513/pp.La/Tm.UPF
     MD5 check sum: 245516e0878b5372ceeb9443ded2c4e1
     Pseudo is Norm-conserving, Zval = 23.0
     Generated in analytical, separable form
     Using radial grid of 1269 points,  6 beta functions with:
                l(1) =   0
                l(2) =   0
                l(3) =   1
                l(4) =   1
                l(5) =   2
                l(6) =   3

     atomic species   valence    mass     pseudopotential
        Tm            23.00   168.93400     Tm( 1.00)

     24 Sym. Ops., with inversion, found (12 have fractional translation)

   Cartesian axes

     site n.     atom                  positions (alat units)
         1           Tm  tau(   1) = (  -0.0000003   0.3284904   0.6509261  )
         2           Tm  tau(   2) = (   0.2844811   0.1642449   0.2169754  )

     number of k points=    64  gaussian smearing, width (Ry)=  0.1000
                       cart. coord. in units 2pi/alat
        k(    1) = (   0.0000000   0.0000000   0.0000000), wk =   0.0095238
        k(    2) = (   0.0000000   0.0000000   0.1646006), wk =   0.0190476
        k(    3) = (   0.0000000   0.0000000   0.3292013), wk =   0.0190476
        k(    4) = (   0.0000000   0.0000000   0.4938019), wk =   0.0190476
        k(    5) = (   0.0000000   0.3382479   0.0000000), wk =   0.0190476
        k(    6) = (   0.0000000   0.3382479   0.1646006), wk =   0.0380952
        k(    7) = (   0.0000000   0.3382479   0.3292013), wk =   0.0380952
        k(    8) = (   0.0000000   0.3382479   0.4938019), wk =   0.0380952
        k(    9) = (   0.0000000   0.6764958   0.0000000), wk =   0.0190476
        k(   10) = (   0.0000000   0.6764958   0.1646006), wk =   0.0380952
        k(   11) = (   0.0000000   0.6764958   0.3292013), wk =   0.0380952
        k(   12) = (   0.0000000   0.6764958   0.4938019), wk =   0.0380952
        k(   13) = (   0.0000000  -1.0147437   0.0000000), wk =   0.0095238
        k(   14) = (   0.0000000  -1.0147437   0.1646006), wk =   0.0190476
        k(   15) = (   0.0000000  -1.0147437   0.3292013), wk =   0.0190476
        k(   16) = (   0.0000000  -1.0147437   0.4938019), wk =   0.0190476
        k(   17) = (   0.3515175   0.2029487   0.0000000), wk =   0.0190476
        k(   18) = (   0.3515175   0.2029487   0.1646006), wk =   0.0380952
        k(   19) = (   0.3515175   0.2029487   0.3292013), wk =   0.0380952
        k(   20) = (   0.3515175   0.2029487   0.4938019), wk =   0.0380952
        k(   21) = (   0.3515175   0.5411966   0.0000000), wk =   0.0190476
        k(   22) = (   0.3515175   0.5411966   0.1646006), wk =   0.0380952
        k(   23) = (   0.3515175   0.5411966   0.3292013), wk =   0.0380952
        k(   24) = (   0.3515175   0.5411966   0.4938019), wk =   0.0380952
        k(   25) = (   0.3515175   0.8794445   0.0000000), wk =   0.0190476
        k(   26) = (   0.3515175   0.8794445   0.1646006), wk =   0.0380952
        k(   27) = (   0.3515175   0.8794445   0.3292013), wk =   0.0380952
        k(   28) = (   0.3515175   0.8794445   0.4938019), wk =   0.0380952
        k(   29) = (   0.3515175  -0.8117949   0.0000000), wk =   0.0190476
        k(   30) = (   0.3515175  -0.8117949   0.1646006), wk =   0.0380952
        k(   31) = (   0.3515175  -0.8117949   0.3292013), wk =   0.0380952
        k(   32) = (   0.3515175  -0.8117949   0.4938019), wk =   0.0380952
        k(   33) = (   0.3515175  -0.4735470   0.0000000), wk =   0.0190476
        k(   34) = (   0.3515175  -0.4735470   0.1646006), wk =   0.0380952
        k(   35) = (   0.3515175  -0.4735470   0.3292013), wk =   0.0380952
        k(   36) = (   0.3515175  -0.4735470   0.4938019), wk =   0.0380952
        k(   37) = (   0.3515175  -0.1352992   0.0000000), wk =   0.0190476
        k(   38) = (   0.3515175  -0.1352992   0.1646006), wk =   0.0380952
        k(   39) = (   0.3515175  -0.1352992   0.3292013), wk =   0.0380952
        k(   40) = (   0.3515175  -0.1352992   0.4938019), wk =   0.0380952
        k(   41) = (   0.7030350   0.4058975   0.0000000), wk =   0.0190476
        k(   42) = (   0.7030350   0.4058975   0.1646006), wk =   0.0380952
        k(   43) = (   0.7030350   0.4058975   0.3292013), wk =   0.0380952
        k(   44) = (   0.7030350   0.4058975   0.4938019), wk =   0.0380952
        k(   45) = (   0.7030350   0.7441453   0.0000000), wk =   0.0190476
        k(   46) = (   0.7030350   0.7441453   0.1646006), wk =   0.0380952
        k(   47) = (   0.7030350   0.7441453   0.3292013), wk =   0.0380952
        k(   48) = (   0.7030350   0.7441453   0.4938019), wk =   0.0380952
        k(   49) = (   0.7030350   1.0823932   0.0000000), wk =   0.0190476
        k(   50) = (   0.7030350   1.0823932   0.1646006), wk =   0.0380952
        k(   51) = (   0.7030350   1.0823932   0.3292013), wk =   0.0380952
        k(   52) = (   0.7030350   1.0823932   0.4938019), wk =   0.0380952
        k(   53) = (   0.7030350  -0.6088462   0.0000000), wk =   0.0190476
        k(   54) = (   0.7030350  -0.6088462   0.1646006), wk =   0.0380952
        k(   55) = (   0.7030350  -0.6088462   0.3292013), wk =   0.0380952
        k(   56) = (   0.7030350  -0.6088462   0.4938019), wk =   0.0380952
        k(   57) = (   0.7030350  -0.2705983   0.0000000), wk =   0.0190476
        k(   58) = (   0.7030350  -0.2705983   0.1646006), wk =   0.0380952
        k(   59) = (   0.7030350  -0.2705983   0.3292013), wk =   0.0380952
        k(   60) = (   0.7030350  -0.2705983   0.4938019), wk =   0.0380952
        k(   61) = (   0.7030350   0.0676496   0.0000000), wk =   0.0190476
        k(   62) = (   0.7030350   0.0676496   0.1646006), wk =   0.0380952
        k(   63) = (   0.7030350   0.0676496   0.3292013), wk =   0.0380952
        k(   64) = (   0.7030350   0.0676496   0.4938019), wk =   0.0380952

     Largest allocated arrays     est. size (Mb)     dimensions
     Largest temporary arrays     est. size (Mb)     dimensions

     Initial potential from superposition of free atoms

     Starting from uniform charge
     Starting wfc are    0 randomized atomic wfcs

     Writing output data file Element-Tm.q.save

     Self-consistent Calculation

[...]

     iteration #  3     ecut=    60.00 Ry     beta=0.70
     CG style diagonalization
     ethr =  1.00E-02,  avg # of iterations =  4.2

[...]

     total energy              =    -722.34859938 Ry
     Harris-Foulkes estimate   =    -722.34859944 Ry
     estimated scf accuracy    <       0.00000009 Ry

     iteration #  9     ecut=    60.00 Ry     beta=0.70
     CG style diagonalization
     c_bands:  1 eigenvalues not converged
     ethr =  1.94E-10,  avg # of iterations =  4.5

     End of self-consistent calculation

[...]

          k = 0.7030 0.0676 0.4938 (   581 PWs)   bands (ev):

   -10.7338 -10.1449  23.5474  24.3447  29.1081  29.7616  31.6106  32.8853
    65.1437  65.8534  69.1753  71.4802  73.1642  74.3716  74.9721  77.9128
    86.6473  87.5592  94.3156  96.9665  97.9239 100.4725 103.0823 103.9246
   104.8978 105.3489 106.1235 108.8958

     the Fermi energy is   102.0198 ev

!    total energy              =    -722.34859945 Ry
     Harris-Foulkes estimate   =    -722.34859945 Ry
     estimated scf accuracy    <          1.9E-09 Ry

     The total energy is the sum of the following terms:

     one-electron contribution =     230.87023614 Ry
     hartree contribution      =      32.08512952 Ry
     xc contribution           =     -69.80906916 Ry
     ewald contribution        =    -915.41282825 Ry
     smearing contrib. (-TS)   =      -0.08206769 Ry

     convergence has been achieved in   9 iterations

     Forces acting on atoms (Ry/au):

     atom    1 type  1   force =     0.00000000    0.00000000    0.00000000
     atom    2 type  1   force =     0.00000000    0.00000000    0.00000000

     Total force =     0.000000     Total SCF correction =     0.000000

     entering subroutine stress ...

          total   stress  (Ry/bohr**3)                   (kbar)     P=25397.45
   0.15662931   0.00000000   0.00000000      23040.96      0.00      0.00
   0.00000000   0.15662931   0.00000000          0.00  23040.96      0.00
   0.00000000   0.00000000   0.20468646          0.00      0.00  30110.41

     Writing output data file Element-Tm.q.save

     General routines

     Parallel routines

   This run was terminated on:  10:31:16  23Mar2018

   JOB DONE.