     Program PWSCF v.5.0.2 starts on 21Mar2018 at 22:59: 7

     Current dimensions of program PWSCF are:
     Max number of different atomic species (ntypx) = 10
     Max number of k-points (npk) =  40000
     Max angular momentum in pseudopotentials (lmaxx) =  3
     Waiting for input...
     Reading input from standard input

     bravais-lattice index     =            0
     lattice parameter (alat)  =       6.7790  a.u.
     unit-cell volume          =     417.0796 (a.u.)^3
     number of atoms/cell      =            2
     number of atomic types    =            1
     number of electrons       =        44.00
     number of Kohn-Sham states=           26
     kinetic-energy cutoff     =      40.0000  Ry
     charge density cutoff     =     160.0000  Ry
     convergence threshold     =      1.0E-04
     mixing beta               =       0.7000
     number of iterations used =            8  plain     mixing
     Exchange-correlation      = SLA-PZ-NOGX-NOGC ( 1 1 0 0 0)
     EXX-fraction              =        0.00
     nstep                     =           50

     celldm(1)=   6.779024  celldm(2)=   0.000000  celldm(3)=   0.000000
     celldm(4)=   0.000000  celldm(5)=   0.000000  celldm(6)=   0.000000

     crystal axes: (cart. coord. in units of alat)
               a(1) = (   1.000000   0.000000   0.000000 )
               a(2) = (  -0.500000   0.866025   0.000000 )
               a(3) = (   0.000000   0.000000   1.545919 )

     reciprocal axes: (cart. coord. in units 2 pi/alat)
               b(1) = (  1.000000  0.577350  0.000000 )
               b(2) = (  0.000000  1.154701  0.000000 )
               b(3) = (  0.000000  0.000000  0.646864 )

     PseudoPot. # 1 for Er read from file:
     /home/cwx6513/pp.La/Er.UPF
     MD5 check sum: e152ae21b84514339d8526f066caf99b
     Pseudo is Norm-conserving, Zval = 22.0
     Generated in analytical, separable form
     Using radial grid of 1267 points,  6 beta functions with:
                l(1) =   0
                l(2) =   0
                l(3) =   1
                l(4) =   1
                l(5) =   2
                l(6) =   3

     atomic species   valence    mass     pseudopotential
        Er            22.00   167.25900     Er( 1.00)

     12 Sym. Ops., with inversion, found
          (note: 12 additional sym.ops. were found but ignored
           their fractional translations are incommensurate with FFT grid)

   Cartesian axes

     site n.     atom                  positions (alat units)
         1           Er  tau(   1) = (  -0.0000005   0.5773506   0.3864798  )
         2           Er  tau(   2) = (   0.5000005   0.2886748   1.1594394  )

     number of k points=   106  gaussian smearing, width (Ry)=  0.1000

     Number of k-points >= 100: set verbosity='high' to print them.

     Largest allocated arrays     est. size (Mb)     dimensions
     Largest temporary arrays     est. size (Mb)     dimensions

     Initial potential from superposition of free atoms

     Starting from uniform charge
     Starting wfc are    0 randomized atomic wfcs

     Self-consistent Calculation

     iteration #  1     ecut=    40.00 Ry     beta=0.70
     CG style diagonalization
     ethr =  1.00E-02,  avg # of iterations = 12.3

     total energy              =    -583.65356106 Ry
     Harris-Foulkes estimate   =    -875.46539201 Ry
     estimated scf accuracy    <     370.57743686 Ry

[...]

     End of self-consistent calculation

     Number of k-points >= 100: set verbosity='high' to print the bands.

     the Fermi energy is    17.5102 ev

!    total energy              =    -658.72968596 Ry
     Harris-Foulkes estimate   =    -658.72969775 Ry
     estimated scf accuracy    <       0.00001722 Ry

     The total energy is the sum of the following terms:

     one-electron contribution =    -282.54656377 Ry
     hartree contribution      =     150.23506000 Ry
     xc contribution           =     -55.09077918 Ry
     ewald contribution        =    -471.25152318 Ry
     smearing contrib. (-TS)   =      -0.07587983 Ry

     convergence has been achieved in  10 iterations

     Forces acting on atoms (Ry/au):

     atom    1 type  1   force =     0.00000000    0.00000000   -0.01046411
     atom    2 type  1   force =     0.00000000    0.00000000    0.01046411

     Total force =     0.014798     Total SCF correction =     0.000000

     entering subroutine stress ...

          total   stress  (Ry/bohr**3)                   (kbar)     P= -521.18
  -0.00362023   0.00000000   0.00000000       -532.55      0.00      0.00
   0.00000000  -0.00362023   0.00000000          0.00   -532.55      0.00
   0.00000000   0.00000000  -0.00338833          0.00      0.00   -498.44

     BFGS Geometry Optimization

     number of scf cycles    =   1
     number of bfgs steps    =   0

     enthalpy new            =    -658.7296859634 Ry

     new trust radius        =       0.3696716897 bohr
     new conv_thr            =       0.0001000000 Ry

     new unit-cell volume =    315.77539 a.u.^3 (    46.79308 Ang^3 )

CELL_PARAMETERS (alat=  6.77902392)
   0.909494130   0.000000000   0.000000000
  -0.454747065   0.787645021   0.000000000
   0.000000000   0.000000000   1.414967102

ATOMIC_POSITIONS (crystal)
Er       0.333333000   0.666667000   0.249001499
Er       0.666667000   0.333333000   0.750998501

     Writing output data file Element-Er.q.save
     NEW-OLD atomic charge density approx. for the potential
     NEW k-points: (use verbosity='high' to print them)

[...]

     iteration #  1     ecut=    40.00 Ry     beta=0.70
     CG style diagonalization
     c_bands:  5 eigenvalues not converged
     c_bands:  4 eigenvalues not converged
     c_bands:  2 eigenvalues not converged
     c_bands:  5 eigenvalues not converged
     c_bands:  4 eigenvalues not converged
     c_bands:  4 eigenvalues not converged
     ethr =  1.00E-06,  avg # of iterations = 20.5

[...]

     enthalpy old            =    -658.7296859634 Ry
     enthalpy new            =    -658.8973464993 Ry

     CASE: enthalpy_new < enthalpy_old

     small trust_radius: resetting bfgs history

[...]

     number of scf cycles    =   3
     number of bfgs steps    =   2

     enthalpy old            =    -658.8973464993 Ry
     enthalpy new            =    -658.8994516020 Ry

     CASE: enthalpy_new < enthalpy_old

     Message from routine bfgs:
     history already reset at previous step: stopping
     small trust_radius: resetting bfgs history

     new trust radius        =       0.0788515551 bohr
     new conv_thr            =       0.0000210510 Ry

     new unit-cell volume =    326.61031 a.u.^3 (    48.39865 Ang^3 )

[...]

ATOMIC_POSITIONS (crystal)
Er       0.333333000   0.666667000   0.251603088
Er       0.666667000   0.333333000   0.748396912

     Writing output data file Element-Er.q.save
     NEW-OLD atomic charge density approx. for the potential
     NEW k-points: (use verbosity='high' to print them)

[...]

     The maximum number of steps has been reached.

     End of BFGS Geometry Optimization
Begin final coordinates
     new unit-cell volume =    326.61031 a.u.^3 (    48.39865 Ang^3 )

CELL_PARAMETERS (alat=  6.77902392)
   0.915850515   0.000000000   0.000000000
  -0.457925257   0.793149812   0.000000000
   0.000000000   0.000000000   1.443273292

ATOMIC_POSITIONS (crystal)
Er       0.333333000   0.666667000   0.251603088
Er       0.666667000   0.333333000   0.748396912
End final coordinates

     A final scf calculation at the relaxed structure.
     The G-vectors are recalculated for the final unit cell
     Results may differ from those at the preceding step.

     bravais-lattice index     =            0
     lattice parameter (alat)  =       6.7790  a.u.
     unit-cell volume          =     326.6103 (a.u.)^3
     number of atoms/cell      =            2
     number of atomic types    =            1
     number of electrons       =        44.00
     number of Kohn-Sham states=           26
     kinetic-energy cutoff     =      40.0000  Ry
     charge density cutoff     =     160.0000  Ry
     convergence threshold     =      2.1E-05
     mixing beta               =       0.7000
     number of iterations used =            8  plain     mixing
     Exchange-correlation      = SLA-PZ-NOGX-NOGC ( 1 1 0 0 0)
     EXX-fraction              =        0.00

     celldm(1)=   6.779024  celldm(2)=   0.000000  celldm(3)=   0.000000
     celldm(4)=   0.000000  celldm(5)=   0.000000  celldm(6)=   0.000000

     crystal axes: (cart. coord. in units of alat)
               a(1) = (   0.915851   0.000000   0.000000 )
               a(2) = (  -0.457925   0.793150   0.000000 )
               a(3) = (   0.000000   0.000000   1.443273 )

     reciprocal axes: (cart. coord. in units 2 pi/alat)
               b(1) = (  1.091881  0.630398  0.000000 )
               b(2) = (  0.000000  1.260796  0.000000 )
               b(3) = (  0.000000  0.000000  0.692869 )

     PseudoPot. # 1 for Er read from file:
     /home/cwx6513/pp.La/Er.UPF
     MD5 check sum: e152ae21b84514339d8526f066caf99b
     Pseudo is Norm-conserving, Zval = 22.0
     Generated in analytical, separable form
     Using radial grid of 1267 points,  6 beta functions with:
                l(1) =   0
                l(2) =   0
                l(3) =   1
                l(4) =   1
                l(5) =   2
                l(6) =   3

     atomic species   valence    mass     pseudopotential
        Er            22.00   167.25900     Er( 1.00)

     12 Sym. Ops., with inversion, found
          (note: 12 additional sym.ops. were found but ignored
           their fractional translations are incommensurate with FFT grid)

   Cartesian axes

     site n.     atom                  positions (alat units)
         1           Er  tau(   1) = (  -0.0000005   0.5287668   0.3631320  )
         2           Er  tau(   2) = (   0.4579257   0.2643830   1.0801413  )

     number of k points=   106  gaussian smearing, width (Ry)=  0.1000

     Number of k-points >= 100: set verbosity='high' to print them.

     Largest allocated arrays     est. size (Mb)     dimensions
     Largest temporary arrays     est. size (Mb)     dimensions

     Initial potential from superposition of free atoms

     Starting from uniform charge
     Starting wfc are    0 randomized atomic wfcs

     Writing output data file Element-Er.q.save

     Self-consistent Calculation

[...]

     iteration #  8     ecut=    40.00 Ry     beta=0.70
     CG style diagonalization
     c_bands:  1 eigenvalues not converged
     c_bands:  1 eigenvalues not converged
     c_bands:  1 eigenvalues not converged
     ethr =  1.01E-07,  avg # of iterations =  4.7

     total energy              =    -658.56142491 Ry
     Harris-Foulkes estimate   =    -658.56144419 Ry
     estimated scf accuracy    <       0.00002684 Ry

     iteration #  9     ecut=    40.00 Ry     beta=0.70
     CG style diagonalization
     ethr =  6.10E-08,  avg # of iterations =  3.7

     End of self-consistent calculation

     Number of k-points >= 100: set verbosity='high' to print the bands.

     the Fermi energy is    23.6317 ev

!    total energy              =    -658.56143261 Ry
     Harris-Foulkes estimate   =    -658.56143339 Ry
     estimated scf accuracy    <       0.00000096 Ry

     The total energy is the sum of the following terms:

     one-electron contribution =    -219.58542801 Ry
     hartree contribution      =     128.00705003 Ry
     xc contribution           =     -55.54846076 Ry
     ewald contribution        =    -511.37116206 Ry
     smearing contrib. (-TS)   =      -0.06343181 Ry

     convergence has been achieved in   9 iterations

     Forces acting on atoms (Ry/au):

     atom    1 type  1   force =     0.00000000    0.00000000   -0.00996005
     atom    2 type  1   force =     0.00000000    0.00000000    0.00996005

     Total force =     0.014086     Total SCF correction =     0.000000

     entering subroutine stress ...

          total   stress  (Ry/bohr**3)                   (kbar)     P= -332.87
  -0.00236883   0.00000000   0.00000000       -348.47      0.00      0.00
   0.00000000  -0.00236883   0.00000000          0.00   -348.47      0.00
   0.00000000   0.00000000  -0.00205081          0.00      0.00   -301.68

     Writing output data file Element-Er.q.save

     General routines

     Parallel routines

   This run was terminated on:  23: 2:23  21Mar2018

   JOB DONE.