     Program PWSCF v.5.0.2 starts on 22Mar2018 at 22:45:51

     Current dimensions of program PWSCF are:
     Max number of different atomic species (ntypx) = 10
     Max number of k-points (npk) =  40000
     Max angular momentum in pseudopotentials (lmaxx) =  3
     Waiting for input...
     Reading input from standard input

     Subspace diagonalization in iterative solution of the eigenvalue problem:
     a serial algorithm will be used

     bravais-lattice index     =            0
     lattice parameter (alat)  =       8.5346  a.u.
     unit-cell volume          =     621.6493 (a.u.)^3
     number of atoms/cell      =            8
     number of atomic types    =            2
     number of electrons       =       148.00
     number of Kohn-Sham states=           89
     kinetic-energy cutoff     =      40.0000  Ry
     charge density cutoff     =     160.0000  Ry
     convergence threshold     =      1.0E-04
     mixing beta               =       0.7000
     number of iterations used =            8  plain     mixing
     Exchange-correlation      = SLA-PZ-NOGX-NOGC ( 1 1 0 0 0)
     EXX-fraction              =        0.00
     nstep                     =           50

     celldm(1)=   8.534573  celldm(2)=   0.000000  celldm(3)=   0.000000
     celldm(4)=   0.000000  celldm(5)=   0.000000  celldm(6)=   0.000000

     crystal axes: (cart. coord. in units of alat)
               a(1) = (   1.000000   0.000000   0.000000 )
               a(2) = (   0.000000   1.000000   0.000000 )
               a(3) = (   0.000000   0.000000   1.000000 )

     reciprocal axes: (cart. coord. in units 2 pi/alat)
               b(1) = (  1.000000  0.000000  0.000000 )
               b(2) = (  0.000000  1.000000  0.000000 )
               b(3) = (  0.000000  0.000000  1.000000 )

     PseudoPot. # 1 for Gd read from file:
     /home/cwx6513/pp.La/Gd.UPF
     MD5 check sum: 09a8be538722f05520810cb6aac0efd2
     Pseudo is Norm-conserving, Zval = 18.0
     Generated in analytical, separable form
     Using radial grid of 1263 points,  6 beta functions with:
                l(1) =   0
                l(2) =   0
                l(3) =   1
                l(4) =   1
                l(5) =   2
                l(6) =   3

     PseudoPot. # 2 for Dy read from file:
     /home/cwx6513/pp.La/Dy.UPF
     MD5 check sum: 9597327bec62616a94a14d07f3fd9936
     Pseudo is Norm-conserving, Zval = 20.0
     Generated in analytical, separable form
     Using radial grid of 1265 points,  6 beta functions with:
                l(1) =   0
                l(2) =   0
                l(3) =   1
                l(4) =   1
                l(5) =   2
                l(6) =   3

     atomic species   valence    mass     pseudopotential
        Cr            18.00    51.99610     Gd( 1.00)
        Si            20.00    28.08550     Dy( 1.00)

     48 Sym. Ops., with inversion, found (24 have fractional translation)

   Cartesian axes

     site n.     atom                  positions (alat units)
         1           Cr  tau(   1) = (   0.0000000   0.5000000   0.2500000  )
         2           Cr  tau(   2) = (   0.0000000   0.5000000   0.7500000  )
         3           Cr  tau(   3) = (   0.5000000   0.7500000   0.0000000  )
         4           Cr  tau(   4) = (   0.5000000   0.2500000   0.0000000  )
         5           Cr  tau(   5) = (   0.7500000   0.0000000   0.5000000  )
         6           Cr  tau(   6) = (   0.2500000   0.0000000   0.5000000  )
         7           Si  tau(   7) = (   0.5000000   0.5000000   0.5000000  )
         8           Si  tau(   8) = (   0.0000000   0.0000000   0.0000000  )

     number of k points=    48  gaussian smearing, width (Ry)=  0.1000
                       cart. coord. in units 2pi/alat
        k(    1) = (   0.0000000   0.0000000   0.0000000), wk =   0.0095238
        k(    2) = (   0.0000000   0.0000000   0.1428571), wk =   0.0190476
        k(    3) = (   0.0000000   0.0000000   0.2857143), wk =   0.0190476
        k(    4) = (   0.0000000   0.0000000   0.4285714), wk =   0.0190476
        k(    5) = (   0.0000000   0.1666667   0.0000000), wk =   0.0190476
        k(    6) = (   0.0000000   0.1666667   0.1428571), wk =   0.0380952
        k(    7) = (   0.0000000   0.1666667   0.2857143), wk =   0.0380952
        k(    8) = (   0.0000000   0.1666667   0.4285714), wk =   0.0380952
        k(    9) = (   0.0000000   0.3333333   0.0000000), wk =   0.0190476
        k(   10) = (   0.0000000   0.3333333   0.1428571), wk =   0.0380952
        k(   11) = (   0.0000000   0.3333333   0.2857143), wk =   0.0380952
        k(   12) = (   0.0000000   0.3333333   0.4285714), wk =   0.0380952
        k(   13) = (   0.0000000  -0.5000000   0.0000000), wk =   0.0095238
        k(   14) = (   0.0000000  -0.5000000   0.1428571), wk =   0.0190476
        k(   15) = (   0.0000000  -0.5000000   0.2857143), wk =   0.0190476
        k(   16) = (   0.0000000  -0.5000000   0.4285714), wk =   0.0190476
        k(   17) = (   0.2000000   0.0000000   0.0000000), wk =   0.0190476
        k(   18) = (   0.2000000   0.0000000   0.1428571), wk =   0.0380952
        k(   19) = (   0.2000000   0.0000000   0.2857143), wk =   0.0380952
        k(   20) = (   0.2000000   0.0000000   0.4285714), wk =   0.0380952
        k(   21) = (   0.2000000   0.1666667   0.0000000), wk =   0.0380952
        k(   22) = (   0.2000000   0.1666667   0.1428571), wk =   0.0761905
        k(   23) = (   0.2000000   0.1666667   0.2857143), wk =   0.0761905
        k(   24) = (   0.2000000   0.1666667   0.4285714), wk =   0.0761905
        k(   25) = (   0.2000000   0.3333333   0.0000000), wk =   0.0380952
        k(   26) = (   0.2000000   0.3333333   0.1428571), wk =   0.0761905
        k(   27) = (   0.2000000   0.3333333   0.2857143), wk =   0.0761905
        k(   28) = (   0.2000000   0.3333333   0.4285714), wk =   0.0761905
        k(   29) = (   0.2000000  -0.5000000   0.0000000), wk =   0.0190476
        k(   30) = (   0.2000000  -0.5000000   0.1428571), wk =   0.0380952
        k(   31) = (   0.2000000  -0.5000000   0.2857143), wk =   0.0380952
        k(   32) = (   0.2000000  -0.5000000   0.4285714), wk =   0.0380952
        k(   33) = (   0.4000000   0.0000000   0.0000000), wk =   0.0190476
        k(   34) = (   0.4000000   0.0000000   0.1428571), wk =   0.0380952
        k(   35) = (   0.4000000   0.0000000   0.2857143), wk =   0.0380952
        k(   36) = (   0.4000000   0.0000000   0.4285714), wk =   0.0380952
        k(   37) = (   0.4000000   0.1666667   0.0000000), wk =   0.0380952
        k(   38) = (   0.4000000   0.1666667   0.1428571), wk =   0.0761905
        k(   39) = (   0.4000000   0.1666667   0.2857143), wk =   0.0761905
        k(   40) = (   0.4000000   0.1666667   0.4285714), wk =   0.0761905
        k(   41) = (   0.4000000   0.3333333   0.0000000), wk =   0.0380952
        k(   42) = (   0.4000000   0.3333333   0.1428571), wk =   0.0761905
        k(   43) = (   0.4000000   0.3333333   0.2857143), wk =   0.0761905
        k(   44) = (   0.4000000   0.3333333   0.4285714), wk =   0.0761905
        k(   45) = (   0.4000000  -0.5000000   0.0000000), wk =   0.0190476
        k(   46) = (   0.4000000  -0.5000000   0.1428571), wk =   0.0380952
        k(   47) = (   0.4000000  -0.5000000   0.2857143), wk =   0.0380952
        k(   48) = (   0.4000000  -0.5000000   0.4285714), wk =   0.0380952

     Largest allocated arrays     est. size (Mb)     dimensions
     Largest temporary arrays     est. size (Mb)     dimensions

     Initial potential from superposition of free atoms

     Starting from uniform charge
     Starting wfc are    0 randomized atomic wfcs

     Self-consistent Calculation

     iteration #  1     ecut=    40.00 Ry     beta=0.70
     CG style diagonalization
     c_bands:  1 eigenvalues not converged
     c_bands:  1 eigenvalues not converged
     c_bands:  1 eigenvalues not converged
     c_bands:  1 eigenvalues not converged
     c_bands:  1 eigenvalues not converged
     ethr =  1.00E-02,  avg # of iterations = 11.5

     total energy              =   -1623.44636185 Ry
     Harris-Foulkes estimate   =   -1904.31015264 Ry
     estimated scf accuracy    <     370.98208391 Ry

[...]

     iteration #  3     ecut=    40.00 Ry     beta=0.70
     CG style diagonalization
     ethr =  1.00E-02,  avg # of iterations =  3.8

[...]

     End of self-consistent calculation

          k = 0.0000 0.0000 0.0000 (  2601 PWs)   bands (ev):

   -39.3044 -39.2880 -25.4238 -25.0873 -25.0873 -24.0979 -24.0979 -24.0979
    -6.7053  -6.7053  -6.7053  -6.6431  -6.6431  -6.6431   0.3653   0.3653
     0.9209   3.0129   3.0129   3.0129   4.1623   4.1623   4.1623   4.4366
     4.4366   4.4366   4.6696   4.6696   4.6696   6.5717   6.5717   6.5717
    30.7800  30.7800  31.7698  32.1935  32.1935  32.1935  32.3886  32.3886
    32.3886  33.1442  33.1442  33.4323  33.5912  33.5912  33.5912  33.6243
    34.3023  34.7317  34.7317  34.9922  34.9922  34.9922  39.1726  39.1726
    39.1726  39.5750  39.5750  40.2044  40.2044  40.2044  40.6426  40.6426
    40.6426  43.2752  43.2752  44.3596  44.3596  44.3596  45.3926  45.3926
    45.3926  49.5230  49.5967  49.5967  49.5967  51.5255  51.5255  51.5255
    52.1220  52.1220  53.6821  53.6821  53.6822  53.7257  56.0397  56.0398
    56.0399

[...]

     the Fermi energy is    46.3833 ev

!    total energy              =   -1723.13688482 Ry
     Harris-Foulkes estimate   =   -1723.13688570 Ry
     estimated scf accuracy    <       0.00000132 Ry

     The total energy is the sum of the following terms:

     one-electron contribution =     175.78610702 Ry
     hartree contribution      =     129.33768564 Ry
     xc contribution           =    -177.08014989 Ry
     ewald contribution        =   -1851.03594939 Ry
     smearing contrib. (-TS)   =      -0.14457820 Ry

     convergence has been achieved in   8 iterations

     Forces acting on atoms (Ry/au):

     atom    1 type  1   force =     0.00000000    0.00000000    0.00000000
     atom    2 type  1   force =     0.00000000    0.00000000    0.00000000
     atom    3 type  1   force =     0.00000000    0.00000000    0.00000000
     atom    4 type  1   force =     0.00000000    0.00000000    0.00000000
     atom    5 type  1   force =     0.00000000    0.00000000    0.00000000
     atom    6 type  1   force =     0.00000000    0.00000000    0.00000000
     atom    7 type  2   force =     0.00000000    0.00000000    0.00000000
     atom    8 type  2   force =     0.00000000    0.00000000    0.00000000

     Total force =     0.000000     Total SCF correction =     0.000000

     entering subroutine stress ...

          total   stress  (Ry/bohr**3)                   (kbar)     P= 5052.62
   0.03434700   0.00000000   0.00000000       5052.62      0.00      0.00
   0.00000000   0.03434700   0.00000000          0.00   5052.62      0.00
   0.00000000   0.00000000   0.03434700          0.00      0.00   5052.62

     BFGS Geometry Optimization

     number of scf cycles    =   1
     number of bfgs steps    =   0

     enthalpy new            =   -1723.1368848236 Ry

     new trust radius        =       0.5000000000 bohr
[...]

     CASE: enthalpy_new < enthalpy_old

     small trust_radius: resetting bfgs history

     new trust radius        =       0.5898620900 bohr
     new conv_thr            =       0.0000010000 Ry

[...]

          total   stress  (Ry/bohr**3)                   (kbar)     P=-1048.40
  -0.00712688   0.00000000   0.00000000      -1048.40      0.00      0.00
   0.00000000  -0.00712688   0.00000000          0.00  -1048.40      0.00
   0.00000000   0.00000000  -0.00712688          0.00      0.00  -1048.40

     number of scf cycles    =   3
     number of bfgs steps    =   2

     enthalpy old            =   -1726.4948780461 Ry
     enthalpy new            =   -1725.6817290597 Ry

     CASE: enthalpy_new > enthalpy_old

     new trust radius        =       0.1740716837 bohr

     trust_radius < trust_radius_min

     resetting bfgs history

     Message from routine bfgs:
     history already reset at previous step: stopping
     new conv_thr            =       0.0000010000 Ry

     new unit-cell volume =   1051.03761 a.u.^3 (   155.74770 Ang^3 )

[...]

ATOMIC_POSITIONS (crystal)
Cr       0.000000000   0.500000000   0.250000000
Cr       0.000000000   0.500000000   0.750000000
Cr       0.500000000   0.750000000   0.000000000
Cr       0.500000000   0.250000000   0.000000000
Cr       0.750000000   0.000000000   0.500000000
Cr       0.250000000   0.000000000   0.500000000
Si       0.500000000   0.500000000   0.500000000
Si       0.000000000   0.000000000   0.000000000

     Writing output data file Prototype-La-cP8-Cr3Si.save
     NEW-OLD atomic charge density approx. for the potential
     NEW k-points:
        k(    1) = (   0.0000000   0.0000000   0.0000000), wk =   0.0095238
        k(    2) = (   0.0000000   0.0000000   0.1199162), wk =   0.0190476
        k(    3) = (   0.0000000   0.0000000   0.2398323), wk =   0.0190476
        k(    4) = (   0.0000000   0.0000000   0.3597485), wk =   0.0190476
        k(    5) = (   0.0000000   0.1399022   0.0000000), wk =   0.0190476
        k(    6) = (   0.0000000   0.1399022   0.1199162), wk =   0.0380952
        k(    7) = (   0.0000000   0.1399022   0.2398323), wk =   0.0380952
        k(    8) = (   0.0000000   0.1399022   0.3597485), wk =   0.0380952
        k(    9) = (   0.0000000   0.2798044   0.0000000), wk =   0.0190476
        k(   10) = (   0.0000000   0.2798044   0.1199162), wk =   0.0380952
        k(   11) = (   0.0000000   0.2798044   0.2398323), wk =   0.0380952
        k(   12) = (   0.0000000   0.2798044   0.3597485), wk =   0.0380952
        k(   13) = (   0.0000000  -0.4197065   0.0000000), wk =   0.0095238
        k(   14) = (   0.0000000  -0.4197065   0.1199162), wk =   0.0190476
        k(   15) = (   0.0000000  -0.4197065   0.2398323), wk =   0.0190476
        k(   16) = (   0.0000000  -0.4197065   0.3597485), wk =   0.0190476
        k(   17) = (   0.1678826   0.0000000   0.0000000), wk =   0.0190476
        k(   18) = (   0.1678826   0.0000000   0.1199162), wk =   0.0380952
        k(   19) = (   0.1678826   0.0000000   0.2398323), wk =   0.0380952
        k(   20) = (   0.1678826   0.0000000   0.3597485), wk =   0.0380952
        k(   21) = (   0.1678826   0.1399022   0.0000000), wk =   0.0380952
        k(   22) = (   0.1678826   0.1399022   0.1199162), wk =   0.0761905
        k(   23) = (   0.1678826   0.1399022   0.2398323), wk =   0.0761905
        k(   24) = (   0.1678826   0.1399022   0.3597485), wk =   0.0761905
        k(   25) = (   0.1678826   0.2798044   0.0000000), wk =   0.0380952
        k(   26) = (   0.1678826   0.2798044   0.1199162), wk =   0.0761905
        k(   27) = (   0.1678826   0.2798044   0.2398323), wk =   0.0761905
        k(   28) = (   0.1678826   0.2798044   0.3597485), wk =   0.0761905
        k(   29) = (   0.1678826  -0.4197065   0.0000000), wk =   0.0190476
        k(   30) = (   0.1678826  -0.4197065   0.1199162), wk =   0.0380952
        k(   31) = (   0.1678826  -0.4197065   0.2398323), wk =   0.0380952
        k(   32) = (   0.1678826  -0.4197065   0.3597485), wk =   0.0380952
        k(   33) = (   0.3357652   0.0000000   0.0000000), wk =   0.0190476
        k(   34) = (   0.3357652   0.0000000   0.1199162), wk =   0.0380952
        k(   35) = (   0.3357652   0.0000000   0.2398323), wk =   0.0380952
        k(   36) = (   0.3357652   0.0000000   0.3597485), wk =   0.0380952
        k(   37) = (   0.3357652   0.1399022   0.0000000), wk =   0.0380952
        k(   38) = (   0.3357652   0.1399022   0.1199162), wk =   0.0761905
        k(   39) = (   0.3357652   0.1399022   0.2398323), wk =   0.0761905
        k(   40) = (   0.3357652   0.1399022   0.3597485), wk =   0.0761905
        k(   41) = (   0.3357652   0.2798044   0.0000000), wk =   0.0380952
        k(   42) = (   0.3357652   0.2798044   0.1199162), wk =   0.0761905
        k(   43) = (   0.3357652   0.2798044   0.2398323), wk =   0.0761905
        k(   44) = (   0.3357652   0.2798044   0.3597485), wk =   0.0761905
        k(   45) = (   0.3357652  -0.4197065   0.0000000), wk =   0.0190476
        k(   46) = (   0.3357652  -0.4197065   0.1199162), wk =   0.0380952
        k(   47) = (   0.3357652  -0.4197065   0.2398323), wk =   0.0380952
        k(   48) = (   0.3357652  -0.4197065   0.3597485), wk =   0.0380952

[...]

     The maximum number of steps has been reached.

     End of BFGS Geometry Optimization
Begin final coordinates
     new unit-cell volume =   1051.03761 a.u.^3 (   155.74770 Ang^3 )

CELL_PARAMETERS (alat=  8.53457320)
   1.191308603   0.000000000   0.000000000
   0.000000000   1.191308603   0.000000000
   0.000000000   0.000000000   1.191308603

ATOMIC_POSITIONS (crystal)
Cr       0.000000000   0.500000000   0.250000000
Cr       0.000000000   0.500000000   0.750000000
Cr       0.500000000   0.750000000   0.000000000
Cr       0.500000000   0.250000000   0.000000000
Cr       0.750000000   0.000000000   0.500000000
Cr       0.250000000   0.000000000   0.500000000
Si       0.500000000   0.500000000   0.500000000
Si       0.000000000   0.000000000   0.000000000
End final coordinates

     A final scf calculation at the relaxed structure.
     The G-vectors are recalculated for the final unit cell
     Results may differ from those at the preceding step.

     bravais-lattice index     =            0
     lattice parameter (alat)  =       8.5346  a.u.
     unit-cell volume          =    1051.0376 (a.u.)^3
     number of atoms/cell      =            8
     number of atomic types    =            2
     number of electrons       =       148.00
     number of Kohn-Sham states=           89
     kinetic-energy cutoff     =      40.0000  Ry
     charge density cutoff     =     160.0000  Ry
     convergence threshold     =      1.0E-06
     mixing beta               =       0.7000
     number of iterations used =            8  plain     mixing
     Exchange-correlation      = SLA-PZ-NOGX-NOGC ( 1 1 0 0 0)
     EXX-fraction              =        0.00

     celldm(1)=   8.534573  celldm(2)=   0.000000  celldm(3)=   0.000000
     celldm(4)=   0.000000  celldm(5)=   0.000000  celldm(6)=   0.000000

     crystal axes: (cart. coord. in units of alat)
               a(1) = (   1.191309   0.000000   0.000000 )
               a(2) = (   0.000000   1.191309   0.000000 )
               a(3) = (   0.000000   0.000000   1.191309 )

     reciprocal axes: (cart. coord. in units 2 pi/alat)
               b(1) = (  0.839413  0.000000  0.000000 )
               b(2) = (  0.000000  0.839413  0.000000 )
               b(3) = (  0.000000  0.000000  0.839413 )

     PseudoPot. # 1 for Gd read from file:
     /home/cwx6513/pp.La/Gd.UPF
     MD5 check sum: 09a8be538722f05520810cb6aac0efd2
     Pseudo is Norm-conserving, Zval = 18.0
     Generated in analytical, separable form
     Using radial grid of 1263 points,  6 beta functions with:
                l(1) =   0
                l(2) =   0
                l(3) =   1
                l(4) =   1
                l(5) =   2
                l(6) =   3

     PseudoPot. # 2 for Dy read from file:
     /home/cwx6513/pp.La/Dy.UPF
     MD5 check sum: 9597327bec62616a94a14d07f3fd9936
     Pseudo is Norm-conserving, Zval = 20.0
     Generated in analytical, separable form
     Using radial grid of 1265 points,  6 beta functions with:
                l(1) =   0
                l(2) =   0
                l(3) =   1
                l(4) =   1
                l(5) =   2
                l(6) =   3

     atomic species   valence    mass     pseudopotential
        Cr            18.00    51.99610     Gd( 1.00)
        Si            20.00    28.08550     Dy( 1.00)

     48 Sym. Ops., with inversion, found (24 have fractional translation)

   Cartesian axes

     site n.     atom                  positions (alat units)
         1           Cr  tau(   1) = (   0.0000000   0.5956543   0.2978272  )
         2           Cr  tau(   2) = (   0.0000000   0.5956543   0.8934815  )
         3           Cr  tau(   3) = (   0.5956543   0.8934815   0.0000000  )
         4           Cr  tau(   4) = (   0.5956543   0.2978272   0.0000000  )
         5           Cr  tau(   5) = (   0.8934815   0.0000000   0.5956543  )
         6           Cr  tau(   6) = (   0.2978272   0.0000000   0.5956543  )
         7           Si  tau(   7) = (   0.5956543   0.5956543   0.5956543  )
         8           Si  tau(   8) = (   0.0000000   0.0000000   0.0000000  )

     number of k points=    48  gaussian smearing, width (Ry)=  0.1000
                       cart. coord. in units 2pi/alat
        k(    1) = (   0.0000000   0.0000000   0.0000000), wk =   0.0095238
        k(    2) = (   0.0000000   0.0000000   0.1199162), wk =   0.0190476
        k(    3) = (   0.0000000   0.0000000   0.2398323), wk =   0.0190476
        k(    4) = (   0.0000000   0.0000000   0.3597485), wk =   0.0190476
        k(    5) = (   0.0000000   0.1399022   0.0000000), wk =   0.0190476
        k(    6) = (   0.0000000   0.1399022   0.1199162), wk =   0.0380952
        k(    7) = (   0.0000000   0.1399022   0.2398323), wk =   0.0380952
        k(    8) = (   0.0000000   0.1399022   0.3597485), wk =   0.0380952
        k(    9) = (   0.0000000   0.2798044   0.0000000), wk =   0.0190476
        k(   10) = (   0.0000000   0.2798044   0.1199162), wk =   0.0380952
        k(   11) = (   0.0000000   0.2798044   0.2398323), wk =   0.0380952
        k(   12) = (   0.0000000   0.2798044   0.3597485), wk =   0.0380952
        k(   13) = (   0.0000000  -0.4197065   0.0000000), wk =   0.0095238
        k(   14) = (   0.0000000  -0.4197065   0.1199162), wk =   0.0190476
        k(   15) = (   0.0000000  -0.4197065   0.2398323), wk =   0.0190476
        k(   16) = (   0.0000000  -0.4197065   0.3597485), wk =   0.0190476
        k(   17) = (   0.1678826   0.0000000   0.0000000), wk =   0.0190476
        k(   18) = (   0.1678826   0.0000000   0.1199162), wk =   0.0380952
        k(   19) = (   0.1678826   0.0000000   0.2398323), wk =   0.0380952
        k(   20) = (   0.1678826   0.0000000   0.3597485), wk =   0.0380952
        k(   21) = (   0.1678826   0.1399022   0.0000000), wk =   0.0380952
        k(   22) = (   0.1678826   0.1399022   0.1199162), wk =   0.0761905
        k(   23) = (   0.1678826   0.1399022   0.2398323), wk =   0.0761905
        k(   24) = (   0.1678826   0.1399022   0.3597485), wk =   0.0761905
        k(   25) = (   0.1678826   0.2798044   0.0000000), wk =   0.0380952
        k(   26) = (   0.1678826   0.2798044   0.1199162), wk =   0.0761905
        k(   27) = (   0.1678826   0.2798044   0.2398323), wk =   0.0761905
        k(   28) = (   0.1678826   0.2798044   0.3597485), wk =   0.0761905
        k(   29) = (   0.1678826  -0.4197065   0.0000000), wk =   0.0190476
        k(   30) = (   0.1678826  -0.4197065   0.1199162), wk =   0.0380952
        k(   31) = (   0.1678826  -0.4197065   0.2398323), wk =   0.0380952
        k(   32) = (   0.1678826  -0.4197065   0.3597485), wk =   0.0380952
        k(   33) = (   0.3357652   0.0000000   0.0000000), wk =   0.0190476
        k(   34) = (   0.3357652   0.0000000   0.1199162), wk =   0.0380952
        k(   35) = (   0.3357652   0.0000000   0.2398323), wk =   0.0380952
        k(   36) = (   0.3357652   0.0000000   0.3597485), wk =   0.0380952
        k(   37) = (   0.3357652   0.1399022   0.0000000), wk =   0.0380952
        k(   38) = (   0.3357652   0.1399022   0.1199162), wk =   0.0761905
        k(   39) = (   0.3357652   0.1399022   0.2398323), wk =   0.0761905
        k(   40) = (   0.3357652   0.1399022   0.3597485), wk =   0.0761905
        k(   41) = (   0.3357652   0.2798044   0.0000000), wk =   0.0380952
        k(   42) = (   0.3357652   0.2798044   0.1199162), wk =   0.0761905
        k(   43) = (   0.3357652   0.2798044   0.2398323), wk =   0.0761905
        k(   44) = (   0.3357652   0.2798044   0.3597485), wk =   0.0761905
        k(   45) = (   0.3357652  -0.4197065   0.0000000), wk =   0.0190476
        k(   46) = (   0.3357652  -0.4197065   0.1199162), wk =   0.0380952
        k(   47) = (   0.3357652  -0.4197065   0.2398323), wk =   0.0380952
        k(   48) = (   0.3357652  -0.4197065   0.3597485), wk =   0.0380952

     Largest allocated arrays     est. size (Mb)     dimensions
     Largest temporary arrays     est. size (Mb)     dimensions

     Initial potential from superposition of free atoms

     Starting from uniform charge
     Starting wfc are    0 randomized atomic wfcs

     Writing output data file Prototype-La-cP8-Cr3Si.save

     Self-consistent Calculation

[...]

     iteration # 10     ecut=    40.00 Ry     beta=0.70
     CG style diagonalization
     c_bands:  1 eigenvalues not converged
     ethr =  1.63E-06,  avg # of iterations =  3.6

[...]

     total energy              =   -1729.27118354 Ry
     Harris-Foulkes estimate   =   -1729.27118396 Ry
     estimated scf accuracy    <       0.00000110 Ry

     iteration # 12     ecut=    40.00 Ry     beta=0.70
     CG style diagonalization
     ethr =  7.43E-10,  avg # of iterations =  3.7

     End of self-consistent calculation

[...]

          k = 0.3358-0.4197 0.3597 (  4516 PWs)   bands (ev):

   -57.7705 -57.7704 -43.5812 -43.5746 -43.5561 -43.5561 -43.5382 -43.5315
   -24.6840 -24.6840 -24.6812 -24.6812 -24.6788 -24.6788 -14.9617 -14.9025
   -14.7534 -14.7522 -14.6341 -14.6327 -14.6103 -14.5674 -14.5126 -14.4992
   -14.4857 -14.4756 -14.4555 -14.4509 -14.4349 -14.4333 -14.4244 -14.4231
    15.7678  15.7805  15.8259  15.8592  15.8787  15.8799  15.9261  15.9341
    15.9616  15.9639  17.9660  17.9662  19.0910  19.1291  19.3763  19.4227
    19.4298  19.4863  19.5523  19.6729  19.9836  19.9938  20.2749  20.3284
    20.4155  20.4491  20.8397  20.8865  21.2866  21.4229  21.5283  21.5525
    21.6506  21.7512  22.1907  22.2825  22.4049  22.4344  22.4886  22.5458
    23.4380  23.4730  24.1484  24.3406  24.5385  24.8325  25.5078  25.5737
    32.0929  32.0960  33.0577  33.3619  33.8148  34.0015  35.0071  35.0929
    35.2128

     the Fermi energy is    24.4644 ev

!    total energy              =   -1729.27118343 Ry
     Harris-Foulkes estimate   =   -1729.27118381 Ry
     estimated scf accuracy    <       0.00000041 Ry

     The total energy is the sum of the following terms:

     one-electron contribution =    -239.44381133 Ry
     hartree contribution      =     232.97700688 Ry
     xc contribution           =    -168.71808902 Ry
     ewald contribution        =   -1553.78375042 Ry
     smearing contrib. (-TS)   =      -0.30253954 Ry

     convergence has been achieved in  12 iterations

     Forces acting on atoms (Ry/au):

     atom    1 type  1   force =     0.00000000    0.00000000    0.00000000
     atom    2 type  1   force =     0.00000000    0.00000000    0.00000000
     atom    3 type  1   force =     0.00000000    0.00000000    0.00000000
     atom    4 type  1   force =     0.00000000    0.00000000    0.00000000
     atom    5 type  1   force =     0.00000000    0.00000000    0.00000000
     atom    6 type  1   force =     0.00000000    0.00000000    0.00000000
     atom    7 type  2   force =     0.00000000    0.00000000    0.00000000
     atom    8 type  2   force =     0.00000000    0.00000000    0.00000000

     Total force =     0.000000     Total SCF correction =     0.000000

     entering subroutine stress ...

          total   stress  (Ry/bohr**3)                   (kbar)     P=  -43.89
  -0.00029833   0.00000000   0.00000000        -43.89      0.00      0.00
   0.00000000  -0.00029833   0.00000000          0.00    -43.89      0.00
   0.00000000   0.00000000  -0.00029833          0.00      0.00    -43.89

     Writing output data file Prototype-La-cP8-Cr3Si.save

     General routines

     Parallel routines

   This run was terminated on:  23: 8: 3  22Mar2018

   JOB DONE.