     Program PWSCF v.5.0.2 starts on 22Mar2018 at 21:15:18

     Current dimensions of program PWSCF are:
     Max number of different atomic species (ntypx) = 10
     Max number of k-points (npk) =  40000
     Max angular momentum in pseudopotentials (lmaxx) =  3
     Waiting for input...
     Reading input from standard input

     Subspace diagonalization in iterative solution of the eigenvalue problem:
     a serial algorithm will be used

     bravais-lattice index     =            0
     lattice parameter (alat)  =       7.0151  a.u.
     unit-cell volume          =     862.2778 (a.u.)^3
     number of atoms/cell      =           12
     number of atomic types    =            2
     number of electrons       =       212.00
     number of Kohn-Sham states=          127
     kinetic-energy cutoff     =      40.0000  Ry
     charge density cutoff     =     160.0000  Ry
     convergence threshold     =      1.0E-04
     mixing beta               =       0.7000
     number of iterations used =            8  plain     mixing
     Exchange-correlation      = SLA-PZ-NOGX-NOGC ( 1 1 0 0 0)
     EXX-fraction              =        0.00
     nstep                     =           50

     celldm(1)=   7.015105  celldm(2)=   0.000000  celldm(3)=   0.000000
     celldm(4)=   0.000000  celldm(5)=   0.000000  celldm(6)=   0.000000

     crystal axes: (cart. coord. in units of alat)
               a(1) = (   1.000000   0.000000   0.000000 )
               a(2) = (   0.000000   1.315963   0.000000 )
               a(3) = (   0.000000   0.000000   1.898020 )

     reciprocal axes: (cart. coord. in units 2 pi/alat)
               b(1) = (  1.000000  0.000000  0.000000 )
               b(2) = (  0.000000  0.759900  0.000000 )
               b(3) = (  0.000000  0.000000  0.526865 )

     PseudoPot. # 1 for Eu read from file:
     /home/cwx6513/pp.La/Eu.UPF
     MD5 check sum: 5efdbbfc50c6a10138933a6429836ad2
     Pseudo is Norm-conserving, Zval = 17.0
     Generated in analytical, separable form
     Using radial grid of 1261 points,  6 beta functions with:
                l(1) =   0
                l(2) =   0
                l(3) =   1
                l(4) =   1
                l(5) =   2
                l(6) =   3

     PseudoPot. # 2 for Tb read from file:
     /home/cwx6513/pp.La/Tb.UPF
     MD5 check sum: 3d6088a3f0cf7fd2e110c43f7f8e95c2
     Pseudo is Norm-conserving, Zval = 19.0
     Generated in analytical, separable form
     Using radial grid of 1263 points,  6 beta functions with:
                l(1) =   0
                l(2) =   0
                l(3) =   1
                l(4) =   1
                l(5) =   2
                l(6) =   3

     atomic species   valence    mass     pseudopotential
        Co            17.00    58.93320     Eu( 1.00)
        Si            19.00    28.08550     Tb( 1.00)

      8 Sym. Ops., with inversion, found ( 6 have fractional translation)

   Cartesian axes

     site n.     atom                  positions (alat units)
         1           Co  tau(   1) = (   0.7500000   1.0875135   0.8270358  )
         2           Co  tau(   2) = (   0.2500000   0.2284499   1.0709846  )
         3           Co  tau(   3) = (   0.7500000   0.4295318   0.1219744  )
         4           Co  tau(   4) = (   0.2500000   0.8864316   1.7760460  )
         5           Co  tau(   5) = (   0.2500000   0.7067855   0.5358966  )
         6           Co  tau(   6) = (   0.7500000   0.6091779   1.3621238  )
         7           Co  tau(   7) = (   0.2500000   0.0488038   0.4131136  )
         8           Co  tau(   8) = (   0.7500000   1.2671596   1.4849068  )
         9           Si  tau(   9) = (   0.2500000   0.2669484   1.6960710  )
        10           Si  tau(  10) = (   0.7500000   1.0490149   0.2019494  )
        11           Si  tau(  11) = (   0.2500000   0.9249301   1.1509596  )
        12           Si  tau(  12) = (   0.7500000   0.3910333   0.7470608  )

     number of k points=    12  gaussian smearing, width (Ry)=  0.1000
                       cart. coord. in units 2pi/alat
        k(    1) = (   0.0000000   0.0000000   0.0000000), wk =   0.0833333
        k(    2) = (   0.0000000   0.0000000   0.1317162), wk =   0.1666667
        k(    3) = (   0.0000000   0.0000000  -0.2634324), wk =   0.0833333
        k(    4) = (   0.0000000   0.2532999   0.0000000), wk =   0.1666667
        k(    5) = (   0.0000000   0.2532999   0.1317162), wk =   0.3333333
        k(    6) = (   0.0000000   0.2532999  -0.2634324), wk =   0.1666667
        k(    7) = (  -0.5000000   0.0000000   0.0000000), wk =   0.0833333
        k(    8) = (  -0.5000000   0.0000000   0.1317162), wk =   0.1666667
        k(    9) = (  -0.5000000   0.0000000  -0.2634324), wk =   0.0833333
        k(   10) = (  -0.5000000   0.2532999   0.0000000), wk =   0.1666667
        k(   11) = (  -0.5000000   0.2532999   0.1317162), wk =   0.3333333
        k(   12) = (  -0.5000000   0.2532999  -0.2634324), wk =   0.1666667

     Largest allocated arrays     est. size (Mb)     dimensions
     Largest temporary arrays     est. size (Mb)     dimensions

     Initial potential from superposition of free atoms

     Starting from uniform charge
     Starting wfc are    0 randomized atomic wfcs

     Self-consistent Calculation

     iteration #  1     ecut=    40.00 Ry     beta=0.70
     CG style diagonalization
     c_bands:  1 eigenvalues not converged
     c_bands:  1 eigenvalues not converged
     c_bands:  1 eigenvalues not converged
     ethr =  1.00E-02,  avg # of iterations = 12.5

     total energy              =   -2155.24254818 Ry
     Harris-Foulkes estimate   =   -2496.06830276 Ry
     estimated scf accuracy    <     448.86488827 Ry

     iteration #  2     ecut=    40.00 Ry     beta=0.70
     CG style diagonalization
     ethr =  1.00E-02,  avg # of iterations =  9.1

[...]

     End of self-consistent calculation

          k = 0.0000 0.0000 0.0000 (  3675 PWs)   bands (ev):

   -29.7193 -29.6643 -29.6516 -29.6374 -16.6497 -16.3822 -16.2293 -15.9304
   -15.8489 -15.7034 -15.6731 -15.6689   0.4606   0.7721   0.8494   0.8895
     0.9321   0.9773   1.1652   1.2012   1.2182   1.3401   1.5115   1.6829
     8.2917   8.7020   8.9007   9.2790   9.7277   9.8796   9.8953  10.0141
    10.3648  10.3937  10.6483  10.6948  10.7211  10.8928  11.2696  11.2696
    11.3268  11.4633  11.5108  11.7446  12.3001  12.4346  12.6012  12.7964
    32.8437  32.9667  33.1315  33.9285  33.9620  33.9857  34.1055  34.3980
    34.6474  35.1966  35.5432  36.1004  36.1997  36.3230  36.3277  37.1648
    37.3223  38.2574  38.3346  38.7738  39.0105  39.0138  39.4562  40.0822
    40.0994  40.3016  40.4552  40.8842  41.0480  41.4467  41.6264  41.6293
    41.6586  42.3435  42.4029  42.7652  43.2429  43.6937  43.8818  43.9810
    44.3398  44.3748  44.4641  45.5355  46.1753  46.3514  46.6251  46.6556
    47.6568  47.9267  48.0621  48.4604  48.5647  48.8011  49.1339  49.3124
    49.5408  49.6979  49.9554  50.5782  50.5847  51.3004  51.3826  52.5349
    54.1214  54.8467  54.9917  55.3176  56.1754  56.5214  57.0224  57.0842
    57.2300  57.4563  57.6456  58.2606  58.3770  58.5802  58.6865

[...]

          k =-0.5000 0.0000 0.0000 (  3722 PWs)   bands (ev):

[...]

     the Fermi energy is    49.6094 ev

!    total energy              =   -2306.86080755 Ry
     Harris-Foulkes estimate   =   -2306.86081281 Ry
     estimated scf accuracy    <       0.00000436 Ry

     The total energy is the sum of the following terms:

     one-electron contribution =     400.78210932 Ry
     hartree contribution      =     139.90298512 Ry
     xc contribution           =    -249.32039224 Ry
     ewald contribution        =   -2597.83847504 Ry
     smearing contrib. (-TS)   =      -0.38703471 Ry

     convergence has been achieved in  10 iterations

     Forces acting on atoms (Ry/au):

     atom    1 type  1   force =     0.00000000   -0.05466572   -0.05541630
     atom    2 type  1   force =     0.00000000    0.05466572    0.05541630
     atom    3 type  1   force =     0.00000000   -0.05466572    0.05541630
     atom    4 type  1   force =     0.00000000    0.05466572   -0.05541630
     atom    5 type  1   force =     0.00000000    0.15775327   -0.26310428
     atom    6 type  1   force =     0.00000000   -0.15775327    0.26310428
     atom    7 type  1   force =     0.00000000    0.15775327    0.26310428
     atom    8 type  1   force =     0.00000000   -0.15775327   -0.26310428
     atom    9 type  2   force =     0.00000000   -0.21551042    0.01842469
     atom   10 type  2   force =     0.00000000    0.21551042   -0.01842469
     atom   11 type  2   force =     0.00000000   -0.21551042   -0.01842469
     atom   12 type  2   force =     0.00000000    0.21551042    0.01842469

     Total force =     0.766690     Total SCF correction =     0.000000

     entering subroutine stress ...

          total   stress  (Ry/bohr**3)                   (kbar)     P= 6466.48
   0.04686144   0.00000000   0.00000000       6893.55      0.00      0.00
   0.00000000   0.04105232   0.00000000          0.00   6039.00      0.00
   0.00000000   0.00000000   0.04396093          0.00      0.00   6466.88

     BFGS Geometry Optimization

     number of scf cycles    =   1
     number of bfgs steps    =   0

     enthalpy new            =   -2306.8608075517 Ry

     new trust radius        =       0.5000000000 bohr
     new conv_thr            =       0.0001000000 Ry

     new unit-cell volume =   1085.77993 a.u.^3 (   160.89598 Ang^3 )

CELL_PARAMETERS (alat=  7.01510508)
   1.085136619   0.000000000   0.000000000
   0.000000000   1.414111577   0.000000000
   0.000000000   0.000000000   2.049609716

ATOMIC_POSITIONS (crystal)
Co       0.750000000   0.825970674   0.435433543
Co       0.250000000   0.174029326   0.564566457
Co       0.750000000   0.325970674   0.064566457
Co       0.250000000   0.674029326   0.935433543
Co       0.250000000   0.538327827   0.280909003
Co       0.750000000   0.461672173   0.719090997
Co       0.250000000   0.038327827   0.219090997
Co       0.750000000   0.961672173   0.780909003
Si       0.250000000   0.201157511   0.893700560
Si       0.750000000   0.798842489   0.106299440
Si       0.250000000   0.701157511   0.606299440
Si       0.750000000   0.298842489   0.393700560

     Writing output data file Prototype-La-oP12-Co2Si.save
     NEW-OLD atomic charge density approx. for the potential
     NEW k-points:
        k(    1) = (   0.0000000   0.0000000   0.0000000), wk =   0.0833333
        k(    2) = (   0.0000000   0.0000000   0.1219744), wk =   0.1666667
        k(    3) = (   0.0000000   0.0000000  -0.2439489), wk =   0.0833333
        k(    4) = (   0.0000000   0.2357193   0.0000000), wk =   0.1666667
        k(    5) = (   0.0000000   0.2357193   0.1219744), wk =   0.3333333
        k(    6) = (   0.0000000   0.2357193  -0.2439489), wk =   0.1666667
        k(    7) = (  -0.4607715   0.0000000   0.0000000), wk =   0.0833333
        k(    8) = (  -0.4607715   0.0000000   0.1219744), wk =   0.1666667
        k(    9) = (  -0.4607715   0.0000000  -0.2439489), wk =   0.0833333
        k(   10) = (  -0.4607715   0.2357193   0.0000000), wk =   0.1666667
        k(   11) = (  -0.4607715   0.2357193   0.1219744), wk =   0.3333333
        k(   12) = (  -0.4607715   0.2357193  -0.2439489), wk =   0.1666667

[...]

     enthalpy old            =   -2306.8608075517 Ry
     enthalpy new            =   -2312.5361775395 Ry

     CASE: enthalpy_new < enthalpy_old

     small trust_radius: resetting bfgs history

     new trust radius        =       2.0023700190 bohr
     new conv_thr            =       0.0001000000 Ry

[...]

          total   stress  (Ry/bohr**3)                   (kbar)     P=-1622.90
  -0.01143571   0.00000000   0.00000000      -1682.25      0.00      0.00
   0.00000000  -0.01063390   0.00000000          0.00  -1564.30      0.00
   0.00000000   0.00000000  -0.01102710          0.00      0.00  -1622.14

     number of scf cycles    =   3
     number of bfgs steps    =   2

     enthalpy old            =   -2312.5361775395 Ry
     enthalpy new            =   -2304.2011745989 Ry

     CASE: enthalpy_new > enthalpy_old

     new trust radius        =       0.6167333507 bohr

     trust_radius < trust_radius_min

     resetting bfgs history

     Message from routine bfgs:
     history already reset at previous step: stopping
     new conv_thr            =       0.0001000000 Ry

     new unit-cell volume =   1295.45351 a.u.^3 (   191.96640 Ang^3 )

[...]

ATOMIC_POSITIONS (crystal)
Co       0.750000000   0.825363476   0.435257112
Co       0.250000000   0.174636524   0.564742888
Co       0.750000000   0.325363476   0.064742888
Co       0.250000000   0.674636524   0.935257112
Co       0.250000000   0.540002519   0.279153081
Co       0.750000000   0.459997481   0.720846919
Co       0.250000000   0.040002519   0.220846919
Co       0.750000000   0.959997481   0.779153081
Si       0.250000000   0.198892866   0.893954144
Si       0.750000000   0.801107134   0.106045856
Si       0.250000000   0.698892866   0.606045856
Si       0.750000000   0.301107134   0.393954144

     Writing output data file Prototype-La-oP12-Co2Si.save
     NEW-OLD atomic charge density approx. for the potential
     NEW k-points:
        k(    1) = (   0.0000000   0.0000000   0.0000000), wk =   0.0833333
        k(    2) = (   0.0000000   0.0000000   0.1149664), wk =   0.1666667
        k(    3) = (   0.0000000   0.0000000  -0.2299329), wk =   0.0833333
        k(    4) = (   0.0000000   0.2239457   0.0000000), wk =   0.1666667
        k(    5) = (   0.0000000   0.2239457   0.1149664), wk =   0.3333333
        k(    6) = (   0.0000000   0.2239457  -0.2299329), wk =   0.1666667
        k(    7) = (  -0.4312763   0.0000000   0.0000000), wk =   0.0833333
        k(    8) = (  -0.4312763   0.0000000   0.1149664), wk =   0.1666667
        k(    9) = (  -0.4312763   0.0000000  -0.2299329), wk =   0.0833333
        k(   10) = (  -0.4312763   0.2239457   0.0000000), wk =   0.1666667
        k(   11) = (  -0.4312763   0.2239457   0.1149664), wk =   0.3333333
        k(   12) = (  -0.4312763   0.2239457  -0.2299329), wk =   0.1666667

[...]

     The maximum number of steps has been reached.

     End of BFGS Geometry Optimization
Begin final coordinates
     new unit-cell volume =   1295.45351 a.u.^3 (   191.96640 Ang^3 )

CELL_PARAMETERS (alat=  7.01510508)
   1.159349490   0.000000000   0.000000000
   0.000000000   1.488455896   0.000000000
   0.000000000   0.000000000   2.174547723

ATOMIC_POSITIONS (crystal)
Co       0.750000000   0.825363476   0.435257112
Co       0.250000000   0.174636524   0.564742888
Co       0.750000000   0.325363476   0.064742888
Co       0.250000000   0.674636524   0.935257112
Co       0.250000000   0.540002519   0.279153081
Co       0.750000000   0.459997481   0.720846919
Co       0.250000000   0.040002519   0.220846919
Co       0.750000000   0.959997481   0.779153081
Si       0.250000000   0.198892866   0.893954144
Si       0.750000000   0.801107134   0.106045856
Si       0.250000000   0.698892866   0.606045856
Si       0.750000000   0.301107134   0.393954144
End final coordinates

     A final scf calculation at the relaxed structure.
     The G-vectors are recalculated for the final unit cell
     Results may differ from those at the preceding step.

     bravais-lattice index     =            0
     lattice parameter (alat)  =       7.0151  a.u.
     unit-cell volume          =    1295.4535 (a.u.)^3
     number of atoms/cell      =           12
     number of atomic types    =            2
     number of electrons       =       212.00
     number of Kohn-Sham states=          127
     kinetic-energy cutoff     =      40.0000  Ry
     charge density cutoff     =     160.0000  Ry
     convergence threshold     =      1.0E-04
     mixing beta               =       0.7000
     number of iterations used =            8  plain     mixing
     Exchange-correlation      = SLA-PZ-NOGX-NOGC ( 1 1 0 0 0)
     EXX-fraction              =        0.00

     celldm(1)=   7.015105  celldm(2)=   0.000000  celldm(3)=   0.000000
     celldm(4)=   0.000000  celldm(5)=   0.000000  celldm(6)=   0.000000

     crystal axes: (cart. coord. in units of alat)
               a(1) = (   1.159349   0.000000   0.000000 )
               a(2) = (   0.000000   1.488456   0.000000 )
               a(3) = (   0.000000   0.000000   2.174548 )

     reciprocal axes: (cart. coord. in units 2 pi/alat)
               b(1) = (  0.862553  0.000000  0.000000 )
               b(2) = (  0.000000  0.671837  0.000000 )
               b(3) = (  0.000000  0.000000  0.459866 )

     PseudoPot. # 1 for Eu read from file:
     /home/cwx6513/pp.La/Eu.UPF
     MD5 check sum: 5efdbbfc50c6a10138933a6429836ad2
     Pseudo is Norm-conserving, Zval = 17.0
     Generated in analytical, separable form
     Using radial grid of 1261 points,  6 beta functions with:
                l(1) =   0
                l(2) =   0
                l(3) =   1
                l(4) =   1
                l(5) =   2
                l(6) =   3

     PseudoPot. # 2 for Tb read from file:
     /home/cwx6513/pp.La/Tb.UPF
     MD5 check sum: 3d6088a3f0cf7fd2e110c43f7f8e95c2
     Pseudo is Norm-conserving, Zval = 19.0
     Generated in analytical, separable form
     Using radial grid of 1263 points,  6 beta functions with:
                l(1) =   0
                l(2) =   0
                l(3) =   1
                l(4) =   1
                l(5) =   2
                l(6) =   3

     atomic species   valence    mass     pseudopotential
        Co            17.00    58.93320     Eu( 1.00)
        Si            19.00    28.08550     Tb( 1.00)

      8 Sym. Ops., with inversion, found ( 6 have fractional translation)

   Cartesian axes

     site n.     atom                  positions (alat units)
         1           Co  tau(   1) = (   0.8695121   1.2285171   0.9464874  )
         2           Co  tau(   2) = (   0.2898374   0.2599388   1.2280604  )
         3           Co  tau(   3) = (   0.8695121   0.4842892   0.1407865  )
         4           Co  tau(   4) = (   0.2898374   1.0041667   2.0337612  )
         5           Co  tau(   5) = (   0.2898374   0.8037699   0.6070317  )
         6           Co  tau(   6) = (   0.8695121   0.6846860   1.5675160  )
         7           Co  tau(   7) = (   0.2898374   0.0595420   0.4802422  )
         8           Co  tau(   8) = (   0.8695121   1.4289139   1.6943056  )
         9           Si  tau(   9) = (   0.2898374   0.2960433   1.9439459  )
        10           Si  tau(  10) = (   0.8695121   1.1924126   0.2306018  )
        11           Si  tau(  11) = (   0.2898374   1.0402712   1.3178756  )
        12           Si  tau(  12) = (   0.8695121   0.4481847   0.8566721  )

     number of k points=    12  gaussian smearing, width (Ry)=  0.1000
                       cart. coord. in units 2pi/alat
        k(    1) = (   0.0000000   0.0000000   0.0000000), wk =   0.0833333
        k(    2) = (   0.0000000   0.0000000   0.1149664), wk =   0.1666667
        k(    3) = (   0.0000000   0.0000000  -0.2299329), wk =   0.0833333
        k(    4) = (   0.0000000   0.2239457   0.0000000), wk =   0.1666667
        k(    5) = (   0.0000000   0.2239457   0.1149664), wk =   0.3333333
        k(    6) = (   0.0000000   0.2239457  -0.2299329), wk =   0.1666667
        k(    7) = (  -0.4312763   0.0000000   0.0000000), wk =   0.0833333
        k(    8) = (  -0.4312763   0.0000000   0.1149664), wk =   0.1666667
        k(    9) = (  -0.4312763   0.0000000  -0.2299329), wk =   0.0833333
        k(   10) = (  -0.4312763   0.2239457   0.0000000), wk =   0.1666667
        k(   11) = (  -0.4312763   0.2239457   0.1149664), wk =   0.3333333
        k(   12) = (  -0.4312763   0.2239457  -0.2299329), wk =   0.1666667

     Largest allocated arrays     est. size (Mb)     dimensions
     Largest temporary arrays     est. size (Mb)     dimensions

     Initial potential from superposition of free atoms

     Starting from uniform charge
     Starting wfc are    0 randomized atomic wfcs

     Writing output data file Prototype-La-oP12-Co2Si.save

     Self-consistent Calculation

[...]

     iteration # 10     ecut=    40.00 Ry     beta=0.70
     CG style diagonalization
     ethr =  7.67E-06,  avg # of iterations =  3.3

     total energy              =   -2317.30854061 Ry
     Harris-Foulkes estimate   =   -2317.30926514 Ry
     estimated scf accuracy    <       0.00154041 Ry

     iteration # 11     ecut=    40.00 Ry     beta=0.70
     CG style diagonalization
     c_bands:  1 eigenvalues not converged
     c_bands:  1 eigenvalues not converged
     ethr =  7.27E-07,  avg # of iterations =  3.9

     End of self-consistent calculation

[...]

          k = 0.0000 0.2239-0.2299 (  5514 PWs)   bands (ev):

[...]

          k =-0.4313 0.2239-0.2299 (  5528 PWs)   bands (ev):

   -45.1196 -45.1196 -45.1190 -45.1190 -32.4802 -32.4802 -32.4099 -32.4099
   -32.3524 -32.3524 -32.3516 -32.3516 -13.6838 -13.6838 -13.6728 -13.6728
   -13.6600 -13.6600 -13.6456 -13.6456 -13.5113 -13.5113 -13.4976 -13.4976
    -5.8496  -5.8496  -5.6444  -5.6444  -5.6016  -5.6016  -5.5479  -5.5479
    -5.4839  -5.4839  -5.2466  -5.2466  -5.1125  -5.1125  -5.0416  -5.0416
    -4.9849  -4.9849  -4.9838  -4.9838  -4.8688  -4.8688  -4.8372  -4.8372
    21.6622  21.6622  22.0066  22.0066  22.0907  22.0907  22.3761  22.3761
    22.4339  22.4339  22.7021  22.7021  22.7978  22.7978  22.9278  22.9278
    23.5139  23.5139  23.9723  23.9723  24.3646  24.3646  24.5157  24.5157
    25.0405  25.0405  25.2870  25.2870  25.3795  25.3795  25.5180  25.5180
    26.0308  26.0308  26.6104  26.6104  26.7446  26.7446  27.2349  27.2349
    27.5755  27.5755  27.7611  27.7611  27.8750  27.8750  28.4523  28.4523
    28.5919  28.5919  28.9344  28.9344  29.6174  29.6174  30.0837  30.0837
    30.7312  30.7312  30.9962  30.9962  31.5813  31.5813  31.6291  31.6291
    33.0179  33.0179  33.5123  33.5124  34.9902  34.9903  38.1844  38.1843
    39.0040  39.0040  39.8907  39.8907  40.1463  40.1464  40.3905

     the Fermi energy is    30.8460 ev

!    total energy              =   -2317.30896762 Ry
     Harris-Foulkes estimate   =   -2317.30904452 Ry
     estimated scf accuracy    <       0.00008373 Ry

     The total energy is the sum of the following terms:

     one-electron contribution =     -42.65391804 Ry
     hartree contribution      =     232.86432727 Ry
     xc contribution           =    -237.40041146 Ry
     ewald contribution        =   -2269.47716938 Ry
     smearing contrib. (-TS)   =      -0.64179601 Ry

     convergence has been achieved in  11 iterations

     Forces acting on atoms (Ry/au):

     atom    1 type  1   force =     0.00000000   -0.02982059   -0.00647322
     atom    2 type  1   force =     0.00000000    0.02982059    0.00647322
     atom    3 type  1   force =     0.00000000   -0.02982059    0.00647322
     atom    4 type  1   force =     0.00000000    0.02982059   -0.00647322
     atom    5 type  1   force =     0.00000000    0.05341195   -0.08141437
     atom    6 type  1   force =     0.00000000   -0.05341195    0.08141437
     atom    7 type  1   force =     0.00000000    0.05341195    0.08141437
     atom    8 type  1   force =     0.00000000   -0.05341195   -0.08141437
     atom    9 type  2   force =     0.00000000   -0.08191990    0.00599419
     atom   10 type  2   force =     0.00000000    0.08191990   -0.00599419
     atom   11 type  2   force =     0.00000000   -0.08191990   -0.00599419
     atom   12 type  2   force =     0.00000000    0.08191990    0.00599419

     Total force =     0.261986     Total SCF correction =     0.000000

     entering subroutine stress ...

          total   stress  (Ry/bohr**3)                   (kbar)     P=  601.44
   0.00449879   0.00000000   0.00000000        661.79      0.00      0.00
   0.00000000   0.00367652   0.00000000          0.00    540.83      0.00
   0.00000000   0.00000000   0.00409020          0.00      0.00    601.69

     Writing output data file Prototype-La-oP12-Co2Si.save

     General routines

     Parallel routines

   This run was terminated on:  21:29:24  22Mar2018

   JOB DONE.