     Program PWSCF v.5.0.2 starts on 22Mar2018 at 22:42:43

     Current dimensions of program PWSCF are:
     Max number of different atomic species (ntypx) = 10
     Max number of k-points (npk) =  40000
     Max angular momentum in pseudopotentials (lmaxx) =  3
     Waiting for input...
     Reading input from standard input

     Subspace diagonalization in iterative solution of the eigenvalue problem:
     a serial algorithm will be used

     bravais-lattice index     =            0
     lattice parameter (alat)  =       9.9235  a.u.
     unit-cell volume          =    1361.0366 (a.u.)^3
     number of atoms/cell      =           12
     number of atomic types    =            2
     number of electrons       =       248.00
     number of Kohn-Sham states=          149
     kinetic-energy cutoff     =      40.0000  Ry
     charge density cutoff     =     160.0000  Ry
     convergence threshold     =      1.0E-04
     mixing beta               =       0.7000
     number of iterations used =            8  plain     mixing
     Exchange-correlation      = SLA-PZ-NOGX-NOGC ( 1 1 0 0 0)
     EXX-fraction              =        0.00
     nstep                     =           50

     celldm(1)=   9.923489  celldm(2)=   0.000000  celldm(3)=   0.000000
     celldm(4)=   0.000000  celldm(5)=   0.000000  celldm(6)=   0.000000

     crystal axes: (cart. coord. in units of alat)
               a(1) = (   1.000000   0.000000   0.000000 )
               a(2) = (  -0.500000   0.866025   0.000000 )
               a(3) = (   0.000000   0.000000   1.608222 )

     reciprocal axes: (cart. coord. in units 2 pi/alat)
               b(1) = (  1.000000  0.577350  0.000000 )
               b(2) = (  0.000000  1.154701  0.000000 )
               b(3) = (  0.000000  0.000000  0.621805 )

     PseudoPot. # 1 for Er read from file:
     /home/cwx6513/pp.La/Er.UPF
     MD5 check sum: e152ae21b84514339d8526f066caf99b
     Pseudo is Norm-conserving, Zval = 22.0
     Generated in analytical, separable form
     Using radial grid of 1267 points,  6 beta functions with:
                l(1) =   0
                l(2) =   0
                l(3) =   1
                l(4) =   1
                l(5) =   2
                l(6) =   3

     PseudoPot. # 2 for Dy read from file:
     /home/cwx6513/pp.La/Dy.UPF
     MD5 check sum: 9597327bec62616a94a14d07f3fd9936
     Pseudo is Norm-conserving, Zval = 20.0
     Generated in analytical, separable form
     Using radial grid of 1265 points,  6 beta functions with:
                l(1) =   0
                l(2) =   0
                l(3) =   1
                l(4) =   1
                l(5) =   2
                l(6) =   3

     atomic species   valence    mass     pseudopotential
        Mg            22.00    24.30500     Er( 1.00)
        Zn            20.00    65.39000     Dy( 1.00)

     24 Sym. Ops., with inversion, found (12 have fractional translation)

   Cartesian axes

     site n.     atom                  positions (alat units)
         1           Mg  tau(   1) = (  -0.0000005   0.5773506   0.1003820  )
         2           Mg  tau(   2) = (   0.5000005   0.2886748   0.9044931  )
         3           Mg  tau(   3) = (   0.5000005   0.2886748   1.5078402  )
         4           Mg  tau(   4) = (  -0.0000005   0.5773506   0.7037291  )
         5           Zn  tau(   5) = (   0.0000000   0.0000000   0.0000000  )
         6           Zn  tau(   6) = (   0.0000000   0.0000000   0.8041111  )
         7           Zn  tau(   7) = (   0.0000000   0.2950739   1.2061667  )
         8           Zn  tau(   8) = (   0.7444585   0.1475370   0.4020556  )
         9           Zn  tau(   9) = (   0.2555415   0.1475370   0.4020556  )
        10           Zn  tau(  10) = (   0.2444585   0.7184884   1.2061667  )
        11           Zn  tau(  11) = (  -0.2444585   0.7184884   1.2061667  )
        12           Zn  tau(  12) = (   0.5000000   0.5709515   0.4020556  )

     number of k points=    12  gaussian smearing, width (Ry)=  0.1000
                       cart. coord. in units 2pi/alat
        k(    1) = (   0.0000000   0.0000000   0.0000000), wk =   0.0833333
        k(    2) = (   0.0000000   0.0000000   0.1554512), wk =   0.1666667
        k(    3) = (   0.0000000   0.0000000  -0.3109023), wk =   0.0833333
        k(    4) = (   0.0000000   0.3849002   0.0000000), wk =   0.1666667
        k(    5) = (   0.0000000   0.3849002   0.1554512), wk =   0.3333333
        k(    6) = (   0.0000000   0.3849002  -0.3109023), wk =   0.1666667
        k(    7) = (  -0.5000000  -0.2886751   0.0000000), wk =   0.0833333
        k(    8) = (  -0.5000000  -0.2886751   0.1554512), wk =   0.1666667
        k(    9) = (  -0.5000000  -0.2886751  -0.3109023), wk =   0.0833333
        k(   10) = (  -0.5000000   0.0962250   0.0000000), wk =   0.1666667
        k(   11) = (  -0.5000000   0.0962250   0.1554512), wk =   0.3333333
        k(   12) = (  -0.5000000   0.0962250  -0.3109023), wk =   0.1666667

     Largest allocated arrays     est. size (Mb)     dimensions
     Largest temporary arrays     est. size (Mb)     dimensions

     Initial potential from superposition of free atoms

     Starting from uniform charge
     Starting wfc are    0 randomized atomic wfcs

     Self-consistent Calculation

     iteration #  1     ecut=    40.00 Ry     beta=0.70
     CG style diagonalization
     ethr =  1.00E-02,  avg # of iterations = 18.4

     total energy              =   -3081.10208650 Ry
     Harris-Foulkes estimate   =   -4106.61357523 Ry
     estimated scf accuracy    <    1306.71115202 Ry

[...]

     iteration #  7     ecut=    40.00 Ry     beta=0.70
     CG style diagonalization
     c_bands:  1 eigenvalues not converged
     c_bands:  1 eigenvalues not converged
     ethr =  6.26E-05,  avg # of iterations =  3.9

[...]

     End of self-consistent calculation

          k = 0.0000 0.0000 0.0000 (  5769 PWs)   bands (ev):

   -68.0726 -68.0622 -68.0559 -68.0252 -51.4450 -51.4056 -51.2901 -51.2417
   -51.2417 -51.2360 -51.2360 -51.2227 -30.0923 -30.0790 -30.0790 -30.0767
   -30.0569 -30.0569 -30.0410 -30.0229 -30.0229 -30.0150 -30.0144 -30.0144
   -19.6600 -19.4233 -19.0587 -18.7280 -18.7280 -18.6760 -18.6759 -18.5774
   -18.5774 -18.3966 -18.3650 -18.2308 -18.2307 -18.2118 -18.2118 -17.8912
   -17.8912 -17.8894 -17.8870 -17.8752 -17.8631 -17.8630 -17.8316 -17.8316
    16.0382  16.0382  16.0412  16.1171  16.1186  16.1186  16.3262  16.3262
    16.3614  16.3615  16.5887  16.6891  16.6891  16.7188  16.7900  16.7900
    16.8720  16.8720  16.9131  16.9131  17.1357  17.8350  18.1152  18.2691
    19.4160  19.4160  19.5635  19.5635  19.5837  19.5838  19.8299  19.9865
    20.4437  20.4438  20.6158  21.1887  21.4412  21.4412  21.7153  21.7153
    22.3690  22.3690  22.5351  23.1169  23.3074  23.3074  23.8932  23.9762
    24.0994  24.1832  24.1832  24.2693  24.2693  24.4018  24.4018  24.5161
    24.5161  25.7588  25.7588  26.2286  26.2286  27.2659  27.2685  28.4024
    28.4533  29.0838  29.6019  29.6020  29.9277  30.1048  30.1048  31.0759
    31.8490  31.8492  32.2914  33.0921  33.3399  33.3400  33.7378  34.4281
    34.4281  36.3455  36.3456  37.0686  37.4384  37.9192  37.9193  37.9261
    37.9261  37.9794  38.4169  38.7797  38.7797  39.0281  39.2883  39.2884
    39.4402  39.4403  40.1919  40.6260  40.9464

[...]

          k =-0.5000-0.2887 0.0000 (  5800 PWs)   bands (ev):

[...]

     the Fermi energy is    34.3176 ev

!    total energy              =   -3398.19291526 Ry
     Harris-Foulkes estimate   =   -3398.19292979 Ry
     estimated scf accuracy    <       0.00001389 Ry

     The total energy is the sum of the following terms:

     one-electron contribution =    -530.58790804 Ry
     hartree contribution      =     481.13770817 Ry
     xc contribution           =    -307.35968452 Ry
     ewald contribution        =   -3041.13335018 Ry
     smearing contrib. (-TS)   =      -0.24968070 Ry

     convergence has been achieved in  10 iterations

     Forces acting on atoms (Ry/au):

     atom    1 type  1   force =     0.00000000    0.00000000    0.02449031
     atom    2 type  1   force =     0.00000000    0.00000000    0.02449031
     atom    3 type  1   force =     0.00000000    0.00000000   -0.02449031
     atom    4 type  1   force =     0.00000000    0.00000000   -0.02449031
     atom    5 type  2   force =     0.00000000    0.00000000    0.00000000
     atom    6 type  2   force =     0.00000000    0.00000000    0.00000000
     atom    7 type  2   force =     0.00000000    0.02510217    0.00000000
     atom    8 type  2   force =    -0.02173912    0.01255109    0.00000000
     atom    9 type  2   force =     0.02173912    0.01255109    0.00000000
     atom   10 type  2   force =    -0.02173912   -0.01255109    0.00000000
     atom   11 type  2   force =     0.02173912   -0.01255109    0.00000000
     atom   12 type  2   force =     0.00000000   -0.02510217    0.00000000

     Total force =     0.078612     Total SCF correction =     0.000000

     entering subroutine stress ...

          total   stress  (Ry/bohr**3)                   (kbar)     P= 1026.61
   0.00686354   0.00000000   0.00000000       1009.66      0.00      0.00
   0.00000000   0.00686354   0.00000000          0.00   1009.66      0.00
   0.00000000   0.00000000   0.00720919          0.00      0.00   1060.51

     BFGS Geometry Optimization

     number of scf cycles    =   1
     number of bfgs steps    =   0

     enthalpy new            =   -3398.1929152633 Ry

     new trust radius        =       0.5000000000 bohr
     new conv_thr            =       0.0001000000 Ry

     new unit-cell volume =   1646.83385 a.u.^3 (   244.03560 Ang^3 )

CELL_PARAMETERS (alat=  9.92348860)
   1.064515905   0.000000000   0.000000000
  -0.532257953   0.921897817   0.000000000
   0.000000000   0.000000000   1.717203317

ATOMIC_POSITIONS (crystal)
Mg       0.333333000   0.666667000   0.062994982
Mg       0.666667000   0.333333000   0.562994982
Mg       0.666667000   0.333333000   0.937005018
Mg       0.333333000   0.666667000   0.437005018
Zn       0.000000000   0.000000000   0.000000000
Zn       0.000000000   0.000000000   0.500000000
Zn       0.170910117   0.341820233   0.750000000
Zn       0.829089883   0.170910117   0.250000000
Zn       0.341820233   0.170910117   0.250000000
Zn       0.658179767   0.829089883   0.750000000
Zn       0.170910117   0.829089883   0.750000000
Zn       0.829089883   0.658179767   0.250000000

     Writing output data file Prototype-La-hP12-MgZn2.save
     NEW-OLD atomic charge density approx. for the potential
     NEW k-points:
        k(    1) = (   0.0000000   0.0000000   0.0000000), wk =   0.0833333
        k(    2) = (   0.0000000   0.0000000   0.1455856), wk =   0.1666667
        k(    3) = (   0.0000000   0.0000000  -0.2911711), wk =   0.0833333
        k(    4) = (   0.0000000   0.3615730   0.0000000), wk =   0.1666667
        k(    5) = (   0.0000000   0.3615730   0.1455856), wk =   0.3333333
        k(    6) = (   0.0000000   0.3615730  -0.2911711), wk =   0.1666667
        k(    7) = (  -0.4696971  -0.2711797   0.0000000), wk =   0.0833333
        k(    8) = (  -0.4696971  -0.2711797   0.1455856), wk =   0.1666667
        k(    9) = (  -0.4696971  -0.2711797  -0.2911711), wk =   0.0833333
        k(   10) = (  -0.4696971   0.0903932   0.0000000), wk =   0.1666667
        k(   11) = (  -0.4696971   0.0903932   0.1455856), wk =   0.3333333
        k(   12) = (  -0.4696971   0.0903932  -0.2911711), wk =   0.1666667

[...]

     enthalpy old            =   -3398.1929152633 Ry
     enthalpy new            =   -3398.7582575046 Ry

     CASE: enthalpy_new < enthalpy_old

     small trust_radius: resetting bfgs history

     new trust radius        =       0.3703733232 bohr
     new conv_thr            =       0.0000179128 Ry

[...]

     number of scf cycles    =   3
     number of bfgs steps    =   2

     enthalpy old            =   -3398.7582575046 Ry
     enthalpy new            =   -3398.5876641386 Ry

     CASE: enthalpy_new > enthalpy_old

     new trust radius        =       0.1275038804 bohr

     trust_radius < trust_radius_min

     resetting bfgs history

     Message from routine bfgs:
     history already reset at previous step: stopping
     new conv_thr            =       0.0000179128 Ry

     new unit-cell volume =   1423.67800 a.u.^3 (   210.96731 Ang^3 )

[...]

ATOMIC_POSITIONS (crystal)
Mg       0.333333000   0.666667000   0.063202672
Mg       0.666667000   0.333333000   0.563202672
Mg       0.666667000   0.333333000   0.936797328
Mg       0.333333000   0.666667000   0.436797328
Zn       0.000000000   0.000000000   0.000000000
Zn       0.000000000   0.000000000   0.500000000
Zn       0.169835247   0.339670495   0.750000000
Zn       0.830164753   0.169835247   0.250000000
Zn       0.339670495   0.169835247   0.250000000
Zn       0.660329505   0.830164753   0.750000000
Zn       0.169835247   0.830164753   0.750000000
Zn       0.830164753   0.660329505   0.250000000

     Writing output data file Prototype-La-hP12-MgZn2.save
     NEW-OLD atomic charge density approx. for the potential
     NEW k-points:
        k(    1) = (   0.0000000   0.0000000   0.0000000), wk =   0.0833333
        k(    2) = (   0.0000000   0.0000000   0.1527049), wk =   0.1666667
        k(    3) = (   0.0000000   0.0000000  -0.3054098), wk =   0.0833333
        k(    4) = (   0.0000000   0.3797061   0.0000000), wk =   0.1666667
        k(    5) = (   0.0000000   0.3797061   0.1527049), wk =   0.3333333
        k(    6) = (   0.0000000   0.3797061  -0.3054098), wk =   0.1666667
        k(    7) = (  -0.4932527  -0.2847796   0.0000000), wk =   0.0833333
        k(    8) = (  -0.4932527  -0.2847796   0.1527049), wk =   0.1666667
        k(    9) = (  -0.4932527  -0.2847796  -0.3054098), wk =   0.0833333
        k(   10) = (  -0.4932527   0.0949265   0.0000000), wk =   0.1666667
        k(   11) = (  -0.4932527   0.0949265   0.1527049), wk =   0.3333333
        k(   12) = (  -0.4932527   0.0949265  -0.3054098), wk =   0.1666667

[...]

     The maximum number of steps has been reached.

     End of BFGS Geometry Optimization
Begin final coordinates
     new unit-cell volume =   1423.67800 a.u.^3 (   210.96731 Ang^3 )

CELL_PARAMETERS (alat=  9.92348860)
   1.013679096   0.000000000   0.000000000
  -0.506839548   0.877871848   0.000000000
   0.000000000   0.000000000   1.637144588

ATOMIC_POSITIONS (crystal)
Mg       0.333333000   0.666667000   0.063202672
Mg       0.666667000   0.333333000   0.563202672
Mg       0.666667000   0.333333000   0.936797328
Mg       0.333333000   0.666667000   0.436797328
Zn       0.000000000   0.000000000   0.000000000
Zn       0.000000000   0.000000000   0.500000000
Zn       0.169835247   0.339670495   0.750000000
Zn       0.830164753   0.169835247   0.250000000
Zn       0.339670495   0.169835247   0.250000000
Zn       0.660329505   0.830164753   0.750000000
Zn       0.169835247   0.830164753   0.750000000
Zn       0.830164753   0.660329505   0.250000000
End final coordinates

     A final scf calculation at the relaxed structure.
     The G-vectors are recalculated for the final unit cell
     Results may differ from those at the preceding step.

     bravais-lattice index     =            0
     lattice parameter (alat)  =       9.9235  a.u.
     unit-cell volume          =    1423.6780 (a.u.)^3
     number of atoms/cell      =           12
     number of atomic types    =            2
     number of electrons       =       248.00
     number of Kohn-Sham states=          149
     kinetic-energy cutoff     =      40.0000  Ry
     charge density cutoff     =     160.0000  Ry
     convergence threshold     =      1.8E-05
     mixing beta               =       0.7000
     number of iterations used =            8  plain     mixing
     Exchange-correlation      = SLA-PZ-NOGX-NOGC ( 1 1 0 0 0)
     EXX-fraction              =        0.00

     celldm(1)=   9.923489  celldm(2)=   0.000000  celldm(3)=   0.000000
     celldm(4)=   0.000000  celldm(5)=   0.000000  celldm(6)=   0.000000

     crystal axes: (cart. coord. in units of alat)
               a(1) = (   1.013679   0.000000   0.000000 )
               a(2) = (  -0.506840   0.877872   0.000000 )
               a(3) = (   0.000000   0.000000   1.637145 )

     reciprocal axes: (cart. coord. in units 2 pi/alat)
               b(1) = (  0.986505  0.569559  0.000000 )
               b(2) = (  0.000000  1.139118  0.000000 )
               b(3) = (  0.000000  0.000000  0.610820 )

     PseudoPot. # 1 for Er read from file:
     /home/cwx6513/pp.La/Er.UPF
     MD5 check sum: e152ae21b84514339d8526f066caf99b
     Pseudo is Norm-conserving, Zval = 22.0
     Generated in analytical, separable form
     Using radial grid of 1267 points,  6 beta functions with:
                l(1) =   0
                l(2) =   0
                l(3) =   1
                l(4) =   1
                l(5) =   2
                l(6) =   3

     PseudoPot. # 2 for Dy read from file:
     /home/cwx6513/pp.La/Dy.UPF
     MD5 check sum: 9597327bec62616a94a14d07f3fd9936
     Pseudo is Norm-conserving, Zval = 20.0
     Generated in analytical, separable form
     Using radial grid of 1265 points,  6 beta functions with:
                l(1) =   0
                l(2) =   0
                l(3) =   1
                l(4) =   1
                l(5) =   2
                l(6) =   3

     atomic species   valence    mass     pseudopotential
        Mg            22.00    24.30500     Er( 1.00)
        Zn            20.00    65.39000     Dy( 1.00)

     24 Sym. Ops., with inversion, found (12 have fractional translation)

   Cartesian axes

     site n.     atom                  positions (alat units)
         1           Mg  tau(   1) = (  -0.0000005   0.5852482   0.1034719  )
         2           Mg  tau(   2) = (   0.5068401   0.2926237   0.9220442  )
         3           Mg  tau(   3) = (   0.5068401   0.2926237   1.5336727  )
         4           Mg  tau(   4) = (  -0.0000005   0.5852482   0.7151004  )
         5           Zn  tau(   5) = (   0.0000000   0.0000000   0.0000000  )
         6           Zn  tau(   6) = (   0.0000000   0.0000000   0.8185723  )
         7           Zn  tau(   7) = (   0.0000000   0.2981872   1.2278584  )
         8           Zn  tau(   8) = (   0.7554414   0.1490936   0.4092861  )
         9           Zn  tau(   9) = (   0.2582377   0.1490936   0.4092861  )
        10           Zn  tau(  10) = (   0.2486019   0.7287783   1.2278584  )
        11           Zn  tau(  11) = (  -0.2486019   0.7287783   1.2278584  )
        12           Zn  tau(  12) = (   0.5068395   0.5796847   0.4092861  )

     number of k points=    12  gaussian smearing, width (Ry)=  0.1000
                       cart. coord. in units 2pi/alat
        k(    1) = (   0.0000000   0.0000000   0.0000000), wk =   0.0833333
        k(    2) = (   0.0000000   0.0000000   0.1527049), wk =   0.1666667
        k(    3) = (   0.0000000   0.0000000  -0.3054098), wk =   0.0833333
        k(    4) = (   0.0000000   0.3797061   0.0000000), wk =   0.1666667
        k(    5) = (   0.0000000   0.3797061   0.1527049), wk =   0.3333333
        k(    6) = (   0.0000000   0.3797061  -0.3054098), wk =   0.1666667
        k(    7) = (  -0.4932527  -0.2847796   0.0000000), wk =   0.0833333
        k(    8) = (  -0.4932527  -0.2847796   0.1527049), wk =   0.1666667
        k(    9) = (  -0.4932527  -0.2847796  -0.3054098), wk =   0.0833333
        k(   10) = (  -0.4932527   0.0949265   0.0000000), wk =   0.1666667
        k(   11) = (  -0.4932527   0.0949265   0.1527049), wk =   0.3333333
        k(   12) = (  -0.4932527   0.0949265  -0.3054098), wk =   0.1666667

     Largest allocated arrays     est. size (Mb)     dimensions
     Largest temporary arrays     est. size (Mb)     dimensions

     Initial potential from superposition of free atoms

     Starting from uniform charge
     Starting wfc are    0 randomized atomic wfcs

     Writing output data file Prototype-La-hP12-MgZn2.save

     Self-consistent Calculation

[...]

     iteration #  8     ecut=    40.00 Ry     beta=0.70
     CG style diagonalization
     c_bands:  1 eigenvalues not converged
     c_bands:  1 eigenvalues not converged
     c_bands:  1 eigenvalues not converged
     ethr =  3.80E-06,  avg # of iterations =  4.0

[...]

     total energy              =   -3398.96388926 Ry
     Harris-Foulkes estimate   =   -3398.96390368 Ry
     estimated scf accuracy    <       0.00002525 Ry

     iteration # 11     ecut=    40.00 Ry     beta=0.70
     CG style diagonalization
     ethr =  1.02E-08,  avg # of iterations =  3.7

     End of self-consistent calculation

[...]

          k = 0.0000 0.3797-0.3054 (  6070 PWs)   bands (ev):

[...]

          k =-0.4933 0.0949-0.3054 (  6096 PWs)   bands (ev):

   -69.6548 -69.6548 -69.6455 -69.6455 -52.7903 -52.7903 -52.7511 -52.7511
   -52.6849 -52.6849 -52.6789 -52.6789 -31.6421 -31.6421 -31.6409 -31.6409
   -31.6334 -31.6334 -31.6179 -31.6179 -31.6004 -31.6004 -31.5934 -31.5934
   -20.5253 -20.5253 -20.2327 -20.2327 -19.9802 -19.9802 -19.9130 -19.9130
   -19.8536 -19.8536 -19.7996 -19.7995 -19.7016 -19.7016 -19.5726 -19.5726
   -19.4689 -19.4689 -19.4246 -19.4246 -19.3854 -19.3854 -19.3627 -19.3627
    14.6174  14.6174  14.6652  14.6652  14.6977  14.6977  14.8449  14.8450
    14.9126  14.9126  15.0722  15.0722  15.1608  15.1609  15.2328  15.2328
    15.3920  15.3920  15.4708  15.4708  17.4827  17.4827  18.3518  18.3518
    18.7090  18.7090  18.8832  18.8832  19.1212  19.1212  19.2319  19.2319
    19.6394  19.6394  20.0467  20.0467  20.2982  20.2982  20.4572  20.4572
    20.7120  20.7121  21.1285  21.1285  21.3826  21.3826  21.7413  21.7413
    21.9429  21.9429  22.1550  22.1550  22.3598  22.3598  22.6701  22.6701
    22.8012  22.8012  22.9652  22.9652  23.5093  23.5093  24.2064  24.2064
    25.1729  25.1729  27.3787  27.3787  28.6326  28.6326  29.2378  29.2378
    30.3919  30.3919  32.0392  32.0392  33.8576  33.8576  34.6120  34.6120
    35.0625  35.0625  35.7370  35.7370  36.2458  36.2458  36.9055  36.9056
    37.2758  37.2758  37.5051  37.5051  37.8776  37.8776  38.4045  38.4045
    39.0376  39.0377  39.3886  39.3888  39.9112

     the Fermi energy is    32.5324 ev

!    total energy              =   -3398.96389690 Ry
     Harris-Foulkes estimate   =   -3398.96389735 Ry
     estimated scf accuracy    <       0.00000058 Ry

     The total energy is the sum of the following terms:

     one-electron contribution =    -597.62958381 Ry
     hartree contribution      =     500.95689382 Ry
     xc contribution           =    -306.47369802 Ry
     ewald contribution        =   -2995.56611323 Ry
     smearing contrib. (-TS)   =      -0.25139567 Ry

     convergence has been achieved in  11 iterations

     Forces acting on atoms (Ry/au):

     atom    1 type  1   force =     0.00000000    0.00000000    0.01677990
     atom    2 type  1   force =     0.00000000    0.00000000    0.01677990
     atom    3 type  1   force =     0.00000000    0.00000000   -0.01677990
     atom    4 type  1   force =     0.00000000    0.00000000   -0.01677990
     atom    5 type  2   force =     0.00000000    0.00000000    0.00000000
     atom    6 type  2   force =     0.00000000    0.00000000    0.00000000
     atom    7 type  2   force =     0.00000000    0.05215116    0.00000000
     atom    8 type  2   force =    -0.04516423    0.02607558    0.00000000
     atom    9 type  2   force =     0.04516423    0.02607558    0.00000000
     atom   10 type  2   force =    -0.04516423   -0.02607558    0.00000000
     atom   11 type  2   force =     0.04516423   -0.02607558    0.00000000
     atom   12 type  2   force =     0.00000000   -0.05215116    0.00000000

     Total force =     0.132078     Total SCF correction =     0.000000

     entering subroutine stress ...

          total   stress  (Ry/bohr**3)                   (kbar)     P=  740.18
   0.00495323   0.00000000   0.00000000        728.65      0.00      0.00
   0.00000000   0.00495323   0.00000000          0.00    728.65      0.00
   0.00000000   0.00000000   0.00518836          0.00      0.00    763.23

     Writing output data file Prototype-La-hP12-MgZn2.save

     General routines

     Parallel routines

   This run was terminated on:  23:12:12  22Mar2018

   JOB DONE.