     Program PWSCF v.5.0.2 starts on 22Mar2018 at 22:42:44

     Current dimensions of program PWSCF are:
     Max number of different atomic species (ntypx) = 10
     Max number of k-points (npk) =  40000
     Max angular momentum in pseudopotentials (lmaxx) =  3
     Waiting for input...
     Reading input from standard input

     Subspace diagonalization in iterative solution of the eigenvalue problem:
     a serial algorithm will be used

     bravais-lattice index     =            0
     lattice parameter (alat)  =       7.0151  a.u.
     unit-cell volume          =     862.2778 (a.u.)^3
     number of atoms/cell      =           12
     number of atomic types    =            2
     number of electrons       =       256.00
     number of Kohn-Sham states=          154
     kinetic-energy cutoff     =      40.0000  Ry
     charge density cutoff     =     160.0000  Ry
     convergence threshold     =      1.0E-04
     mixing beta               =       0.7000
     number of iterations used =            8  plain     mixing
     Exchange-correlation      = SLA-PZ-NOGX-NOGC ( 1 1 0 0 0)
     EXX-fraction              =        0.00
     nstep                     =           50

     celldm(1)=   7.015105  celldm(2)=   0.000000  celldm(3)=   0.000000
     celldm(4)=   0.000000  celldm(5)=   0.000000  celldm(6)=   0.000000

     crystal axes: (cart. coord. in units of alat)
               a(1) = (   1.000000   0.000000   0.000000 )
               a(2) = (   0.000000   1.315963   0.000000 )
               a(3) = (   0.000000   0.000000   1.898020 )

     reciprocal axes: (cart. coord. in units 2 pi/alat)
               b(1) = (  1.000000  0.000000  0.000000 )
               b(2) = (  0.000000  0.759900  0.000000 )
               b(3) = (  0.000000  0.000000  0.526865 )

     PseudoPot. # 1 for Er read from file:
     /home/cwx6513/pp.La/Er.UPF
     MD5 check sum: e152ae21b84514339d8526f066caf99b
     Pseudo is Norm-conserving, Zval = 22.0
     Generated in analytical, separable form
     Using radial grid of 1267 points,  6 beta functions with:
                l(1) =   0
                l(2) =   0
                l(3) =   1
                l(4) =   1
                l(5) =   2
                l(6) =   3

     PseudoPot. # 2 for Dy read from file:
     /home/cwx6513/pp.La/Dy.UPF
     MD5 check sum: 9597327bec62616a94a14d07f3fd9936
     Pseudo is Norm-conserving, Zval = 20.0
     Generated in analytical, separable form
     Using radial grid of 1265 points,  6 beta functions with:
                l(1) =   0
                l(2) =   0
                l(3) =   1
                l(4) =   1
                l(5) =   2
                l(6) =   3

     atomic species   valence    mass     pseudopotential
        Co            22.00    58.93320     Er( 1.00)
        Si            20.00    28.08550     Dy( 1.00)

      8 Sym. Ops., with inversion, found ( 6 have fractional translation)

   Cartesian axes

     site n.     atom                  positions (alat units)
         1           Co  tau(   1) = (   0.7500000   1.0875135   0.8270358  )
         2           Co  tau(   2) = (   0.2500000   0.2284499   1.0709846  )
         3           Co  tau(   3) = (   0.7500000   0.4295318   0.1219744  )
         4           Co  tau(   4) = (   0.2500000   0.8864316   1.7760460  )
         5           Co  tau(   5) = (   0.2500000   0.7067855   0.5358966  )
         6           Co  tau(   6) = (   0.7500000   0.6091779   1.3621238  )
         7           Co  tau(   7) = (   0.2500000   0.0488038   0.4131136  )
         8           Co  tau(   8) = (   0.7500000   1.2671596   1.4849068  )
         9           Si  tau(   9) = (   0.2500000   0.2669484   1.6960710  )
        10           Si  tau(  10) = (   0.7500000   1.0490149   0.2019494  )
        11           Si  tau(  11) = (   0.2500000   0.9249301   1.1509596  )
        12           Si  tau(  12) = (   0.7500000   0.3910333   0.7470608  )

     number of k points=    12  gaussian smearing, width (Ry)=  0.1000
                       cart. coord. in units 2pi/alat
        k(    1) = (   0.0000000   0.0000000   0.0000000), wk =   0.0833333
        k(    2) = (   0.0000000   0.0000000   0.1317162), wk =   0.1666667
        k(    3) = (   0.0000000   0.0000000  -0.2634324), wk =   0.0833333
        k(    4) = (   0.0000000   0.2532999   0.0000000), wk =   0.1666667
        k(    5) = (   0.0000000   0.2532999   0.1317162), wk =   0.3333333
        k(    6) = (   0.0000000   0.2532999  -0.2634324), wk =   0.1666667
        k(    7) = (  -0.5000000   0.0000000   0.0000000), wk =   0.0833333
        k(    8) = (  -0.5000000   0.0000000   0.1317162), wk =   0.1666667
        k(    9) = (  -0.5000000   0.0000000  -0.2634324), wk =   0.0833333
        k(   10) = (  -0.5000000   0.2532999   0.0000000), wk =   0.1666667
        k(   11) = (  -0.5000000   0.2532999   0.1317162), wk =   0.3333333
        k(   12) = (  -0.5000000   0.2532999  -0.2634324), wk =   0.1666667

     Largest allocated arrays     est. size (Mb)     dimensions
     Largest temporary arrays     est. size (Mb)     dimensions

     Initial potential from superposition of free atoms

     Starting from uniform charge
     Starting wfc are    0 randomized atomic wfcs

     Self-consistent Calculation

     iteration #  1     ecut=    40.00 Ry     beta=0.70
     CG style diagonalization
     c_bands:  1 eigenvalues not converged
     c_bands:  1 eigenvalues not converged
     c_bands:  1 eigenvalues not converged
     c_bands:  2 eigenvalues not converged
     c_bands:  2 eigenvalues not converged
     c_bands:  3 eigenvalues not converged
     c_bands:  1 eigenvalues not converged
     ethr =  1.00E-02,  avg # of iterations = 12.2

     total energy              =   -3367.20707362 Ry
     Harris-Foulkes estimate   =   -4131.04354087 Ry
     estimated scf accuracy    <     985.00374840 Ry

[...]

     iteration #  3     ecut=    40.00 Ry     beta=0.70
     CG style diagonalization
     ethr =  1.00E-02,  avg # of iterations =  5.0

[...]

     End of self-consistent calculation

          k = 0.0000 0.0000 0.0000 (  3675 PWs)   bands (ev):

   -48.5007 -48.4254 -48.4238 -48.4225 -48.3799 -48.3067 -48.2424 -48.2370
   -32.3425 -32.3347 -32.3326 -32.3260 -11.4666 -11.3858 -11.2772 -11.2291
   -11.1256 -11.0542 -11.0282 -11.0196 -10.9879 -10.8960 -10.7573 -10.7448
   -10.6667 -10.6613 -10.6581 -10.6567 -10.5782 -10.5097 -10.4988 -10.4607
   -10.4052 -10.3007 -10.1758 -10.1253  -0.0423   0.0445   0.0873   0.0941
     0.1050   0.1325   0.1335   0.2019   0.4420   0.4887   0.5218   0.5913
    30.2795  30.5835  30.7437  30.7671  30.8363  30.8709  31.2248  31.3521
    31.5804  31.7955  31.9641  32.4141  32.5464  32.7953  32.9869  33.0253
    33.4831  33.5482  33.5586  33.7678  34.1360  34.2972  34.3668  34.3733
    34.5209  34.7674  35.1641  35.1930  35.3444  35.4579  35.6667  35.7202
    35.7932  35.8333  36.0038  36.3336  37.1017  37.1149  37.1458  37.7590
    37.9891  38.2579  38.3606  39.0662  39.8379  40.2775  40.6222  40.9146
    41.0369  41.0686  41.1644  42.1052  42.2468  42.3017  42.5823  42.5951
    43.1537  43.7859  43.8799  43.8985  44.0314  44.2241  44.3907  45.9426
    47.2551  48.9797  49.2668  49.3744  50.7797  52.1287  52.1567  55.0722
    55.1811  55.4842  55.9138  56.1796  56.2360  56.4621  57.1372  57.1857
    57.3877  57.4891  57.5717  57.6079  57.8907  57.9529  58.6104  58.6762
    58.8729  58.8838  58.8853  59.0478  59.0992  59.4954  59.7683  60.1412
    60.2453  60.4827  61.2724  61.4227  61.4486  62.3630  62.8328  62.9348
    63.0091  63.1806

[...]

          k =-0.5000 0.0000 0.0000 (  3722 PWs)   bands (ev):

[...]

     the Fermi energy is    57.1315 ev

!    total energy              =   -3655.51480569 Ry
     Harris-Foulkes estimate   =   -3655.51485048 Ry
     estimated scf accuracy    <       0.00005342 Ry

     The total energy is the sum of the following terms:

     one-electron contribution =     144.78034258 Ry
     hartree contribution      =     326.61164912 Ry
     xc contribution           =    -335.93813744 Ry
     ewald contribution        =   -3790.46730831 Ry
     smearing contrib. (-TS)   =      -0.50135164 Ry

     convergence has been achieved in   9 iterations

     Forces acting on atoms (Ry/au):

     atom    1 type  1   force =     0.00000000   -0.08592009   -0.08952615
     atom    2 type  1   force =     0.00000000    0.08592009    0.08952615
     atom    3 type  1   force =     0.00000000   -0.08592009    0.08952615
     atom    4 type  1   force =     0.00000000    0.08592009   -0.08952615
     atom    5 type  1   force =     0.00000000    0.10590642   -0.16268105
     atom    6 type  1   force =     0.00000000   -0.10590642    0.16268105
     atom    7 type  1   force =     0.00000000    0.10590642    0.16268105
     atom    8 type  1   force =     0.00000000   -0.10590642   -0.16268105
     atom    9 type  2   force =     0.00000000   -0.20780205    0.03388228
     atom   10 type  2   force =     0.00000000    0.20780205   -0.03388228
     atom   11 type  2   force =     0.00000000   -0.20780205   -0.03388228
     atom   12 type  2   force =     0.00000000    0.20780205    0.03388228

     Total force =     0.624206     Total SCF correction =     0.000000

     entering subroutine stress ...

          total   stress  (Ry/bohr**3)                   (kbar)     P= 7726.98
   0.05572290   0.00000000   0.00000000       8197.12      0.00      0.00
   0.00000000   0.05012146   0.00000000          0.00   7373.12      0.00
   0.00000000   0.00000000   0.05173641          0.00      0.00   7610.69

     BFGS Geometry Optimization

     number of scf cycles    =   1
     number of bfgs steps    =   0

     enthalpy new            =   -3655.5148056895 Ry

     new trust radius        =       0.5000000000 bohr
     new conv_thr            =       0.0001000000 Ry

     new unit-cell volume =   1086.96912 a.u.^3 (   161.07220 Ang^3 )

CELL_PARAMETERS (alat=  7.01510508)
   1.085136619   0.000000000   0.000000000
   0.000000000   1.416737781   0.000000000
   0.000000000   0.000000000   2.048051009

ATOMIC_POSITIONS (crystal)
Co       0.750000000   0.825832200   0.435325080
Co       0.250000000   0.174167800   0.564674920
Co       0.750000000   0.325832200   0.064674920
Co       0.250000000   0.674167800   0.935325080
Co       0.250000000   0.537787111   0.281598303
Co       0.750000000   0.462212889   0.718401697
Co       0.250000000   0.037787111   0.218401697
Co       0.750000000   0.962212889   0.781598303
Si       0.250000000   0.201478329   0.893755518
Si       0.750000000   0.798521671   0.106244482
Si       0.250000000   0.701478329   0.606244482
Si       0.750000000   0.298521671   0.393755518

     Writing output data file Prototype-La-oP12-Co2Si.save
     NEW-OLD atomic charge density approx. for the potential
     NEW k-points:
        k(    1) = (   0.0000000   0.0000000   0.0000000), wk =   0.0833333
        k(    2) = (   0.0000000   0.0000000   0.1220673), wk =   0.1666667
        k(    3) = (   0.0000000   0.0000000  -0.2441345), wk =   0.0833333
        k(    4) = (   0.0000000   0.2352823   0.0000000), wk =   0.1666667
        k(    5) = (   0.0000000   0.2352823   0.1220673), wk =   0.3333333
        k(    6) = (   0.0000000   0.2352823  -0.2441345), wk =   0.1666667
        k(    7) = (  -0.4607715   0.0000000   0.0000000), wk =   0.0833333
        k(    8) = (  -0.4607715   0.0000000   0.1220673), wk =   0.1666667
        k(    9) = (  -0.4607715   0.0000000  -0.2441345), wk =   0.0833333
        k(   10) = (  -0.4607715   0.2352823   0.0000000), wk =   0.1666667
        k(   11) = (  -0.4607715   0.2352823   0.1220673), wk =   0.3333333
        k(   12) = (  -0.4607715   0.2352823  -0.2441345), wk =   0.1666667

[...]

     enthalpy old            =   -3655.5148056895 Ry
     enthalpy new            =   -3663.1404091308 Ry

     CASE: enthalpy_new < enthalpy_old

     small trust_radius: resetting bfgs history

     new trust radius        =       3.3965736052 bohr
     new conv_thr            =       0.0000951343 Ry

[...]

          total   stress  (Ry/bohr**3)                   (kbar)     P=-4174.56
  -0.03184242   0.00000000   0.00000000      -4684.18      0.00      0.00
   0.00000000  -0.02610882   0.00000000          0.00  -3840.74      0.00
   0.00000000   0.00000000  -0.02718302          0.00      0.00  -3998.76

     number of scf cycles    =   3
     number of bfgs steps    =   2

     enthalpy old            =   -3663.1404091308 Ry
     enthalpy new            =   -3625.0340054137 Ry

     CASE: enthalpy_new > enthalpy_old

     new trust radius        =       0.8475440787 bohr

     trust_radius < trust_radius_min

     resetting bfgs history

     Message from routine bfgs:
     history already reset at previous step: stopping
     new conv_thr            =       0.0000951343 Ry

     new unit-cell volume =   1275.82947 a.u.^3 (   189.05842 Ang^3 )

[...]

ATOMIC_POSITIONS (crystal)
Co       0.750000000   0.825502584   0.435241954
Co       0.250000000   0.174497416   0.564758046
Co       0.750000000   0.325502584   0.064758046
Co       0.250000000   0.674497416   0.935241954
Co       0.250000000   0.538152123   0.281249766
Co       0.750000000   0.461847877   0.718750234
Co       0.250000000   0.038152123   0.218750234
Co       0.750000000   0.961847877   0.781249766
Si       0.250000000   0.200672821   0.894085751
Si       0.750000000   0.799327179   0.105914249
Si       0.250000000   0.700672821   0.605914249
Si       0.750000000   0.299327179   0.394085751

     Writing output data file Prototype-La-oP12-Co2Si.save
     NEW-OLD atomic charge density approx. for the potential
     NEW k-points:
        k(    1) = (   0.0000000   0.0000000   0.0000000), wk =   0.0833333
        k(    2) = (   0.0000000   0.0000000   0.1160860), wk =   0.1666667
        k(    3) = (   0.0000000   0.0000000  -0.2321720), wk =   0.0833333
        k(    4) = (   0.0000000   0.2244537   0.0000000), wk =   0.1666667
        k(    5) = (   0.0000000   0.2244537   0.1160860), wk =   0.3333333
        k(    6) = (   0.0000000   0.2244537  -0.2321720), wk =   0.1666667
        k(    7) = (  -0.4327053   0.0000000   0.0000000), wk =   0.0833333
        k(    8) = (  -0.4327053   0.0000000   0.1160860), wk =   0.1666667
        k(    9) = (  -0.4327053   0.0000000  -0.2321720), wk =   0.0833333
        k(   10) = (  -0.4327053   0.2244537   0.0000000), wk =   0.1666667
        k(   11) = (  -0.4327053   0.2244537   0.1160860), wk =   0.3333333
        k(   12) = (  -0.4327053   0.2244537  -0.2321720), wk =   0.1666667

[...]

     The maximum number of steps has been reached.

     End of BFGS Geometry Optimization
Begin final coordinates
     new unit-cell volume =   1275.82947 a.u.^3 (   189.05842 Ang^3 )

CELL_PARAMETERS (alat=  7.01510508)
   1.155520922   0.000000000   0.000000000
   0.000000000   1.485087452   0.000000000
   0.000000000   0.000000000   2.153576212

ATOMIC_POSITIONS (crystal)
Co       0.750000000   0.825502584   0.435241954
Co       0.250000000   0.174497416   0.564758046
Co       0.750000000   0.325502584   0.064758046
Co       0.250000000   0.674497416   0.935241954
Co       0.250000000   0.538152123   0.281249766
Co       0.750000000   0.461847877   0.718750234
Co       0.250000000   0.038152123   0.218750234
Co       0.750000000   0.961847877   0.781249766
Si       0.250000000   0.200672821   0.894085751
Si       0.750000000   0.799327179   0.105914249
Si       0.250000000   0.700672821   0.605914249
Si       0.750000000   0.299327179   0.394085751
End final coordinates

     A final scf calculation at the relaxed structure.
     The G-vectors are recalculated for the final unit cell
     Results may differ from those at the preceding step.

     bravais-lattice index     =            0
     lattice parameter (alat)  =       7.0151  a.u.
     unit-cell volume          =    1275.8295 (a.u.)^3
     number of atoms/cell      =           12
     number of atomic types    =            2
     number of electrons       =       256.00
     number of Kohn-Sham states=          154
     kinetic-energy cutoff     =      40.0000  Ry
     charge density cutoff     =     160.0000  Ry
     convergence threshold     =      9.5E-05
     mixing beta               =       0.7000
     number of iterations used =            8  plain     mixing
     Exchange-correlation      = SLA-PZ-NOGX-NOGC ( 1 1 0 0 0)
     EXX-fraction              =        0.00

     celldm(1)=   7.015105  celldm(2)=   0.000000  celldm(3)=   0.000000
     celldm(4)=   0.000000  celldm(5)=   0.000000  celldm(6)=   0.000000

     crystal axes: (cart. coord. in units of alat)
               a(1) = (   1.155521   0.000000   0.000000 )
               a(2) = (   0.000000   1.485087   0.000000 )
               a(3) = (   0.000000   0.000000   2.153576 )

     reciprocal axes: (cart. coord. in units 2 pi/alat)
               b(1) = (  0.865411  0.000000  0.000000 )
               b(2) = (  0.000000  0.673361  0.000000 )
               b(3) = (  0.000000  0.000000  0.464344 )

     PseudoPot. # 1 for Er read from file:
     /home/cwx6513/pp.La/Er.UPF
     MD5 check sum: e152ae21b84514339d8526f066caf99b
     Pseudo is Norm-conserving, Zval = 22.0
     Generated in analytical, separable form
     Using radial grid of 1267 points,  6 beta functions with:
                l(1) =   0
                l(2) =   0
                l(3) =   1
                l(4) =   1
                l(5) =   2
                l(6) =   3

     PseudoPot. # 2 for Dy read from file:
     /home/cwx6513/pp.La/Dy.UPF
     MD5 check sum: 9597327bec62616a94a14d07f3fd9936
     Pseudo is Norm-conserving, Zval = 20.0
     Generated in analytical, separable form
     Using radial grid of 1265 points,  6 beta functions with:
                l(1) =   0
                l(2) =   0
                l(3) =   1
                l(4) =   1
                l(5) =   2
                l(6) =   3

     atomic species   valence    mass     pseudopotential
        Co            22.00    58.93320     Er( 1.00)
        Si            20.00    28.08550     Dy( 1.00)

      8 Sym. Ops., with inversion, found ( 6 have fractional translation)

   Cartesian axes

     site n.     atom                  positions (alat units)
         1           Co  tau(   1) = (   0.8666407   1.2259435   0.9373267  )
         2           Co  tau(   2) = (   0.2888802   0.2591439   1.2162495  )
         3           Co  tau(   3) = (   0.8666407   0.4833998   0.1394614  )
         4           Co  tau(   4) = (   0.2888802   1.0016876   2.0141148  )
         5           Co  tau(   5) = (   0.2888802   0.7992030   0.6056928  )
         6           Co  tau(   6) = (   0.8666407   0.6858845   1.5478834  )
         7           Co  tau(   7) = (   0.2888802   0.0566592   0.4710953  )
         8           Co  tau(   8) = (   0.8666407   1.4284282   1.6824809  )
         9           Si  tau(   9) = (   0.2888802   0.2980167   1.9254818  )
        10           Si  tau(  10) = (   0.8666407   1.1870708   0.2280944  )
        11           Si  tau(  11) = (   0.2888802   1.0405604   1.3048825  )
        12           Si  tau(  12) = (   0.8666407   0.4445270   0.8486937  )

     number of k points=    12  gaussian smearing, width (Ry)=  0.1000
                       cart. coord. in units 2pi/alat
        k(    1) = (   0.0000000   0.0000000   0.0000000), wk =   0.0833333
        k(    2) = (   0.0000000   0.0000000   0.1160860), wk =   0.1666667
        k(    3) = (   0.0000000   0.0000000  -0.2321720), wk =   0.0833333
        k(    4) = (   0.0000000   0.2244537   0.0000000), wk =   0.1666667
        k(    5) = (   0.0000000   0.2244537   0.1160860), wk =   0.3333333
        k(    6) = (   0.0000000   0.2244537  -0.2321720), wk =   0.1666667
        k(    7) = (  -0.4327053   0.0000000   0.0000000), wk =   0.0833333
        k(    8) = (  -0.4327053   0.0000000   0.1160860), wk =   0.1666667
        k(    9) = (  -0.4327053   0.0000000  -0.2321720), wk =   0.0833333
        k(   10) = (  -0.4327053   0.2244537   0.0000000), wk =   0.1666667
        k(   11) = (  -0.4327053   0.2244537   0.1160860), wk =   0.3333333
        k(   12) = (  -0.4327053   0.2244537  -0.2321720), wk =   0.1666667

     Largest allocated arrays     est. size (Mb)     dimensions
     Largest temporary arrays     est. size (Mb)     dimensions

     Initial potential from superposition of free atoms

     Starting from uniform charge
     Starting wfc are    0 randomized atomic wfcs

     Writing output data file Prototype-La-oP12-Co2Si.save

     Self-consistent Calculation

[...]

     iteration #  7     ecut=    40.00 Ry     beta=0.70
     CG style diagonalization
     ethr =  1.29E-04,  avg # of iterations =  3.7

[...]

     total energy              =   -3670.94885303 Ry
     Harris-Foulkes estimate   =   -3670.94893525 Ry
     estimated scf accuracy    <       0.00017211 Ry

     iteration # 10     ecut=    40.00 Ry     beta=0.70
     CG style diagonalization
     c_bands:  1 eigenvalues not converged
     ethr =  6.72E-08,  avg # of iterations =  3.8

     End of self-consistent calculation

[...]

          k = 0.0000 0.2245-0.2322 (  5466 PWs)   bands (ev):

[...]

          k =-0.4327 0.2245-0.2322 (  5472 PWs)   bands (ev):

   -65.2872 -65.2872 -65.2844 -65.2844 -65.1760 -65.1760 -65.1687 -65.1687
   -48.0853 -48.0853 -48.0852 -48.0852 -27.4380 -27.4380 -27.4131 -27.4131
   -27.3861 -27.3861 -27.3764 -27.3764 -27.3307 -27.3307 -27.3163 -27.3163
   -27.2925 -27.2925 -27.2290 -27.2290 -27.2286 -27.2286 -27.2179 -27.2179
   -27.1767 -27.1767 -27.1461 -27.1461 -15.2480 -15.2480 -15.2436 -15.2436
   -15.2198 -15.2198 -15.2183 -15.2183 -15.0929 -15.0929 -15.0883 -15.0883
    17.5870  17.5870  17.8487  17.8487  17.9855  17.9855  18.0870  18.0870
    18.1684  18.1684  18.2805  18.2805  18.3396  18.3396  18.6056  18.6056
    18.6996  18.6996  18.7460  18.7460  18.7614  18.7614  19.0802  19.0802
    19.1470  19.1470  19.2312  19.2312  19.3118  19.3118  19.3997  19.3997
    19.6351  19.6351  19.9024  19.9024  19.9861  19.9861  20.3963  20.3963
    22.9852  22.9852  23.0431  23.0431  24.5665  24.5665  24.5675  24.5675
    25.1798  25.1798  25.2552  25.2552  25.6905  25.6905  25.7622  25.7622
    26.0076  26.0076  26.1008  26.1008  26.4089  26.4089  26.7737  26.7737
    28.6422  28.6422  28.8229  28.8229  30.7789  30.7789  33.2002  33.2002
    34.3850  34.3850  34.7157  34.7157  36.4819  36.4819  37.1455  37.1455
    39.7306  39.7306  40.5501  40.5502  41.1288  41.1289  41.2161  41.2161
    41.6687  41.6688  41.7039  41.7039  42.5274  42.5274  42.6013  42.6014
    42.8810  42.8810  43.0553  43.0554  43.2965  43.2966  43.8190  43.8191
    43.9149  43.9150

     the Fermi energy is    37.7107 ev

!    total energy              =   -3670.94886859 Ry
     Harris-Foulkes estimate   =   -3670.94890633 Ry
     estimated scf accuracy    <       0.00004667 Ry

     The total energy is the sum of the following terms:

     one-electron contribution =    -513.86335515 Ry
     hartree contribution      =     495.44516606 Ry
     xc contribution           =    -324.75476786 Ry
     ewald contribution        =   -3327.43871169 Ry
     smearing contrib. (-TS)   =      -0.33719995 Ry

     convergence has been achieved in  10 iterations

     Forces acting on atoms (Ry/au):

     atom    1 type  1   force =     0.00000000   -0.04767713   -0.01407074
     atom    2 type  1   force =     0.00000000    0.04767713    0.01407074
     atom    3 type  1   force =     0.00000000   -0.04767713    0.01407074
     atom    4 type  1   force =     0.00000000    0.04767713   -0.01407074
     atom    5 type  1   force =     0.00000000    0.02361570   -0.02850192
     atom    6 type  1   force =     0.00000000   -0.02361570    0.02850192
     atom    7 type  1   force =     0.00000000    0.02361570    0.02850192
     atom    8 type  1   force =     0.00000000   -0.02361570   -0.02850192
     atom    9 type  2   force =     0.00000000   -0.06707643    0.03113403
     atom   10 type  2   force =     0.00000000    0.06707643   -0.03113403
     atom   11 type  2   force =     0.00000000   -0.06707643   -0.03113403
     atom   12 type  2   force =     0.00000000    0.06707643    0.03113403

     Total force =     0.192974     Total SCF correction =     0.000000

     entering subroutine stress ...

          total   stress  (Ry/bohr**3)                   (kbar)     P= 1593.93
   0.01213374   0.00000000   0.00000000       1784.94      0.00      0.00
   0.00000000   0.01003265   0.00000000          0.00   1475.85      0.00
   0.00000000   0.00000000   0.01033960          0.00      0.00   1521.01

     Writing output data file Prototype-La-oP12-Co2Si.save

     General routines

     Parallel routines

   This run was terminated on:  23: 9:10  22Mar2018

   JOB DONE.