     Program PWSCF v.5.0.2 starts on 22Mar2018 at 21:35:35

     Current dimensions of program PWSCF are:
     Max number of different atomic species (ntypx) = 10
     Max number of k-points (npk) =  40000
     Max angular momentum in pseudopotentials (lmaxx) =  3
     Waiting for input...
     Reading input from standard input

     Subspace diagonalization in iterative solution of the eigenvalue problem:
     a serial algorithm will be used

     bravais-lattice index     =            0
     lattice parameter (alat)  =       7.0151  a.u.
     unit-cell volume          =     862.2778 (a.u.)^3
     number of atoms/cell      =           12
     number of atomic types    =            2
     number of electrons       =       240.00
     number of Kohn-Sham states=          144
     kinetic-energy cutoff     =      40.0000  Ry
     charge density cutoff     =     160.0000  Ry
     convergence threshold     =      1.0E-04
     mixing beta               =       0.7000
     number of iterations used =            8  plain     mixing
     Exchange-correlation      = SLA-PZ-NOGX-NOGC ( 1 1 0 0 0)
     EXX-fraction              =        0.00
     nstep                     =           50

     celldm(1)=   7.015105  celldm(2)=   0.000000  celldm(3)=   0.000000
     celldm(4)=   0.000000  celldm(5)=   0.000000  celldm(6)=   0.000000

     crystal axes: (cart. coord. in units of alat)
               a(1) = (   1.000000   0.000000   0.000000 )
               a(2) = (   0.000000   1.315963   0.000000 )
               a(3) = (   0.000000   0.000000   1.898020 )

     reciprocal axes: (cart. coord. in units 2 pi/alat)
               b(1) = (  1.000000  0.000000  0.000000 )
               b(2) = (  0.000000  0.759900  0.000000 )
               b(3) = (  0.000000  0.000000  0.526865 )

     PseudoPot. # 1 for Tm read from file:
     /home/cwx6513/pp.La/Tm.UPF
     MD5 check sum: 245516e0878b5372ceeb9443ded2c4e1
     Pseudo is Norm-conserving, Zval = 23.0
     Generated in analytical, separable form
     Using radial grid of 1269 points,  6 beta functions with:
                l(1) =   0
                l(2) =   0
                l(3) =   1
                l(4) =   1
                l(5) =   2
                l(6) =   3

     PseudoPot. # 2 for Nd read from file:
     /home/cwx6513/pp.La/Nd.UPF
     MD5 check sum: c66c5b6abe7b5840ced9b1e244e3bed6
     Pseudo is Norm-conserving, Zval = 14.0
     Generated in analytical, separable form
     Using radial grid of 1257 points,  6 beta functions with:
                l(1) =   0
                l(2) =   0
                l(3) =   1
                l(4) =   1
                l(5) =   2
                l(6) =   3

     atomic species   valence    mass     pseudopotential
        Co            23.00    58.93320     Tm( 1.00)
        Si            14.00    28.08550     Nd( 1.00)

      8 Sym. Ops., with inversion, found ( 6 have fractional translation)

   Cartesian axes

     site n.     atom                  positions (alat units)
         1           Co  tau(   1) = (   0.7500000   1.0875135   0.8270358  )
         2           Co  tau(   2) = (   0.2500000   0.2284499   1.0709846  )
         3           Co  tau(   3) = (   0.7500000   0.4295318   0.1219744  )
         4           Co  tau(   4) = (   0.2500000   0.8864316   1.7760460  )
         5           Co  tau(   5) = (   0.2500000   0.7067855   0.5358966  )
         6           Co  tau(   6) = (   0.7500000   0.6091779   1.3621238  )
         7           Co  tau(   7) = (   0.2500000   0.0488038   0.4131136  )
         8           Co  tau(   8) = (   0.7500000   1.2671596   1.4849068  )
         9           Si  tau(   9) = (   0.2500000   0.2669484   1.6960710  )
        10           Si  tau(  10) = (   0.7500000   1.0490149   0.2019494  )
        11           Si  tau(  11) = (   0.2500000   0.9249301   1.1509596  )
        12           Si  tau(  12) = (   0.7500000   0.3910333   0.7470608  )

     number of k points=    12  gaussian smearing, width (Ry)=  0.1000
                       cart. coord. in units 2pi/alat
        k(    1) = (   0.0000000   0.0000000   0.0000000), wk =   0.0833333
        k(    2) = (   0.0000000   0.0000000   0.1317162), wk =   0.1666667
        k(    3) = (   0.0000000   0.0000000  -0.2634324), wk =   0.0833333
        k(    4) = (   0.0000000   0.2532999   0.0000000), wk =   0.1666667
        k(    5) = (   0.0000000   0.2532999   0.1317162), wk =   0.3333333
        k(    6) = (   0.0000000   0.2532999  -0.2634324), wk =   0.1666667
        k(    7) = (  -0.5000000   0.0000000   0.0000000), wk =   0.0833333
        k(    8) = (  -0.5000000   0.0000000   0.1317162), wk =   0.1666667
        k(    9) = (  -0.5000000   0.0000000  -0.2634324), wk =   0.0833333
        k(   10) = (  -0.5000000   0.2532999   0.0000000), wk =   0.1666667
        k(   11) = (  -0.5000000   0.2532999   0.1317162), wk =   0.3333333
        k(   12) = (  -0.5000000   0.2532999  -0.2634324), wk =   0.1666667

     Largest allocated arrays     est. size (Mb)     dimensions
     Largest temporary arrays     est. size (Mb)     dimensions

     Initial potential from superposition of free atoms

     Starting from uniform charge
     Starting wfc are    0 randomized atomic wfcs

     Self-consistent Calculation

     iteration #  1     ecut=    40.00 Ry     beta=0.70
     CG style diagonalization
     ethr =  1.00E-02,  avg # of iterations = 16.9

     total energy              =   -2422.72998403 Ry
     Harris-Foulkes estimate   =   -4047.87423251 Ry
     estimated scf accuracy    <    1990.50785487 Ry

     iteration #  2     ecut=    40.00 Ry     beta=0.70
     CG style diagonalization
     c_bands:  3 eigenvalues not converged
     c_bands:  2 eigenvalues not converged
     c_bands:  5 eigenvalues not converged
     c_bands:  1 eigenvalues not converged
     c_bands:  2 eigenvalues not converged
     c_bands:  4 eigenvalues not converged
     ethr =  1.00E-02,  avg # of iterations = 15.6

[...]

     End of self-consistent calculation

          k = 0.0000 0.0000 0.0000 (  3675 PWs)   bands (ev):

   -59.3218 -59.3070 -59.2578 -59.2178 -59.2156 -59.2019 -59.1848 -59.1663
   -18.8890 -18.7706 -18.6708 -18.6047 -18.5196 -18.5033 -18.4596 -18.3867
   -18.3268 -18.3153 -18.2873 -18.2659 -18.2409 -18.1786 -18.1628 -18.1375
   -18.1269 -18.0984 -18.0425 -18.0366 -18.0167 -17.9311 -17.9165 -17.8699
     3.4602   3.7737   3.7996   3.8837  21.1452  21.6512  21.8328  21.8919
    22.3308  22.3714  22.4465  22.7632  23.1068  23.1211  23.8854  24.5663
    26.6107  26.8084  26.9006  26.9399  27.2579  27.3760  27.4595  27.7256
    28.5472  28.6426  28.6711  28.8027  28.8386  28.8747  29.4604  29.4996
    29.5915  29.8759  30.0118  30.0782  30.1182  30.2566  30.2839  30.3666
    30.4472  30.5382  30.8972  31.2411  31.8404  31.9198  32.0447  32.2052
    32.2244  32.2519  32.6114  32.6176  32.9858  33.1364  33.2601  33.5030
    33.9230  37.9285  39.4266  39.5456  42.6045  43.4620  43.4963  44.3381
    44.4460  45.1202  45.6119  45.7410  46.8072  47.1146  47.3391  47.7272
    47.8034  48.3126  48.6790  48.7885  49.4415  49.9961  50.6106  50.8964
    51.2525  51.4043  51.6029  52.4336  54.0209  54.1141  54.1488  55.6651
    55.8863  56.0628  56.4945  56.6225  56.6461  56.8965  56.9047  56.9425
    57.1928  58.0266  58.2387  58.3182  59.0117  59.5124  59.5848  59.7517
    59.7844  60.2331  60.4143  60.8201  60.8245  61.4110  61.4326  61.4642

[...]

          k =-0.5000 0.0000 0.0000 (  3722 PWs)   bands (ev):

[...]

     the Fermi energy is    54.7494 ev

!    total energy              =   -3362.88796969 Ry
     Harris-Foulkes estimate   =   -3362.88802444 Ry
     estimated scf accuracy    <       0.00006381 Ry

     The total energy is the sum of the following terms:

     one-electron contribution =      11.17668206 Ry
     hartree contribution      =     351.43391239 Ry
     xc contribution           =    -310.57213760 Ry
     ewald contribution        =   -3414.59780574 Ry
     smearing contrib. (-TS)   =      -0.32862081 Ry

     convergence has been achieved in  10 iterations

     Forces acting on atoms (Ry/au):

     atom    1 type  1   force =     0.00000000   -0.13177818   -0.11820655
     atom    2 type  1   force =     0.00000000    0.13177818    0.11820655
     atom    3 type  1   force =     0.00000000   -0.13177818    0.11820655
     atom    4 type  1   force =     0.00000000    0.13177818   -0.11820655
     atom    5 type  1   force =     0.00000000    0.14763815   -0.10500036
     atom    6 type  1   force =     0.00000000   -0.14763815    0.10500036
     atom    7 type  1   force =     0.00000000    0.14763815    0.10500036
     atom    8 type  1   force =     0.00000000   -0.14763815   -0.10500036
     atom    9 type  2   force =     0.00000000   -0.22820141   -0.03299412
     atom   10 type  2   force =     0.00000000    0.22820141    0.03299412
     atom   11 type  2   force =     0.00000000   -0.22820141    0.03299412
     atom   12 type  2   force =     0.00000000    0.22820141   -0.03299412

     Total force =     0.685054     Total SCF correction =     0.000000

     entering subroutine stress ...

          total   stress  (Ry/bohr**3)                   (kbar)     P= 7216.34
   0.05239754   0.00000000   0.00000000       7707.94      0.00      0.00
   0.00000000   0.04583364   0.00000000          0.00   6742.36      0.00
   0.00000000   0.00000000   0.04893589          0.00      0.00   7198.72

     BFGS Geometry Optimization

     number of scf cycles    =   1
     number of bfgs steps    =   0

     enthalpy new            =   -3362.8879696872 Ry

     new trust radius        =       0.5000000000 bohr
     new conv_thr            =       0.0001000000 Ry

     new unit-cell volume =   1085.31056 a.u.^3 (   160.82643 Ang^3 )

CELL_PARAMETERS (alat=  7.01510508)
   1.085136619   0.000000000   0.000000000
   0.000000000   1.413965099   0.000000000
   0.000000000   0.000000000   2.048935925

ATOMIC_POSITIONS (crystal)
Co       0.750000000   0.825473250   0.435159005
Co       0.250000000   0.174526750   0.564840995
Co       0.750000000   0.325473250   0.064840995
Co       0.250000000   0.674526750   0.935159005
Co       0.250000000   0.538125408   0.281832468
Co       0.750000000   0.461874592   0.718167532
Co       0.250000000   0.038125408   0.218167532
Co       0.750000000   0.961874592   0.781832468
Si       0.250000000   0.201247407   0.893438948
Si       0.750000000   0.798752593   0.106561052
Si       0.250000000   0.701247407   0.606561052
Si       0.750000000   0.298752593   0.393438948

     Writing output data file Prototype-La-oP12-Co2Si.save
     NEW-OLD atomic charge density approx. for the potential
     NEW k-points:
        k(    1) = (   0.0000000   0.0000000   0.0000000), wk =   0.0833333
        k(    2) = (   0.0000000   0.0000000   0.1220146), wk =   0.1666667
        k(    3) = (   0.0000000   0.0000000  -0.2440291), wk =   0.0833333
        k(    4) = (   0.0000000   0.2357437   0.0000000), wk =   0.1666667
        k(    5) = (   0.0000000   0.2357437   0.1220146), wk =   0.3333333
        k(    6) = (   0.0000000   0.2357437  -0.2440291), wk =   0.1666667
        k(    7) = (  -0.4607715   0.0000000   0.0000000), wk =   0.0833333
        k(    8) = (  -0.4607715   0.0000000   0.1220146), wk =   0.1666667
        k(    9) = (  -0.4607715   0.0000000  -0.2440291), wk =   0.0833333
        k(   10) = (  -0.4607715   0.2357437   0.0000000), wk =   0.1666667
        k(   11) = (  -0.4607715   0.2357437   0.1220146), wk =   0.3333333
        k(   12) = (  -0.4607715   0.2357437  -0.2440291), wk =   0.1666667

[...]

     enthalpy old            =   -3362.8879696872 Ry
     enthalpy new            =   -3369.5821981573 Ry

     CASE: enthalpy_new < enthalpy_old

     small trust_radius: resetting bfgs history

     new trust radius        =       2.5531579244 bohr
     new conv_thr            =       0.0001000000 Ry

[...]

          total   stress  (Ry/bohr**3)                   (kbar)     P=-4215.87
  -0.03025276   0.00000000   0.00000000      -4450.33      0.00      0.00
   0.00000000  -0.02683713   0.00000000          0.00  -3947.88      0.00
   0.00000000   0.00000000  -0.02888690          0.00      0.00  -4249.41

     number of scf cycles    =   3
     number of bfgs steps    =   2

     enthalpy old            =   -3369.5821981573 Ry
     enthalpy new            =   -3341.0957547087 Ry

     CASE: enthalpy_new > enthalpy_old

     new trust radius        =       0.5717776532 bohr

     trust_radius < trust_radius_min

     resetting bfgs history

     Message from routine bfgs:
     history already reset at previous step: stopping
     new conv_thr            =       0.0001000000 Ry

     new unit-cell volume =   1297.22918 a.u.^3 (   192.22953 Ang^3 )

[...]

ATOMIC_POSITIONS (crystal)
Co       0.750000000   0.824875641   0.434914075
Co       0.250000000   0.175124359   0.565085925
Co       0.750000000   0.324875641   0.065085925
Co       0.250000000   0.675124359   0.934914075
Co       0.250000000   0.539327191   0.281313534
Co       0.750000000   0.460672809   0.718686466
Co       0.250000000   0.039327191   0.218686466
Co       0.750000000   0.960672809   0.781313534
Si       0.250000000   0.199709961   0.893346383
Si       0.750000000   0.800290039   0.106653617
Si       0.250000000   0.699709961   0.606653617
Si       0.750000000   0.300290039   0.393346383

     Writing output data file Prototype-La-oP12-Co2Si.save
     NEW-OLD atomic charge density approx. for the potential
     NEW k-points:
        k(    1) = (   0.0000000   0.0000000   0.0000000), wk =   0.0833333
        k(    2) = (   0.0000000   0.0000000   0.1148092), wk =   0.1666667
        k(    3) = (   0.0000000   0.0000000  -0.2296184), wk =   0.0833333
        k(    4) = (   0.0000000   0.2233708   0.0000000), wk =   0.1666667
        k(    5) = (   0.0000000   0.2233708   0.1148092), wk =   0.3333333
        k(    6) = (   0.0000000   0.2233708  -0.2296184), wk =   0.1666667
        k(    7) = (  -0.4323857   0.0000000   0.0000000), wk =   0.0833333
        k(    8) = (  -0.4323857   0.0000000   0.1148092), wk =   0.1666667
        k(    9) = (  -0.4323857   0.0000000  -0.2296184), wk =   0.0833333
        k(   10) = (  -0.4323857   0.2233708   0.0000000), wk =   0.1666667
        k(   11) = (  -0.4323857   0.2233708   0.1148092), wk =   0.3333333
        k(   12) = (  -0.4323857   0.2233708  -0.2296184), wk =   0.1666667

[...]

     The maximum number of steps has been reached.

     End of BFGS Geometry Optimization
Begin final coordinates
     new unit-cell volume =   1297.22918 a.u.^3 (   192.22953 Ang^3 )

CELL_PARAMETERS (alat=  7.01510508)
   1.156374889   0.000000000   0.000000000
   0.000000000   1.492286737   0.000000000
   0.000000000   0.000000000   2.177525424

ATOMIC_POSITIONS (crystal)
Co       0.750000000   0.824875641   0.434914075
Co       0.250000000   0.175124359   0.565085925
Co       0.750000000   0.324875641   0.065085925
Co       0.250000000   0.675124359   0.934914075
Co       0.250000000   0.539327191   0.281313534
Co       0.750000000   0.460672809   0.718686466
Co       0.250000000   0.039327191   0.218686466
Co       0.750000000   0.960672809   0.781313534
Si       0.250000000   0.199709961   0.893346383
Si       0.750000000   0.800290039   0.106653617
Si       0.250000000   0.699709961   0.606653617
Si       0.750000000   0.300290039   0.393346383
End final coordinates

     A final scf calculation at the relaxed structure.
     The G-vectors are recalculated for the final unit cell
     Results may differ from those at the preceding step.

     bravais-lattice index     =            0
     lattice parameter (alat)  =       7.0151  a.u.
     unit-cell volume          =    1297.2292 (a.u.)^3
     number of atoms/cell      =           12
     number of atomic types    =            2
     number of electrons       =       240.00
     number of Kohn-Sham states=          144
     kinetic-energy cutoff     =      40.0000  Ry
     charge density cutoff     =     160.0000  Ry
     convergence threshold     =      1.0E-04
     mixing beta               =       0.7000
     number of iterations used =            8  plain     mixing
     Exchange-correlation      = SLA-PZ-NOGX-NOGC ( 1 1 0 0 0)
     EXX-fraction              =        0.00

     celldm(1)=   7.015105  celldm(2)=   0.000000  celldm(3)=   0.000000
     celldm(4)=   0.000000  celldm(5)=   0.000000  celldm(6)=   0.000000

     crystal axes: (cart. coord. in units of alat)
               a(1) = (   1.156375   0.000000   0.000000 )
               a(2) = (   0.000000   1.492287   0.000000 )
               a(3) = (   0.000000   0.000000   2.177525 )

     reciprocal axes: (cart. coord. in units 2 pi/alat)
               b(1) = (  0.864771  0.000000  0.000000 )
               b(2) = (  0.000000  0.670113  0.000000 )
               b(3) = (  0.000000  0.000000  0.459237 )

     PseudoPot. # 1 for Tm read from file:
     /home/cwx6513/pp.La/Tm.UPF
     MD5 check sum: 245516e0878b5372ceeb9443ded2c4e1
     Pseudo is Norm-conserving, Zval = 23.0
     Generated in analytical, separable form
     Using radial grid of 1269 points,  6 beta functions with:
                l(1) =   0
                l(2) =   0
                l(3) =   1
                l(4) =   1
                l(5) =   2
                l(6) =   3

     PseudoPot. # 2 for Nd read from file:
     /home/cwx6513/pp.La/Nd.UPF
     MD5 check sum: c66c5b6abe7b5840ced9b1e244e3bed6
     Pseudo is Norm-conserving, Zval = 14.0
     Generated in analytical, separable form
     Using radial grid of 1257 points,  6 beta functions with:
                l(1) =   0
                l(2) =   0
                l(3) =   1
                l(4) =   1
                l(5) =   2
                l(6) =   3

     atomic species   valence    mass     pseudopotential
        Co            23.00    58.93320     Tm( 1.00)
        Si            14.00    28.08550     Nd( 1.00)

      8 Sym. Ops., with inversion, found ( 6 have fractional translation)

   Cartesian axes

     site n.     atom                  positions (alat units)
         1           Co  tau(   1) = (   0.8672812   1.2309510   0.9470365  )
         2           Co  tau(   2) = (   0.2890937   0.2613358   1.2304890  )
         3           Co  tau(   3) = (   0.8672812   0.4848076   0.1417263  )
         4           Co  tau(   4) = (   0.2890937   1.0074791   2.0357992  )
         5           Co  tau(   5) = (   0.2890937   0.8048308   0.6125674  )
         6           Co  tau(   6) = (   0.8672812   0.6874559   1.5649581  )
         7           Co  tau(   7) = (   0.2890937   0.0586874   0.4761953  )
         8           Co  tau(   8) = (   0.8672812   1.4335993   1.7013301  )
         9           Si  tau(   9) = (   0.2890937   0.2980245   1.9452845  )
        10           Si  tau(  10) = (   0.8672812   1.1942622   0.2322410  )
        11           Si  tau(  11) = (   0.2890937   1.0441679   1.3210037  )
        12           Si  tau(  12) = (   0.8672812   0.4481188   0.8565217  )

     number of k points=    12  gaussian smearing, width (Ry)=  0.1000
                       cart. coord. in units 2pi/alat
        k(    1) = (   0.0000000   0.0000000   0.0000000), wk =   0.0833333
        k(    2) = (   0.0000000   0.0000000   0.1148092), wk =   0.1666667
        k(    3) = (   0.0000000   0.0000000  -0.2296184), wk =   0.0833333
        k(    4) = (   0.0000000   0.2233708   0.0000000), wk =   0.1666667
        k(    5) = (   0.0000000   0.2233708   0.1148092), wk =   0.3333333
        k(    6) = (   0.0000000   0.2233708  -0.2296184), wk =   0.1666667
        k(    7) = (  -0.4323857   0.0000000   0.0000000), wk =   0.0833333
        k(    8) = (  -0.4323857   0.0000000   0.1148092), wk =   0.1666667
        k(    9) = (  -0.4323857   0.0000000  -0.2296184), wk =   0.0833333
        k(   10) = (  -0.4323857   0.2233708   0.0000000), wk =   0.1666667
        k(   11) = (  -0.4323857   0.2233708   0.1148092), wk =   0.3333333
        k(   12) = (  -0.4323857   0.2233708  -0.2296184), wk =   0.1666667

     Largest allocated arrays     est. size (Mb)     dimensions
     Largest temporary arrays     est. size (Mb)     dimensions

     Initial potential from superposition of free atoms

     Starting from uniform charge
     Starting wfc are    0 randomized atomic wfcs

     Writing output data file Prototype-La-oP12-Co2Si.save

     Self-consistent Calculation

[...]

     iteration # 10     ecut=    40.00 Ry     beta=0.70
     CG style diagonalization
     c_bands:  1 eigenvalues not converged
     ethr =  3.87E-07,  avg # of iterations =  3.6

     total energy              =   -3376.96848149 Ry
     Harris-Foulkes estimate   =   -3376.96856077 Ry
     estimated scf accuracy    <       0.00013783 Ry

     iteration # 11     ecut=    40.00 Ry     beta=0.70
     CG style diagonalization
     ethr =  5.74E-08,  avg # of iterations =  3.8

     End of self-consistent calculation

[...]

          k = 0.0000 0.2234-0.2296 (  5522 PWs)   bands (ev):

[...]

          k =-0.4324 0.2234-0.2296 (  5548 PWs)   bands (ev):

   -76.4615 -76.4615 -76.4599 -76.4599 -76.3272 -76.3272 -76.3034 -76.3034
   -35.2819 -35.2819 -35.2074 -35.2074 -35.1961 -35.1961 -35.1934 -35.1934
   -35.1662 -35.1662 -35.1567 -35.1567 -35.0822 -35.0822 -35.0684 -35.0684
   -35.0548 -35.0548 -35.0445 -35.0445 -35.0234 -35.0234 -35.0129 -35.0129
   -12.3639 -12.3639 -12.3541 -12.3541   7.9663   7.9663   8.0881   8.0881
     8.1927   8.1927   8.2117   8.2117   8.4972   8.4972   8.5209   8.5209
    12.6253  12.6253  12.9452  12.9452  13.0009  13.0009  13.1220  13.1220
    13.1353  13.1353  13.3131  13.3131  13.4158  13.4158  13.5315  13.5315
    13.5696  13.5696  13.7004  13.7004  13.8075  13.8075  13.8356  13.8356
    13.8989  13.8989  14.0107  14.0107  14.0378  14.0378  14.1909  14.1909
    14.2029  14.2029  14.4664  14.4664  14.5192  14.5192  14.5281  14.5281
    22.3841  22.3841  22.9966  22.9966  24.3257  24.3257  24.8282  24.8282
    28.6571  28.6571  28.8761  28.8761  29.4002  29.4002  29.6976  29.6976
    30.6875  30.6875  31.5722  31.5722  32.1009  32.1009  32.3929  32.3929
    32.7191  32.7191  33.5811  33.5811  35.2515  35.2515  35.5022  35.5022
    36.6298  36.6298  37.4400  37.4400  38.1862  38.1862  38.2833  38.2833
    39.5766  39.5766  40.0448  40.0449  40.2329  40.2330  40.9028  40.9028
    41.1840  41.1840  41.7428  41.7428  42.0501  42.0502  42.5910  42.5912

     the Fermi energy is    36.0648 ev

!    total energy              =   -3376.96852529 Ry
     Harris-Foulkes estimate   =   -3376.96853127 Ry
     estimated scf accuracy    <       0.00000544 Ry

     The total energy is the sum of the following terms:

     one-electron contribution =    -601.27896000 Ry
     hartree contribution      =     503.50171672 Ry
     xc contribution           =    -298.28726155 Ry
     ewald contribution        =   -2980.51956140 Ry
     smearing contrib. (-TS)   =      -0.38445906 Ry

     convergence has been achieved in  11 iterations

     Forces acting on atoms (Ry/au):

     atom    1 type  1   force =     0.00000000   -0.03674260   -0.01275148
     atom    2 type  1   force =     0.00000000    0.03674260    0.01275148
     atom    3 type  1   force =     0.00000000   -0.03674260    0.01275148
     atom    4 type  1   force =     0.00000000    0.03674260   -0.01275148
     atom    5 type  1   force =     0.00000000    0.06224470   -0.02798238
     atom    6 type  1   force =     0.00000000   -0.06224470    0.02798238
     atom    7 type  1   force =     0.00000000    0.06224470    0.02798238
     atom    8 type  1   force =     0.00000000   -0.06224470   -0.02798238
     atom    9 type  2   force =     0.00000000   -0.07880260   -0.00973065
     atom   10 type  2   force =     0.00000000    0.07880260    0.00973065
     atom   11 type  2   force =     0.00000000   -0.07880260    0.00973065
     atom   12 type  2   force =     0.00000000    0.07880260   -0.00973065

     Total force =     0.223379     Total SCF correction =     0.000000

     entering subroutine stress ...

          total   stress  (Ry/bohr**3)                   (kbar)     P= 1127.49
   0.00791636   0.00000000   0.00000000       1164.54      0.00      0.00
   0.00000000   0.00730303   0.00000000          0.00   1074.31      0.00
   0.00000000   0.00000000   0.00777420          0.00      0.00   1143.62

     Writing output data file Prototype-La-oP12-Co2Si.save

     General routines

     Parallel routines

   This run was terminated on:  22: 2: 8  22Mar2018

   JOB DONE.