     Program PWSCF v.5.0.2 starts on 22Mar2018 at 21:35:34

     Current dimensions of program PWSCF are:
     Max number of different atomic species (ntypx) = 10
     Max number of k-points (npk) =  40000
     Max angular momentum in pseudopotentials (lmaxx) =  3
     Waiting for input...
     Reading input from standard input

     Subspace diagonalization in iterative solution of the eigenvalue problem:
     a serial algorithm will be used

     bravais-lattice index     =            0
     lattice parameter (alat)  =       8.5346  a.u.
     unit-cell volume          =     621.6493 (a.u.)^3
     number of atoms/cell      =            8
     number of atomic types    =            2
     number of electrons       =       166.00
     number of Kohn-Sham states=          100
     kinetic-energy cutoff     =      40.0000  Ry
     charge density cutoff     =     160.0000  Ry
     convergence threshold     =      1.0E-04
     mixing beta               =       0.7000
     number of iterations used =            8  plain     mixing
     Exchange-correlation      = SLA-PZ-NOGX-NOGC ( 1 1 0 0 0)
     EXX-fraction              =        0.00
     nstep                     =           50

     celldm(1)=   8.534573  celldm(2)=   0.000000  celldm(3)=   0.000000
     celldm(4)=   0.000000  celldm(5)=   0.000000  celldm(6)=   0.000000

     crystal axes: (cart. coord. in units of alat)
               a(1) = (   1.000000   0.000000   0.000000 )
               a(2) = (   0.000000   1.000000   0.000000 )
               a(3) = (   0.000000   0.000000   1.000000 )

     reciprocal axes: (cart. coord. in units 2 pi/alat)
               b(1) = (  1.000000  0.000000  0.000000 )
               b(2) = (  0.000000  1.000000  0.000000 )
               b(3) = (  0.000000  0.000000  1.000000 )

     PseudoPot. # 1 for Tm read from file:
     /home/cwx6513/pp.La/Tm.UPF
     MD5 check sum: 245516e0878b5372ceeb9443ded2c4e1
     Pseudo is Norm-conserving, Zval = 23.0
     Generated in analytical, separable form
     Using radial grid of 1269 points,  6 beta functions with:
                l(1) =   0
                l(2) =   0
                l(3) =   1
                l(4) =   1
                l(5) =   2
                l(6) =   3

     PseudoPot. # 2 for Nd read from file:
     /home/cwx6513/pp.La/Nd.UPF
     MD5 check sum: c66c5b6abe7b5840ced9b1e244e3bed6
     Pseudo is Norm-conserving, Zval = 14.0
     Generated in analytical, separable form
     Using radial grid of 1257 points,  6 beta functions with:
                l(1) =   0
                l(2) =   0
                l(3) =   1
                l(4) =   1
                l(5) =   2
                l(6) =   3

     atomic species   valence    mass     pseudopotential
        Cr            23.00    51.99610     Tm( 1.00)
        Si            14.00    28.08550     Nd( 1.00)

     48 Sym. Ops., with inversion, found (24 have fractional translation)

   Cartesian axes

     site n.     atom                  positions (alat units)
         1           Cr  tau(   1) = (   0.0000000   0.5000000   0.2500000  )
         2           Cr  tau(   2) = (   0.0000000   0.5000000   0.7500000  )
         3           Cr  tau(   3) = (   0.5000000   0.7500000   0.0000000  )
         4           Cr  tau(   4) = (   0.5000000   0.2500000   0.0000000  )
         5           Cr  tau(   5) = (   0.7500000   0.0000000   0.5000000  )
         6           Cr  tau(   6) = (   0.2500000   0.0000000   0.5000000  )
         7           Si  tau(   7) = (   0.5000000   0.5000000   0.5000000  )
         8           Si  tau(   8) = (   0.0000000   0.0000000   0.0000000  )

     number of k points=    48  gaussian smearing, width (Ry)=  0.1000
                       cart. coord. in units 2pi/alat
        k(    1) = (   0.0000000   0.0000000   0.0000000), wk =   0.0095238
        k(    2) = (   0.0000000   0.0000000   0.1428571), wk =   0.0190476
        k(    3) = (   0.0000000   0.0000000   0.2857143), wk =   0.0190476
        k(    4) = (   0.0000000   0.0000000   0.4285714), wk =   0.0190476
        k(    5) = (   0.0000000   0.1666667   0.0000000), wk =   0.0190476
        k(    6) = (   0.0000000   0.1666667   0.1428571), wk =   0.0380952
        k(    7) = (   0.0000000   0.1666667   0.2857143), wk =   0.0380952
        k(    8) = (   0.0000000   0.1666667   0.4285714), wk =   0.0380952
        k(    9) = (   0.0000000   0.3333333   0.0000000), wk =   0.0190476
        k(   10) = (   0.0000000   0.3333333   0.1428571), wk =   0.0380952
        k(   11) = (   0.0000000   0.3333333   0.2857143), wk =   0.0380952
        k(   12) = (   0.0000000   0.3333333   0.4285714), wk =   0.0380952
        k(   13) = (   0.0000000  -0.5000000   0.0000000), wk =   0.0095238
        k(   14) = (   0.0000000  -0.5000000   0.1428571), wk =   0.0190476
        k(   15) = (   0.0000000  -0.5000000   0.2857143), wk =   0.0190476
        k(   16) = (   0.0000000  -0.5000000   0.4285714), wk =   0.0190476
        k(   17) = (   0.2000000   0.0000000   0.0000000), wk =   0.0190476
        k(   18) = (   0.2000000   0.0000000   0.1428571), wk =   0.0380952
        k(   19) = (   0.2000000   0.0000000   0.2857143), wk =   0.0380952
        k(   20) = (   0.2000000   0.0000000   0.4285714), wk =   0.0380952
        k(   21) = (   0.2000000   0.1666667   0.0000000), wk =   0.0380952
        k(   22) = (   0.2000000   0.1666667   0.1428571), wk =   0.0761905
        k(   23) = (   0.2000000   0.1666667   0.2857143), wk =   0.0761905
        k(   24) = (   0.2000000   0.1666667   0.4285714), wk =   0.0761905
        k(   25) = (   0.2000000   0.3333333   0.0000000), wk =   0.0380952
        k(   26) = (   0.2000000   0.3333333   0.1428571), wk =   0.0761905
        k(   27) = (   0.2000000   0.3333333   0.2857143), wk =   0.0761905
        k(   28) = (   0.2000000   0.3333333   0.4285714), wk =   0.0761905
        k(   29) = (   0.2000000  -0.5000000   0.0000000), wk =   0.0190476
        k(   30) = (   0.2000000  -0.5000000   0.1428571), wk =   0.0380952
        k(   31) = (   0.2000000  -0.5000000   0.2857143), wk =   0.0380952
        k(   32) = (   0.2000000  -0.5000000   0.4285714), wk =   0.0380952
        k(   33) = (   0.4000000   0.0000000   0.0000000), wk =   0.0190476
        k(   34) = (   0.4000000   0.0000000   0.1428571), wk =   0.0380952
        k(   35) = (   0.4000000   0.0000000   0.2857143), wk =   0.0380952
        k(   36) = (   0.4000000   0.0000000   0.4285714), wk =   0.0380952
        k(   37) = (   0.4000000   0.1666667   0.0000000), wk =   0.0380952
        k(   38) = (   0.4000000   0.1666667   0.1428571), wk =   0.0761905
        k(   39) = (   0.4000000   0.1666667   0.2857143), wk =   0.0761905
        k(   40) = (   0.4000000   0.1666667   0.4285714), wk =   0.0761905
        k(   41) = (   0.4000000   0.3333333   0.0000000), wk =   0.0380952
        k(   42) = (   0.4000000   0.3333333   0.1428571), wk =   0.0761905
        k(   43) = (   0.4000000   0.3333333   0.2857143), wk =   0.0761905
        k(   44) = (   0.4000000   0.3333333   0.4285714), wk =   0.0761905
        k(   45) = (   0.4000000  -0.5000000   0.0000000), wk =   0.0190476
        k(   46) = (   0.4000000  -0.5000000   0.1428571), wk =   0.0380952
        k(   47) = (   0.4000000  -0.5000000   0.2857143), wk =   0.0380952
        k(   48) = (   0.4000000  -0.5000000   0.4285714), wk =   0.0380952

     Largest allocated arrays     est. size (Mb)     dimensions
     Largest temporary arrays     est. size (Mb)     dimensions

     Initial potential from superposition of free atoms

     Starting from uniform charge
     Starting wfc are    0 randomized atomic wfcs

     Self-consistent Calculation

     iteration #  1     ecut=    40.00 Ry     beta=0.70
     CG style diagonalization
     c_bands:  5 eigenvalues not converged
     c_bands:  5 eigenvalues not converged
     ethr =  1.00E-02,  avg # of iterations = 16.6

     total energy              =   -1877.03807761 Ry
     Harris-Foulkes estimate   =   -2940.77497568 Ry
     estimated scf accuracy    <    1304.80619235 Ry

[...]

     iteration #  4     ecut=    40.00 Ry     beta=0.70
     CG style diagonalization
     ethr =  1.00E-02,  avg # of iterations =  4.1

[...]

     End of self-consistent calculation

          k = 0.0000 0.0000 0.0000 (  2601 PWs)   bands (ev):

   -62.3835 -62.3835 -62.2569 -61.9860 -61.9860 -61.9860 -22.6690 -22.6690
   -22.5640 -21.2786 -21.2786 -21.2786 -20.9460 -20.9460 -20.9460 -20.8617
   -20.8617 -20.8617 -20.7836 -20.7836 -20.7836 -20.5321 -20.5321 -20.5321
     1.4495   1.5165  20.3445  20.3445  20.3445  20.5632  20.5632  20.5632
    22.0570  22.0614  22.0614  24.5637  24.5637  24.5637  25.5441  26.4450
    26.4450  26.5160  26.5160  26.5160  27.4527  27.4527  27.4527  27.4953
    28.4628  28.4628  28.4628  28.9427  28.9427  29.0928  29.0928  29.0928
    29.1399  29.1399  29.1399  29.6572  30.5268  30.5268  30.5268  35.7808
    35.7808  42.3990  42.3990  42.6588  42.6588  42.6588  43.0836  43.0836
    43.0836  43.8373  43.8373  43.8373  47.0437  47.4766  47.4766  47.4766
    50.8779  50.8779  50.8779  52.4959  52.4959  53.3995  53.3995  53.8190
    54.4299  54.4300  54.4300  56.9649  57.3444  57.3445  57.3448  57.4038
    57.4039  57.4040  57.4755  58.6167

[...]

     the Fermi energy is    52.0037 ev

!    total energy              =   -2414.82084923 Ry
     Harris-Foulkes estimate   =   -2414.82086343 Ry
     estimated scf accuracy    <       0.00001931 Ry

     The total energy is the sum of the following terms:

     one-electron contribution =    -107.73824129 Ry
     hartree contribution      =     277.48598930 Ry
     xc contribution           =    -216.42631738 Ry
     ewald contribution        =   -2367.90065019 Ry
     smearing contrib. (-TS)   =      -0.24162967 Ry

     convergence has been achieved in   9 iterations

     Forces acting on atoms (Ry/au):

     atom    1 type  1   force =     0.00000000    0.00000000    0.00000000
     atom    2 type  1   force =     0.00000000    0.00000000    0.00000000
     atom    3 type  1   force =     0.00000000    0.00000000    0.00000000
     atom    4 type  1   force =     0.00000000    0.00000000    0.00000000
     atom    5 type  1   force =     0.00000000    0.00000000    0.00000000
     atom    6 type  1   force =     0.00000000    0.00000000    0.00000000
     atom    7 type  2   force =     0.00000000    0.00000000    0.00000000
     atom    8 type  2   force =     0.00000000    0.00000000    0.00000000

     Total force =     0.000000     Total SCF correction =     0.000000

     entering subroutine stress ...

          total   stress  (Ry/bohr**3)                   (kbar)     P= 5550.02
   0.03772828   0.00000000   0.00000000       5550.02      0.00      0.00
   0.00000000   0.03772828   0.00000000          0.00   5550.02      0.00
   0.00000000   0.00000000   0.03772828          0.00      0.00   5550.02

     BFGS Geometry Optimization

     number of scf cycles    =   1
     number of bfgs steps    =   0

     enthalpy new            =   -2414.8208492305 Ry

     new trust radius        =       0.5000000000 bohr
     new conv_thr            =       0.0001000000 Ry
[...]

     number of scf cycles    =   3
     number of bfgs steps    =   2

     enthalpy old            =   -2418.6545640566 Ry
     enthalpy new            =   -2416.7820435718 Ry

     CASE: enthalpy_new > enthalpy_old

     new trust radius        =       0.1254181480 bohr

     trust_radius < trust_radius_min

     resetting bfgs history

     Message from routine bfgs:
     history already reset at previous step: stopping
     new conv_thr            =       0.0000010000 Ry

     new unit-cell volume =   1050.42376 a.u.^3 (   155.65674 Ang^3 )

[...]

ATOMIC_POSITIONS (crystal)
Cr       0.000000000   0.500000000   0.250000000
Cr       0.000000000   0.500000000   0.750000000
Cr       0.500000000   0.750000000   0.000000000
Cr       0.500000000   0.250000000   0.000000000
Cr       0.750000000   0.000000000   0.500000000
Cr       0.250000000   0.000000000   0.500000000
Si       0.500000000   0.500000000   0.500000000
Si       0.000000000   0.000000000   0.000000000

     Writing output data file Prototype-La-cP8-Cr3Si.save
     NEW-OLD atomic charge density approx. for the potential
     NEW k-points:
        k(    1) = (   0.0000000   0.0000000   0.0000000), wk =   0.0095238
        k(    2) = (   0.0000000   0.0000000   0.1199395), wk =   0.0190476
        k(    3) = (   0.0000000   0.0000000   0.2398790), wk =   0.0190476
        k(    4) = (   0.0000000   0.0000000   0.3598185), wk =   0.0190476
        k(    5) = (   0.0000000   0.1399294   0.0000000), wk =   0.0190476
        k(    6) = (   0.0000000   0.1399294   0.1199395), wk =   0.0380952
        k(    7) = (   0.0000000   0.1399294   0.2398790), wk =   0.0380952
        k(    8) = (   0.0000000   0.1399294   0.3598185), wk =   0.0380952
        k(    9) = (   0.0000000   0.2798588   0.0000000), wk =   0.0190476
        k(   10) = (   0.0000000   0.2798588   0.1199395), wk =   0.0380952
        k(   11) = (   0.0000000   0.2798588   0.2398790), wk =   0.0380952
        k(   12) = (   0.0000000   0.2798588   0.3598185), wk =   0.0380952
        k(   13) = (   0.0000000  -0.4197883   0.0000000), wk =   0.0095238
        k(   14) = (   0.0000000  -0.4197883   0.1199395), wk =   0.0190476
        k(   15) = (   0.0000000  -0.4197883   0.2398790), wk =   0.0190476
        k(   16) = (   0.0000000  -0.4197883   0.3598185), wk =   0.0190476
        k(   17) = (   0.1679153   0.0000000   0.0000000), wk =   0.0190476
        k(   18) = (   0.1679153   0.0000000   0.1199395), wk =   0.0380952
        k(   19) = (   0.1679153   0.0000000   0.2398790), wk =   0.0380952
        k(   20) = (   0.1679153   0.0000000   0.3598185), wk =   0.0380952
        k(   21) = (   0.1679153   0.1399294   0.0000000), wk =   0.0380952
        k(   22) = (   0.1679153   0.1399294   0.1199395), wk =   0.0761905
        k(   23) = (   0.1679153   0.1399294   0.2398790), wk =   0.0761905
        k(   24) = (   0.1679153   0.1399294   0.3598185), wk =   0.0761905
        k(   25) = (   0.1679153   0.2798588   0.0000000), wk =   0.0380952
        k(   26) = (   0.1679153   0.2798588   0.1199395), wk =   0.0761905
        k(   27) = (   0.1679153   0.2798588   0.2398790), wk =   0.0761905
        k(   28) = (   0.1679153   0.2798588   0.3598185), wk =   0.0761905
        k(   29) = (   0.1679153  -0.4197883   0.0000000), wk =   0.0190476
        k(   30) = (   0.1679153  -0.4197883   0.1199395), wk =   0.0380952
        k(   31) = (   0.1679153  -0.4197883   0.2398790), wk =   0.0380952
        k(   32) = (   0.1679153  -0.4197883   0.3598185), wk =   0.0380952
        k(   33) = (   0.3358306   0.0000000   0.0000000), wk =   0.0190476
        k(   34) = (   0.3358306   0.0000000   0.1199395), wk =   0.0380952
        k(   35) = (   0.3358306   0.0000000   0.2398790), wk =   0.0380952
        k(   36) = (   0.3358306   0.0000000   0.3598185), wk =   0.0380952
        k(   37) = (   0.3358306   0.1399294   0.0000000), wk =   0.0380952
        k(   38) = (   0.3358306   0.1399294   0.1199395), wk =   0.0761905
        k(   39) = (   0.3358306   0.1399294   0.2398790), wk =   0.0761905
        k(   40) = (   0.3358306   0.1399294   0.3598185), wk =   0.0761905
        k(   41) = (   0.3358306   0.2798588   0.0000000), wk =   0.0380952
        k(   42) = (   0.3358306   0.2798588   0.1199395), wk =   0.0761905
        k(   43) = (   0.3358306   0.2798588   0.2398790), wk =   0.0761905
        k(   44) = (   0.3358306   0.2798588   0.3598185), wk =   0.0761905
        k(   45) = (   0.3358306  -0.4197883   0.0000000), wk =   0.0190476
        k(   46) = (   0.3358306  -0.4197883   0.1199395), wk =   0.0380952
        k(   47) = (   0.3358306  -0.4197883   0.2398790), wk =   0.0380952
        k(   48) = (   0.3358306  -0.4197883   0.3598185), wk =   0.0380952

[...]

          total   stress  (Ry/bohr**3)                   (kbar)     P=-1575.84
  -0.01071231   0.00000000   0.00000000      -1575.84      0.00      0.00
   0.00000000  -0.01071231   0.00000000          0.00  -1575.84      0.00
   0.00000000   0.00000000  -0.01071231          0.00      0.00  -1575.84

     The maximum number of steps has been reached.

     End of BFGS Geometry Optimization
Begin final coordinates
     new unit-cell volume =   1050.42376 a.u.^3 (   155.65674 Ang^3 )

CELL_PARAMETERS (alat=  8.53457320)
   1.191076635   0.000000000   0.000000000
   0.000000000   1.191076635   0.000000000
   0.000000000   0.000000000   1.191076635

ATOMIC_POSITIONS (crystal)
Cr       0.000000000   0.500000000   0.250000000
Cr       0.000000000   0.500000000   0.750000000
Cr       0.500000000   0.750000000   0.000000000
Cr       0.500000000   0.250000000   0.000000000
Cr       0.750000000   0.000000000   0.500000000
Cr       0.250000000   0.000000000   0.500000000
Si       0.500000000   0.500000000   0.500000000
Si       0.000000000   0.000000000   0.000000000
End final coordinates

     A final scf calculation at the relaxed structure.
     The G-vectors are recalculated for the final unit cell
     Results may differ from those at the preceding step.

     bravais-lattice index     =            0
     lattice parameter (alat)  =       8.5346  a.u.
     unit-cell volume          =    1050.4238 (a.u.)^3
     number of atoms/cell      =            8
     number of atomic types    =            2
     number of electrons       =       166.00
     number of Kohn-Sham states=          100
     kinetic-energy cutoff     =      40.0000  Ry
     charge density cutoff     =     160.0000  Ry
     convergence threshold     =      1.0E-06
     mixing beta               =       0.7000
     number of iterations used =            8  plain     mixing
     Exchange-correlation      = SLA-PZ-NOGX-NOGC ( 1 1 0 0 0)
     EXX-fraction              =        0.00

     celldm(1)=   8.534573  celldm(2)=   0.000000  celldm(3)=   0.000000
     celldm(4)=   0.000000  celldm(5)=   0.000000  celldm(6)=   0.000000

     crystal axes: (cart. coord. in units of alat)
               a(1) = (   1.191077   0.000000   0.000000 )
               a(2) = (   0.000000   1.191077   0.000000 )
               a(3) = (   0.000000   0.000000   1.191077 )

     reciprocal axes: (cart. coord. in units 2 pi/alat)
               b(1) = (  0.839577  0.000000  0.000000 )
               b(2) = (  0.000000  0.839577  0.000000 )
               b(3) = (  0.000000  0.000000  0.839577 )

     PseudoPot. # 1 for Tm read from file:
     /home/cwx6513/pp.La/Tm.UPF
     MD5 check sum: 245516e0878b5372ceeb9443ded2c4e1
     Pseudo is Norm-conserving, Zval = 23.0
     Generated in analytical, separable form
     Using radial grid of 1269 points,  6 beta functions with:
                l(1) =   0
                l(2) =   0
                l(3) =   1
                l(4) =   1
                l(5) =   2
                l(6) =   3

     PseudoPot. # 2 for Nd read from file:
     /home/cwx6513/pp.La/Nd.UPF
     MD5 check sum: c66c5b6abe7b5840ced9b1e244e3bed6
     Pseudo is Norm-conserving, Zval = 14.0
     Generated in analytical, separable form
     Using radial grid of 1257 points,  6 beta functions with:
                l(1) =   0
                l(2) =   0
                l(3) =   1
                l(4) =   1
                l(5) =   2
                l(6) =   3

     atomic species   valence    mass     pseudopotential
        Cr            23.00    51.99610     Tm( 1.00)
        Si            14.00    28.08550     Nd( 1.00)

     48 Sym. Ops., with inversion, found (24 have fractional translation)

   Cartesian axes

     site n.     atom                  positions (alat units)
         1           Cr  tau(   1) = (   0.0000000   0.5955383   0.2977692  )
         2           Cr  tau(   2) = (   0.0000000   0.5955383   0.8933075  )
         3           Cr  tau(   3) = (   0.5955383   0.8933075   0.0000000  )
         4           Cr  tau(   4) = (   0.5955383   0.2977692   0.0000000  )
         5           Cr  tau(   5) = (   0.8933075   0.0000000   0.5955383  )
         6           Cr  tau(   6) = (   0.2977692   0.0000000   0.5955383  )
         7           Si  tau(   7) = (   0.5955383   0.5955383   0.5955383  )
         8           Si  tau(   8) = (   0.0000000   0.0000000   0.0000000  )

     number of k points=    48  gaussian smearing, width (Ry)=  0.1000
                       cart. coord. in units 2pi/alat
        k(    1) = (   0.0000000   0.0000000   0.0000000), wk =   0.0095238
        k(    2) = (   0.0000000   0.0000000   0.1199395), wk =   0.0190476
        k(    3) = (   0.0000000   0.0000000   0.2398790), wk =   0.0190476
        k(    4) = (   0.0000000   0.0000000   0.3598185), wk =   0.0190476
        k(    5) = (   0.0000000   0.1399294   0.0000000), wk =   0.0190476
        k(    6) = (   0.0000000   0.1399294   0.1199395), wk =   0.0380952
        k(    7) = (   0.0000000   0.1399294   0.2398790), wk =   0.0380952
        k(    8) = (   0.0000000   0.1399294   0.3598185), wk =   0.0380952
        k(    9) = (   0.0000000   0.2798588   0.0000000), wk =   0.0190476
        k(   10) = (   0.0000000   0.2798588   0.1199395), wk =   0.0380952
        k(   11) = (   0.0000000   0.2798588   0.2398790), wk =   0.0380952
        k(   12) = (   0.0000000   0.2798588   0.3598185), wk =   0.0380952
        k(   13) = (   0.0000000  -0.4197883   0.0000000), wk =   0.0095238
        k(   14) = (   0.0000000  -0.4197883   0.1199395), wk =   0.0190476
        k(   15) = (   0.0000000  -0.4197883   0.2398790), wk =   0.0190476
        k(   16) = (   0.0000000  -0.4197883   0.3598185), wk =   0.0190476
        k(   17) = (   0.1679153   0.0000000   0.0000000), wk =   0.0190476
        k(   18) = (   0.1679153   0.0000000   0.1199395), wk =   0.0380952
        k(   19) = (   0.1679153   0.0000000   0.2398790), wk =   0.0380952
        k(   20) = (   0.1679153   0.0000000   0.3598185), wk =   0.0380952
        k(   21) = (   0.1679153   0.1399294   0.0000000), wk =   0.0380952
        k(   22) = (   0.1679153   0.1399294   0.1199395), wk =   0.0761905
        k(   23) = (   0.1679153   0.1399294   0.2398790), wk =   0.0761905
        k(   24) = (   0.1679153   0.1399294   0.3598185), wk =   0.0761905
        k(   25) = (   0.1679153   0.2798588   0.0000000), wk =   0.0380952
        k(   26) = (   0.1679153   0.2798588   0.1199395), wk =   0.0761905
        k(   27) = (   0.1679153   0.2798588   0.2398790), wk =   0.0761905
        k(   28) = (   0.1679153   0.2798588   0.3598185), wk =   0.0761905
        k(   29) = (   0.1679153  -0.4197883   0.0000000), wk =   0.0190476
        k(   30) = (   0.1679153  -0.4197883   0.1199395), wk =   0.0380952
        k(   31) = (   0.1679153  -0.4197883   0.2398790), wk =   0.0380952
        k(   32) = (   0.1679153  -0.4197883   0.3598185), wk =   0.0380952
        k(   33) = (   0.3358306   0.0000000   0.0000000), wk =   0.0190476
        k(   34) = (   0.3358306   0.0000000   0.1199395), wk =   0.0380952
        k(   35) = (   0.3358306   0.0000000   0.2398790), wk =   0.0380952
        k(   36) = (   0.3358306   0.0000000   0.3598185), wk =   0.0380952
        k(   37) = (   0.3358306   0.1399294   0.0000000), wk =   0.0380952
        k(   38) = (   0.3358306   0.1399294   0.1199395), wk =   0.0761905
        k(   39) = (   0.3358306   0.1399294   0.2398790), wk =   0.0761905
        k(   40) = (   0.3358306   0.1399294   0.3598185), wk =   0.0761905
        k(   41) = (   0.3358306   0.2798588   0.0000000), wk =   0.0380952
        k(   42) = (   0.3358306   0.2798588   0.1199395), wk =   0.0761905
        k(   43) = (   0.3358306   0.2798588   0.2398790), wk =   0.0761905
        k(   44) = (   0.3358306   0.2798588   0.3598185), wk =   0.0761905
        k(   45) = (   0.3358306  -0.4197883   0.0000000), wk =   0.0190476
        k(   46) = (   0.3358306  -0.4197883   0.1199395), wk =   0.0380952
        k(   47) = (   0.3358306  -0.4197883   0.2398790), wk =   0.0380952
        k(   48) = (   0.3358306  -0.4197883   0.3598185), wk =   0.0380952

     Largest allocated arrays     est. size (Mb)     dimensions
     Largest temporary arrays     est. size (Mb)     dimensions

     Initial potential from superposition of free atoms

     Starting from uniform charge
     Starting wfc are    0 randomized atomic wfcs

     Writing output data file Prototype-La-cP8-Cr3Si.save

     Self-consistent Calculation

[...]

     negative rho (up, down):  0.205E-05 0.000E+00

[...]

     negative rho (up, down):  0.166E-05 0.000E+00

[...]

     iteration # 12     ecut=    40.00 Ry     beta=0.70
     CG style diagonalization
     c_bands:  1 eigenvalues not converged
     ethr =  8.08E-09,  avg # of iterations =  4.5

     total energy              =   -2424.20082681 Ry
     Harris-Foulkes estimate   =   -2424.20082868 Ry
     estimated scf accuracy    <       0.00000314 Ry

     iteration # 13     ecut=    40.00 Ry     beta=0.70
     CG style diagonalization
     ethr =  1.89E-09,  avg # of iterations =  3.7

     End of self-consistent calculation

[...]

          k = 0.3358-0.4198 0.3598 (  4510 PWs)   bands (ev):

   -82.2715 -82.2696 -82.2693 -82.2656 -82.2624 -82.2566 -41.1377 -41.1234
   -41.0901 -41.0901 -41.0526 -41.0349 -40.8751 -40.8736 -40.8722 -40.8715
   -40.8705 -40.8675 -40.8671 -40.8660 -40.8642 -40.8627 -40.8563 -40.8554
   -18.2213 -18.2213   3.0222   3.0238   3.0247   3.0263   3.0281   3.0283
     7.1453   7.2637   7.5610   7.5613   7.6364   7.6441   7.6747   7.6938
     7.7961   7.8041   7.8174   7.8600   7.8611   7.8769   7.9431   7.9446
     8.1629   8.1629   8.2161   8.2187   8.2521   8.2566   8.2663   8.2940
     8.4039   8.4060   8.4074   8.4129   8.4255   8.4398  17.1277  17.1363
    17.7811  17.7825  18.3244  18.3353  22.5738  22.5740  25.7521  25.7544
    25.8577  25.8624  26.8955  26.9795  27.2891  27.3532  27.6810  27.7001
    28.6188  28.6254  29.3891  29.3962  30.1847  30.6058  32.0154  32.2143
    32.6391  32.7474  33.0478  33.1690  34.3955  34.3956  34.9386  34.9499
    35.1665  35.2506  35.9418  35.9695

     the Fermi energy is    29.9625 ev

!    total energy              =   -2424.20082742 Ry
     Harris-Foulkes estimate   =   -2424.20082759 Ry
     estimated scf accuracy    <       0.00000020 Ry

     The total energy is the sum of the following terms:

     one-electron contribution =    -654.92098837 Ry
     hartree contribution      =     426.29913913 Ry
     xc contribution           =    -207.28138528 Ry
     ewald contribution        =   -1988.03383508 Ry
     smearing contrib. (-TS)   =      -0.26375782 Ry

     convergence has been achieved in  13 iterations

     Forces acting on atoms (Ry/au):

     atom    1 type  1   force =     0.00000000    0.00000000    0.00000000
     atom    2 type  1   force =     0.00000000    0.00000000    0.00000000
     atom    3 type  1   force =     0.00000000    0.00000000    0.00000000
     atom    4 type  1   force =     0.00000000    0.00000000    0.00000000
     atom    5 type  1   force =     0.00000000    0.00000000    0.00000000
     atom    6 type  1   force =     0.00000000    0.00000000    0.00000000
     atom    7 type  2   force =     0.00000000    0.00000000    0.00000000
     atom    8 type  2   force =     0.00000000    0.00000000    0.00000000

     Total force =     0.000000     Total SCF correction =     0.000000

     entering subroutine stress ...

          total   stress  (Ry/bohr**3)                   (kbar)     P=  139.10
   0.00094561   0.00000000   0.00000000        139.10      0.00      0.00
   0.00000000   0.00094561   0.00000000          0.00    139.10      0.00
   0.00000000   0.00000000   0.00094561          0.00      0.00    139.10

     Writing output data file Prototype-La-cP8-Cr3Si.save

     General routines

     Parallel routines

   This run was terminated on:  22: 3:28  22Mar2018

   JOB DONE.