     Program PWSCF v.5.0.2 starts on 22Mar2018 at 22:42:42

     Current dimensions of program PWSCF are:
     Max number of different atomic species (ntypx) = 10
     Max number of k-points (npk) =  40000
     Max angular momentum in pseudopotentials (lmaxx) =  3
     Waiting for input...
     Reading input from standard input

     Subspace diagonalization in iterative solution of the eigenvalue problem:
     a serial algorithm will be used

     bravais-lattice index     =            0
     lattice parameter (alat)  =       8.5346  a.u.
     unit-cell volume          =     621.6493 (a.u.)^3
     number of atoms/cell      =            8
     number of atomic types    =            2
     number of electrons       =       172.00
     number of Kohn-Sham states=          103
     kinetic-energy cutoff     =      40.0000  Ry
     charge density cutoff     =     160.0000  Ry
     convergence threshold     =      1.0E-04
     mixing beta               =       0.7000
     number of iterations used =            8  plain     mixing
     Exchange-correlation      = SLA-PZ-NOGX-NOGC ( 1 1 0 0 0)
     EXX-fraction              =        0.00
     nstep                     =           50

     celldm(1)=   8.534573  celldm(2)=   0.000000  celldm(3)=   0.000000
     celldm(4)=   0.000000  celldm(5)=   0.000000  celldm(6)=   0.000000

     crystal axes: (cart. coord. in units of alat)
               a(1) = (   1.000000   0.000000   0.000000 )
               a(2) = (   0.000000   1.000000   0.000000 )
               a(3) = (   0.000000   0.000000   1.000000 )

     reciprocal axes: (cart. coord. in units 2 pi/alat)
               b(1) = (  1.000000  0.000000  0.000000 )
               b(2) = (  0.000000  1.000000  0.000000 )
               b(3) = (  0.000000  0.000000  1.000000 )

     PseudoPot. # 1 for Er read from file:
     /home/cwx6513/pp.La/Er.UPF
     MD5 check sum: e152ae21b84514339d8526f066caf99b
     Pseudo is Norm-conserving, Zval = 22.0
     Generated in analytical, separable form
     Using radial grid of 1267 points,  6 beta functions with:
                l(1) =   0
                l(2) =   0
                l(3) =   1
                l(4) =   1
                l(5) =   2
                l(6) =   3

     PseudoPot. # 2 for Dy read from file:
     /home/cwx6513/pp.La/Dy.UPF
     MD5 check sum: 9597327bec62616a94a14d07f3fd9936
     Pseudo is Norm-conserving, Zval = 20.0
     Generated in analytical, separable form
     Using radial grid of 1265 points,  6 beta functions with:
                l(1) =   0
                l(2) =   0
                l(3) =   1
                l(4) =   1
                l(5) =   2
                l(6) =   3

     atomic species   valence    mass     pseudopotential
        Cr            22.00    51.99610     Er( 1.00)
        Si            20.00    28.08550     Dy( 1.00)

     48 Sym. Ops., with inversion, found (24 have fractional translation)

   Cartesian axes

     site n.     atom                  positions (alat units)
         1           Cr  tau(   1) = (   0.0000000   0.5000000   0.2500000  )
         2           Cr  tau(   2) = (   0.0000000   0.5000000   0.7500000  )
         3           Cr  tau(   3) = (   0.5000000   0.7500000   0.0000000  )
         4           Cr  tau(   4) = (   0.5000000   0.2500000   0.0000000  )
         5           Cr  tau(   5) = (   0.7500000   0.0000000   0.5000000  )
         6           Cr  tau(   6) = (   0.2500000   0.0000000   0.5000000  )
         7           Si  tau(   7) = (   0.5000000   0.5000000   0.5000000  )
         8           Si  tau(   8) = (   0.0000000   0.0000000   0.0000000  )

     number of k points=    48  gaussian smearing, width (Ry)=  0.1000
                       cart. coord. in units 2pi/alat
        k(    1) = (   0.0000000   0.0000000   0.0000000), wk =   0.0095238
        k(    2) = (   0.0000000   0.0000000   0.1428571), wk =   0.0190476
        k(    3) = (   0.0000000   0.0000000   0.2857143), wk =   0.0190476
        k(    4) = (   0.0000000   0.0000000   0.4285714), wk =   0.0190476
        k(    5) = (   0.0000000   0.1666667   0.0000000), wk =   0.0190476
        k(    6) = (   0.0000000   0.1666667   0.1428571), wk =   0.0380952
        k(    7) = (   0.0000000   0.1666667   0.2857143), wk =   0.0380952
        k(    8) = (   0.0000000   0.1666667   0.4285714), wk =   0.0380952
        k(    9) = (   0.0000000   0.3333333   0.0000000), wk =   0.0190476
        k(   10) = (   0.0000000   0.3333333   0.1428571), wk =   0.0380952
        k(   11) = (   0.0000000   0.3333333   0.2857143), wk =   0.0380952
        k(   12) = (   0.0000000   0.3333333   0.4285714), wk =   0.0380952
        k(   13) = (   0.0000000  -0.5000000   0.0000000), wk =   0.0095238
        k(   14) = (   0.0000000  -0.5000000   0.1428571), wk =   0.0190476
        k(   15) = (   0.0000000  -0.5000000   0.2857143), wk =   0.0190476
        k(   16) = (   0.0000000  -0.5000000   0.4285714), wk =   0.0190476
        k(   17) = (   0.2000000   0.0000000   0.0000000), wk =   0.0190476
        k(   18) = (   0.2000000   0.0000000   0.1428571), wk =   0.0380952
        k(   19) = (   0.2000000   0.0000000   0.2857143), wk =   0.0380952
        k(   20) = (   0.2000000   0.0000000   0.4285714), wk =   0.0380952
        k(   21) = (   0.2000000   0.1666667   0.0000000), wk =   0.0380952
        k(   22) = (   0.2000000   0.1666667   0.1428571), wk =   0.0761905
        k(   23) = (   0.2000000   0.1666667   0.2857143), wk =   0.0761905
        k(   24) = (   0.2000000   0.1666667   0.4285714), wk =   0.0761905
        k(   25) = (   0.2000000   0.3333333   0.0000000), wk =   0.0380952
        k(   26) = (   0.2000000   0.3333333   0.1428571), wk =   0.0761905
        k(   27) = (   0.2000000   0.3333333   0.2857143), wk =   0.0761905
        k(   28) = (   0.2000000   0.3333333   0.4285714), wk =   0.0761905
        k(   29) = (   0.2000000  -0.5000000   0.0000000), wk =   0.0190476
        k(   30) = (   0.2000000  -0.5000000   0.1428571), wk =   0.0380952
        k(   31) = (   0.2000000  -0.5000000   0.2857143), wk =   0.0380952
        k(   32) = (   0.2000000  -0.5000000   0.4285714), wk =   0.0380952
        k(   33) = (   0.4000000   0.0000000   0.0000000), wk =   0.0190476
        k(   34) = (   0.4000000   0.0000000   0.1428571), wk =   0.0380952
        k(   35) = (   0.4000000   0.0000000   0.2857143), wk =   0.0380952
        k(   36) = (   0.4000000   0.0000000   0.4285714), wk =   0.0380952
        k(   37) = (   0.4000000   0.1666667   0.0000000), wk =   0.0380952
        k(   38) = (   0.4000000   0.1666667   0.1428571), wk =   0.0761905
        k(   39) = (   0.4000000   0.1666667   0.2857143), wk =   0.0761905
        k(   40) = (   0.4000000   0.1666667   0.4285714), wk =   0.0761905
        k(   41) = (   0.4000000   0.3333333   0.0000000), wk =   0.0380952
        k(   42) = (   0.4000000   0.3333333   0.1428571), wk =   0.0761905
        k(   43) = (   0.4000000   0.3333333   0.2857143), wk =   0.0761905
        k(   44) = (   0.4000000   0.3333333   0.4285714), wk =   0.0761905
        k(   45) = (   0.4000000  -0.5000000   0.0000000), wk =   0.0190476
        k(   46) = (   0.4000000  -0.5000000   0.1428571), wk =   0.0380952
        k(   47) = (   0.4000000  -0.5000000   0.2857143), wk =   0.0380952
        k(   48) = (   0.4000000  -0.5000000   0.4285714), wk =   0.0380952

     Largest allocated arrays     est. size (Mb)     dimensions
     Largest temporary arrays     est. size (Mb)     dimensions

     Initial potential from superposition of free atoms

     Starting from uniform charge
     Starting wfc are    0 randomized atomic wfcs

     Self-consistent Calculation

     iteration #  1     ecut=    40.00 Ry     beta=0.70
     CG style diagonalization
     c_bands:  3 eigenvalues not converged
     c_bands:  5 eigenvalues not converged
     c_bands:  3 eigenvalues not converged
     c_bands:  3 eigenvalues not converged
     c_bands:  5 eigenvalues not converged
     c_bands:  5 eigenvalues not converged
     c_bands:  3 eigenvalues not converged
     c_bands:  3 eigenvalues not converged
     c_bands:  4 eigenvalues not converged
     c_bands:  5 eigenvalues not converged
     c_bands:  3 eigenvalues not converged
     c_bands:  2 eigenvalues not converged
     c_bands:  4 eigenvalues not converged
     c_bands:  2 eigenvalues not converged
     c_bands:  2 eigenvalues not converged
     c_bands:  2 eigenvalues not converged
     c_bands:  5 eigenvalues not converged
     c_bands:  4 eigenvalues not converged
     c_bands:  2 eigenvalues not converged
     c_bands:  3 eigenvalues not converged
     c_bands:  2 eigenvalues not converged
     c_bands:  2 eigenvalues not converged
     c_bands:  3 eigenvalues not converged
     c_bands:  1 eigenvalues not converged
     c_bands:  2 eigenvalues not converged
     c_bands:  1 eigenvalues not converged
     c_bands:  1 eigenvalues not converged
     c_bands:  4 eigenvalues not converged
     c_bands:  3 eigenvalues not converged
     c_bands:  3 eigenvalues not converged
     c_bands:  1 eigenvalues not converged
     c_bands:  2 eigenvalues not converged
     c_bands:  1 eigenvalues not converged
     ethr =  1.00E-02,  avg # of iterations = 12.3

     total energy              =   -2275.43226820 Ry
     Harris-Foulkes estimate   =   -2853.38364651 Ry
     estimated scf accuracy    <     739.11961028 Ry

     iteration #  2     ecut=    40.00 Ry     beta=0.70
     CG style diagonalization
     ethr =  1.00E-02,  avg # of iterations =  8.9

[...]

     End of self-consistent calculation

          k = 0.0000 0.0000 0.0000 (  2601 PWs)   bands (ev):

   -52.2821 -52.2821 -52.2226 -51.8305 -51.8305 -51.8305 -35.3019 -35.2683
   -16.1285 -16.1285 -15.9606 -14.6010 -14.6010 -14.6010 -14.1304 -14.1304
   -14.1304 -14.0435 -14.0435 -14.0435 -13.9274 -13.9274 -13.9274 -13.4672
   -13.4672 -13.4672  -2.6323  -2.6323  -2.6323  -2.6252  -2.6252  -2.6252
    26.1025  26.1025  26.2596  27.4401  27.4401  27.4401  29.4969  29.4969
    29.4969  29.5117  29.6896  30.0367  30.2456  30.2456  30.2876  30.2876
    30.2876  32.7086  32.7086  32.7086  33.7128  33.7128  33.7128  33.7849
    33.7849  33.7849  33.9870  33.9870  34.3131  34.3131  34.3131  34.5836
    34.5836  37.7042  37.7042  37.7042  38.0695  38.0695  38.8016  38.8016
    38.8016  42.5918  42.5918  42.5918  46.6381  46.6381  46.6408  50.4450
    50.5437  50.5437  50.5437  52.2297  52.2297  52.2297  52.3668  52.3668
    53.7669  53.7669  53.7669  54.0503  54.0503  54.0503  55.5369  55.5369
    55.5369  55.7321  55.8575  55.8575  55.8575  59.8063  60.8641

[...]

     the Fermi energy is    53.1615 ev

!    total energy              =   -2485.21838968 Ry
     Harris-Foulkes estimate   =   -2485.21840345 Ry
     estimated scf accuracy    <       0.00001676 Ry

     The total energy is the sum of the following terms:

     one-electron contribution =      -7.14526551 Ry
     hartree contribution      =     246.51863773 Ry
     xc contribution           =    -224.89151703 Ry
     ewald contribution        =   -2499.36066235 Ry
     smearing contrib. (-TS)   =      -0.33958252 Ry

[...]

     CASE: enthalpy_new > enthalpy_old

     new trust radius        =       0.2433237297 bohr

     trust_radius < trust_radius_min

     resetting bfgs history

     Message from routine bfgs:
     history already reset at previous step: stopping
     new conv_thr            =       0.0000010000 Ry

     new unit-cell volume =   1043.68869 a.u.^3 (   154.65871 Ang^3 )

[...]

ATOMIC_POSITIONS (crystal)
Cr       0.000000000   0.500000000   0.250000000
Cr       0.000000000   0.500000000   0.750000000
Cr       0.500000000   0.750000000   0.000000000
Cr       0.500000000   0.250000000   0.000000000
Cr       0.750000000   0.000000000   0.500000000
Cr       0.250000000   0.000000000   0.500000000
Si       0.500000000   0.500000000   0.500000000
Si       0.000000000   0.000000000   0.000000000

     Writing output data file Prototype-La-cP8-Cr3Si.save
     NEW-OLD atomic charge density approx. for the potential
     NEW k-points:
        k(    1) = (   0.0000000   0.0000000   0.0000000), wk =   0.0095238
        k(    2) = (   0.0000000   0.0000000   0.1201969), wk =   0.0190476
        k(    3) = (   0.0000000   0.0000000   0.2403939), wk =   0.0190476
        k(    4) = (   0.0000000   0.0000000   0.3605908), wk =   0.0190476
        k(    5) = (   0.0000000   0.1402298   0.0000000), wk =   0.0190476
        k(    6) = (   0.0000000   0.1402298   0.1201969), wk =   0.0380952
        k(    7) = (   0.0000000   0.1402298   0.2403939), wk =   0.0380952
        k(    8) = (   0.0000000   0.1402298   0.3605908), wk =   0.0380952
        k(    9) = (   0.0000000   0.2804595   0.0000000), wk =   0.0190476
        k(   10) = (   0.0000000   0.2804595   0.1201969), wk =   0.0380952
        k(   11) = (   0.0000000   0.2804595   0.2403939), wk =   0.0380952
        k(   12) = (   0.0000000   0.2804595   0.3605908), wk =   0.0380952
        k(   13) = (   0.0000000  -0.4206893   0.0000000), wk =   0.0095238
        k(   14) = (   0.0000000  -0.4206893   0.1201969), wk =   0.0190476
        k(   15) = (   0.0000000  -0.4206893   0.2403939), wk =   0.0190476
        k(   16) = (   0.0000000  -0.4206893   0.3605908), wk =   0.0190476
        k(   17) = (   0.1682757   0.0000000   0.0000000), wk =   0.0190476
        k(   18) = (   0.1682757   0.0000000   0.1201969), wk =   0.0380952
        k(   19) = (   0.1682757   0.0000000   0.2403939), wk =   0.0380952
        k(   20) = (   0.1682757   0.0000000   0.3605908), wk =   0.0380952
        k(   21) = (   0.1682757   0.1402298   0.0000000), wk =   0.0380952
        k(   22) = (   0.1682757   0.1402298   0.1201969), wk =   0.0761905
        k(   23) = (   0.1682757   0.1402298   0.2403939), wk =   0.0761905
        k(   24) = (   0.1682757   0.1402298   0.3605908), wk =   0.0761905
        k(   25) = (   0.1682757   0.2804595   0.0000000), wk =   0.0380952
        k(   26) = (   0.1682757   0.2804595   0.1201969), wk =   0.0761905
        k(   27) = (   0.1682757   0.2804595   0.2403939), wk =   0.0761905
        k(   28) = (   0.1682757   0.2804595   0.3605908), wk =   0.0761905
        k(   29) = (   0.1682757  -0.4206893   0.0000000), wk =   0.0190476
        k(   30) = (   0.1682757  -0.4206893   0.1201969), wk =   0.0380952
        k(   31) = (   0.1682757  -0.4206893   0.2403939), wk =   0.0380952
        k(   32) = (   0.1682757  -0.4206893   0.3605908), wk =   0.0380952
        k(   33) = (   0.3365515   0.0000000   0.0000000), wk =   0.0190476
        k(   34) = (   0.3365515   0.0000000   0.1201969), wk =   0.0380952
        k(   35) = (   0.3365515   0.0000000   0.2403939), wk =   0.0380952
        k(   36) = (   0.3365515   0.0000000   0.3605908), wk =   0.0380952
        k(   37) = (   0.3365515   0.1402298   0.0000000), wk =   0.0380952
        k(   38) = (   0.3365515   0.1402298   0.1201969), wk =   0.0761905
        k(   39) = (   0.3365515   0.1402298   0.2403939), wk =   0.0761905
        k(   40) = (   0.3365515   0.1402298   0.3605908), wk =   0.0761905
        k(   41) = (   0.3365515   0.2804595   0.0000000), wk =   0.0380952
        k(   42) = (   0.3365515   0.2804595   0.1201969), wk =   0.0761905
        k(   43) = (   0.3365515   0.2804595   0.2403939), wk =   0.0761905
        k(   44) = (   0.3365515   0.2804595   0.3605908), wk =   0.0761905
        k(   45) = (   0.3365515  -0.4206893   0.0000000), wk =   0.0190476
        k(   46) = (   0.3365515  -0.4206893   0.1201969), wk =   0.0380952
        k(   47) = (   0.3365515  -0.4206893   0.2403939), wk =   0.0380952
        k(   48) = (   0.3365515  -0.4206893   0.3605908), wk =   0.0380952

[...]

          total   stress  (Ry/bohr**3)                   (kbar)     P=-1038.91
  -0.00706239   0.00000000   0.00000000      -1038.91      0.00      0.00
   0.00000000  -0.00706239   0.00000000          0.00  -1038.91      0.00
   0.00000000   0.00000000  -0.00706239          0.00      0.00  -1038.91

     The maximum number of steps has been reached.

     End of BFGS Geometry Optimization
Begin final coordinates
     new unit-cell volume =   1043.68869 a.u.^3 (   154.65871 Ang^3 )

CELL_PARAMETERS (alat=  8.53457320)
   1.188525538   0.000000000   0.000000000
   0.000000000   1.188525538   0.000000000
   0.000000000   0.000000000   1.188525538

ATOMIC_POSITIONS (crystal)
Cr       0.000000000   0.500000000   0.250000000
Cr       0.000000000   0.500000000   0.750000000
Cr       0.500000000   0.750000000   0.000000000
Cr       0.500000000   0.250000000   0.000000000
Cr       0.750000000   0.000000000   0.500000000
Cr       0.250000000   0.000000000   0.500000000
Si       0.500000000   0.500000000   0.500000000
Si       0.000000000   0.000000000   0.000000000
End final coordinates

     A final scf calculation at the relaxed structure.
     The G-vectors are recalculated for the final unit cell
     Results may differ from those at the preceding step.

     bravais-lattice index     =            0
     lattice parameter (alat)  =       8.5346  a.u.
     unit-cell volume          =    1043.6887 (a.u.)^3
     number of atoms/cell      =            8
     number of atomic types    =            2
     number of electrons       =       172.00
     number of Kohn-Sham states=          103
     kinetic-energy cutoff     =      40.0000  Ry
     charge density cutoff     =     160.0000  Ry
     convergence threshold     =      1.0E-06
     mixing beta               =       0.7000
     number of iterations used =            8  plain     mixing
     Exchange-correlation      = SLA-PZ-NOGX-NOGC ( 1 1 0 0 0)
     EXX-fraction              =        0.00

     celldm(1)=   8.534573  celldm(2)=   0.000000  celldm(3)=   0.000000
     celldm(4)=   0.000000  celldm(5)=   0.000000  celldm(6)=   0.000000

     crystal axes: (cart. coord. in units of alat)
               a(1) = (   1.188526   0.000000   0.000000 )
               a(2) = (   0.000000   1.188526   0.000000 )
               a(3) = (   0.000000   0.000000   1.188526 )

     reciprocal axes: (cart. coord. in units 2 pi/alat)
               b(1) = (  0.841379  0.000000  0.000000 )
               b(2) = (  0.000000  0.841379  0.000000 )
               b(3) = (  0.000000  0.000000  0.841379 )

     PseudoPot. # 1 for Er read from file:
     /home/cwx6513/pp.La/Er.UPF
     MD5 check sum: e152ae21b84514339d8526f066caf99b
     Pseudo is Norm-conserving, Zval = 22.0
     Generated in analytical, separable form
     Using radial grid of 1267 points,  6 beta functions with:
                l(1) =   0
                l(2) =   0
                l(3) =   1
                l(4) =   1
                l(5) =   2
                l(6) =   3

     PseudoPot. # 2 for Dy read from file:
     /home/cwx6513/pp.La/Dy.UPF
     MD5 check sum: 9597327bec62616a94a14d07f3fd9936
     Pseudo is Norm-conserving, Zval = 20.0
     Generated in analytical, separable form
     Using radial grid of 1265 points,  6 beta functions with:
                l(1) =   0
                l(2) =   0
                l(3) =   1
                l(4) =   1
                l(5) =   2
                l(6) =   3

     atomic species   valence    mass     pseudopotential
        Cr            22.00    51.99610     Er( 1.00)
        Si            20.00    28.08550     Dy( 1.00)

     48 Sym. Ops., with inversion, found (24 have fractional translation)

   Cartesian axes

     site n.     atom                  positions (alat units)
         1           Cr  tau(   1) = (   0.0000000   0.5942628   0.2971314  )
         2           Cr  tau(   2) = (   0.0000000   0.5942628   0.8913942  )
         3           Cr  tau(   3) = (   0.5942628   0.8913942   0.0000000  )
         4           Cr  tau(   4) = (   0.5942628   0.2971314   0.0000000  )
         5           Cr  tau(   5) = (   0.8913942   0.0000000   0.5942628  )
         6           Cr  tau(   6) = (   0.2971314   0.0000000   0.5942628  )
         7           Si  tau(   7) = (   0.5942628   0.5942628   0.5942628  )
         8           Si  tau(   8) = (   0.0000000   0.0000000   0.0000000  )

     number of k points=    48  gaussian smearing, width (Ry)=  0.1000
                       cart. coord. in units 2pi/alat
        k(    1) = (   0.0000000   0.0000000   0.0000000), wk =   0.0095238
        k(    2) = (   0.0000000   0.0000000   0.1201969), wk =   0.0190476
        k(    3) = (   0.0000000   0.0000000   0.2403939), wk =   0.0190476
        k(    4) = (   0.0000000   0.0000000   0.3605908), wk =   0.0190476
        k(    5) = (   0.0000000   0.1402298   0.0000000), wk =   0.0190476
        k(    6) = (   0.0000000   0.1402298   0.1201969), wk =   0.0380952
        k(    7) = (   0.0000000   0.1402298   0.2403939), wk =   0.0380952
        k(    8) = (   0.0000000   0.1402298   0.3605908), wk =   0.0380952
        k(    9) = (   0.0000000   0.2804595   0.0000000), wk =   0.0190476
        k(   10) = (   0.0000000   0.2804595   0.1201969), wk =   0.0380952
        k(   11) = (   0.0000000   0.2804595   0.2403939), wk =   0.0380952
        k(   12) = (   0.0000000   0.2804595   0.3605908), wk =   0.0380952
        k(   13) = (   0.0000000  -0.4206893   0.0000000), wk =   0.0095238
        k(   14) = (   0.0000000  -0.4206893   0.1201969), wk =   0.0190476
        k(   15) = (   0.0000000  -0.4206893   0.2403939), wk =   0.0190476
        k(   16) = (   0.0000000  -0.4206893   0.3605908), wk =   0.0190476
        k(   17) = (   0.1682757   0.0000000   0.0000000), wk =   0.0190476
        k(   18) = (   0.1682757   0.0000000   0.1201969), wk =   0.0380952
        k(   19) = (   0.1682757   0.0000000   0.2403939), wk =   0.0380952
        k(   20) = (   0.1682757   0.0000000   0.3605908), wk =   0.0380952
        k(   21) = (   0.1682757   0.1402298   0.0000000), wk =   0.0380952
        k(   22) = (   0.1682757   0.1402298   0.1201969), wk =   0.0761905
        k(   23) = (   0.1682757   0.1402298   0.2403939), wk =   0.0761905
        k(   24) = (   0.1682757   0.1402298   0.3605908), wk =   0.0761905
        k(   25) = (   0.1682757   0.2804595   0.0000000), wk =   0.0380952
        k(   26) = (   0.1682757   0.2804595   0.1201969), wk =   0.0761905
        k(   27) = (   0.1682757   0.2804595   0.2403939), wk =   0.0761905
        k(   28) = (   0.1682757   0.2804595   0.3605908), wk =   0.0761905
        k(   29) = (   0.1682757  -0.4206893   0.0000000), wk =   0.0190476
        k(   30) = (   0.1682757  -0.4206893   0.1201969), wk =   0.0380952
        k(   31) = (   0.1682757  -0.4206893   0.2403939), wk =   0.0380952
        k(   32) = (   0.1682757  -0.4206893   0.3605908), wk =   0.0380952
        k(   33) = (   0.3365515   0.0000000   0.0000000), wk =   0.0190476
        k(   34) = (   0.3365515   0.0000000   0.1201969), wk =   0.0380952
        k(   35) = (   0.3365515   0.0000000   0.2403939), wk =   0.0380952
        k(   36) = (   0.3365515   0.0000000   0.3605908), wk =   0.0380952
        k(   37) = (   0.3365515   0.1402298   0.0000000), wk =   0.0380952
        k(   38) = (   0.3365515   0.1402298   0.1201969), wk =   0.0761905
        k(   39) = (   0.3365515   0.1402298   0.2403939), wk =   0.0761905
        k(   40) = (   0.3365515   0.1402298   0.3605908), wk =   0.0761905
        k(   41) = (   0.3365515   0.2804595   0.0000000), wk =   0.0380952
        k(   42) = (   0.3365515   0.2804595   0.1201969), wk =   0.0761905
        k(   43) = (   0.3365515   0.2804595   0.2403939), wk =   0.0761905
        k(   44) = (   0.3365515   0.2804595   0.3605908), wk =   0.0761905
        k(   45) = (   0.3365515  -0.4206893   0.0000000), wk =   0.0190476
        k(   46) = (   0.3365515  -0.4206893   0.1201969), wk =   0.0380952
        k(   47) = (   0.3365515  -0.4206893   0.2403939), wk =   0.0380952
        k(   48) = (   0.3365515  -0.4206893   0.3605908), wk =   0.0380952

     Largest allocated arrays     est. size (Mb)     dimensions
     Largest temporary arrays     est. size (Mb)     dimensions

     Initial potential from superposition of free atoms

     Starting from uniform charge
     Starting wfc are    0 randomized atomic wfcs

     Writing output data file Prototype-La-cP8-Cr3Si.save

     Self-consistent Calculation

[...]

     iteration #  8     ecut=    40.00 Ry     beta=0.70
     CG style diagonalization
     c_bands:  1 eigenvalues not converged
     c_bands:  1 eigenvalues not converged
     c_bands:  1 eigenvalues not converged
     c_bands:  1 eigenvalues not converged
     c_bands:  1 eigenvalues not converged
     c_bands:  1 eigenvalues not converged
     c_bands:  1 eigenvalues not converged
     ethr =  8.11E-07,  avg # of iterations =  3.4

[...]

     total energy              =   -2495.32382466 Ry
     Harris-Foulkes estimate   =   -2495.32383115 Ry
     estimated scf accuracy    <       0.00001009 Ry

     iteration # 10     ecut=    40.00 Ry     beta=0.70
     CG style diagonalization
     ethr =  5.87E-09,  avg # of iterations =  4.1

     End of self-consistent calculation

[...]

          k = 0.3366-0.4207 0.3606 (  4474 PWs)   bands (ev):

   -72.0948 -72.0912 -72.0871 -72.0861 -72.0835 -72.0815 -54.1323 -54.1323
   -34.2675 -34.2526 -34.2008 -34.2007 -34.1464 -34.1242 -34.0325 -34.0322
   -34.0242 -34.0228 -34.0179 -34.0144 -34.0132 -34.0105 -34.0100 -34.0010
   -33.9994 -33.9988 -21.1083 -21.1083 -21.1059 -21.1058 -21.1038 -21.1036
    11.6291  11.7698  11.9948  11.9970  12.0473  12.0513  12.0937  12.1041
    12.1998  12.2139  12.2849  12.3034  12.3410  12.3475  12.4162  12.4239
    12.6692  12.6692  12.8042  12.8194  12.8254  12.8535  12.9471  13.0132
    13.0857  13.1180  13.1559  13.1750  13.1958  13.1971  18.1107  18.1121
    18.5077  18.5290  18.7354  18.7880  19.9497  19.9510  19.9570  19.9583
    20.6096  20.6563  21.0976  21.1843  21.3218  21.4468  22.0889  22.1038
    29.7661  30.0033  30.6969  30.7223  31.6662  32.0656  32.3071  32.4046
    32.5206  32.5991  32.9316  32.9706  33.4727  33.5201  33.6273  33.6918
    34.0448  34.1713  34.3811  34.4483  34.8028  34.9260  35.0951

     the Fermi energy is    30.2343 ev

!    total energy              =   -2495.32382914 Ry
     Harris-Foulkes estimate   =   -2495.32382928 Ry
     estimated scf accuracy    <       0.00000019 Ry

     The total energy is the sum of the following terms:

     one-electron contribution =    -581.74983915 Ry
     hartree contribution      =     406.07990290 Ry
     xc contribution           =    -216.50915016 Ry
     ewald contribution        =   -2102.90867262 Ry
     smearing contrib. (-TS)   =      -0.23607011 Ry

     convergence has been achieved in  10 iterations

     Forces acting on atoms (Ry/au):

     atom    1 type  1   force =     0.00000000    0.00000000    0.00000000
     atom    2 type  1   force =     0.00000000    0.00000000    0.00000000
     atom    3 type  1   force =     0.00000000    0.00000000    0.00000000
     atom    4 type  1   force =     0.00000000    0.00000000    0.00000000
     atom    5 type  1   force =     0.00000000    0.00000000    0.00000000
     atom    6 type  1   force =     0.00000000    0.00000000    0.00000000
     atom    7 type  2   force =     0.00000000    0.00000000    0.00000000
     atom    8 type  2   force =     0.00000000    0.00000000    0.00000000

     Total force =     0.000000     Total SCF correction =     0.000000

     entering subroutine stress ...

          total   stress  (Ry/bohr**3)                   (kbar)     P=  327.70
   0.00222767   0.00000000   0.00000000        327.70      0.00      0.00
   0.00000000   0.00222767   0.00000000          0.00    327.70      0.00
   0.00000000   0.00000000   0.00222767          0.00      0.00    327.70

     Writing output data file Prototype-La-cP8-Cr3Si.save

     General routines

     Parallel routines

   This run was terminated on:  23:10:34  22Mar2018

   JOB DONE.