     Program PWSCF v.5.0.2 starts on 22Mar2018 at 22:45:44

     Current dimensions of program PWSCF are:
     Max number of different atomic species (ntypx) = 10
     Max number of k-points (npk) =  40000
     Max angular momentum in pseudopotentials (lmaxx) =  3
     Waiting for input...
     Reading input from standard input

     Subspace diagonalization in iterative solution of the eigenvalue problem:
     a serial algorithm will be used

     bravais-lattice index     =            0
     lattice parameter (alat)  =       7.0151  a.u.
     unit-cell volume          =     862.2778 (a.u.)^3
     number of atoms/cell      =           12
     number of atomic types    =            2
     number of electrons       =       240.00
     number of Kohn-Sham states=          144
     kinetic-energy cutoff     =      40.0000  Ry
     charge density cutoff     =     160.0000  Ry
     convergence threshold     =      1.0E-04
     mixing beta               =       0.7000
     number of iterations used =            8  plain     mixing
     Exchange-correlation      = SLA-PZ-NOGX-NOGC ( 1 1 0 0 0)
     EXX-fraction              =        0.00
     nstep                     =           50

     celldm(1)=   7.015105  celldm(2)=   0.000000  celldm(3)=   0.000000
     celldm(4)=   0.000000  celldm(5)=   0.000000  celldm(6)=   0.000000

     crystal axes: (cart. coord. in units of alat)
               a(1) = (   1.000000   0.000000   0.000000 )
               a(2) = (   0.000000   1.315963   0.000000 )
               a(3) = (   0.000000   0.000000   1.898020 )

     reciprocal axes: (cart. coord. in units 2 pi/alat)
               b(1) = (  1.000000  0.000000  0.000000 )
               b(2) = (  0.000000  0.759900  0.000000 )
               b(3) = (  0.000000  0.000000  0.526865 )

     PseudoPot. # 1 for Er read from file:
     /home/cwx6513/pp.La/Er.UPF
     MD5 check sum: e152ae21b84514339d8526f066caf99b
     Pseudo is Norm-conserving, Zval = 22.0
     Generated in analytical, separable form
     Using radial grid of 1267 points,  6 beta functions with:
                l(1) =   0
                l(2) =   0
                l(3) =   1
                l(4) =   1
                l(5) =   2
                l(6) =   3

     PseudoPot. # 2 for Sm read from file:
     /home/cwx6513/pp.La/Sm.UPF
     MD5 check sum: 5079e8b144a06bfcdbc14fb02b96ab09
     Pseudo is Norm-conserving, Zval = 16.0
     Generated in analytical, separable form
     Using radial grid of 1259 points,  6 beta functions with:
                l(1) =   0
                l(2) =   0
                l(3) =   1
                l(4) =   1
                l(5) =   2
                l(6) =   3

     atomic species   valence    mass     pseudopotential
        Co            22.00    58.93320     Er( 1.00)
        Si            16.00    28.08550     Sm( 1.00)

      8 Sym. Ops., with inversion, found ( 6 have fractional translation)

   Cartesian axes

     site n.     atom                  positions (alat units)
         1           Co  tau(   1) = (   0.7500000   1.0875135   0.8270358  )
         2           Co  tau(   2) = (   0.2500000   0.2284499   1.0709846  )
         3           Co  tau(   3) = (   0.7500000   0.4295318   0.1219744  )
         4           Co  tau(   4) = (   0.2500000   0.8864316   1.7760460  )
         5           Co  tau(   5) = (   0.2500000   0.7067855   0.5358966  )
         6           Co  tau(   6) = (   0.7500000   0.6091779   1.3621238  )
         7           Co  tau(   7) = (   0.2500000   0.0488038   0.4131136  )
         8           Co  tau(   8) = (   0.7500000   1.2671596   1.4849068  )
         9           Si  tau(   9) = (   0.2500000   0.2669484   1.6960710  )
        10           Si  tau(  10) = (   0.7500000   1.0490149   0.2019494  )
        11           Si  tau(  11) = (   0.2500000   0.9249301   1.1509596  )
        12           Si  tau(  12) = (   0.7500000   0.3910333   0.7470608  )

     number of k points=    12  gaussian smearing, width (Ry)=  0.1000
                       cart. coord. in units 2pi/alat
        k(    1) = (   0.0000000   0.0000000   0.0000000), wk =   0.0833333
        k(    2) = (   0.0000000   0.0000000   0.1317162), wk =   0.1666667
        k(    3) = (   0.0000000   0.0000000  -0.2634324), wk =   0.0833333
        k(    4) = (   0.0000000   0.2532999   0.0000000), wk =   0.1666667
        k(    5) = (   0.0000000   0.2532999   0.1317162), wk =   0.3333333
        k(    6) = (   0.0000000   0.2532999  -0.2634324), wk =   0.1666667
        k(    7) = (  -0.5000000   0.0000000   0.0000000), wk =   0.0833333
        k(    8) = (  -0.5000000   0.0000000   0.1317162), wk =   0.1666667
        k(    9) = (  -0.5000000   0.0000000  -0.2634324), wk =   0.0833333
        k(   10) = (  -0.5000000   0.2532999   0.0000000), wk =   0.1666667
        k(   11) = (  -0.5000000   0.2532999   0.1317162), wk =   0.3333333
        k(   12) = (  -0.5000000   0.2532999  -0.2634324), wk =   0.1666667

     Largest allocated arrays     est. size (Mb)     dimensions
     Largest temporary arrays     est. size (Mb)     dimensions

     Initial potential from superposition of free atoms

     Starting from uniform charge
     Starting wfc are    0 randomized atomic wfcs

     Self-consistent Calculation

     iteration #  1     ecut=    40.00 Ry     beta=0.70
     CG style diagonalization
     ethr =  1.00E-02,  avg # of iterations = 12.4

     total energy              =   -2727.06712522 Ry
     Harris-Foulkes estimate   =   -3710.37197776 Ry
     estimated scf accuracy    <    1232.17085045 Ry

     iteration #  2     ecut=    40.00 Ry     beta=0.70
     CG style diagonalization
     c_bands:  1 eigenvalues not converged
     c_bands:  1 eigenvalues not converged
     c_bands:  1 eigenvalues not converged
     c_bands:  4 eigenvalues not converged
     c_bands:  1 eigenvalues not converged
     c_bands:  1 eigenvalues not converged
     c_bands:  1 eigenvalues not converged
     c_bands:  1 eigenvalues not converged
     ethr =  1.00E-02,  avg # of iterations = 12.3

[...]

     End of self-consistent calculation

          k = 0.0000 0.0000 0.0000 (  3675 PWs)   bands (ev):

   -50.2143 -50.1814 -50.1063 -50.0887 -50.0793 -50.0467 -50.0359 -50.0129
   -13.3157 -13.1273 -12.9915 -12.9047 -12.8320 -12.8051 -12.7513 -12.6290
   -12.5678 -12.5482 -12.5175 -12.4330 -12.3981 -12.3575 -12.3296 -12.3158
   -12.2837 -12.2374 -12.1583 -12.1581 -12.1388 -12.0072 -11.9698 -11.9072
    -6.5129  -6.2676  -6.2259  -6.2211  16.2319  16.5671  16.5681  16.5811
    16.7715  16.7938  16.8495  16.8736  17.1193  17.4241  17.5160  17.9008
    29.2976  29.5955  29.6854  29.7012  29.8995  30.0107  30.0924  30.4634
    31.0390  31.0955  31.3278  31.6607  31.7867  32.0595  32.3013  32.8791
    32.9388  33.0429  33.1041  33.1289  33.2040  33.5465  33.5681  33.7568
    33.8957  34.0983  34.1193  34.1877  34.3601  34.6404  34.9356  35.1877
    35.2022  35.3593  35.4605  35.8310  36.1377  36.2069  36.4318  36.5200
    36.7830  38.9178  39.6044  40.1588  42.8952  43.5439  43.9512  44.2772
    44.3677  45.2554  45.8313  45.9823  46.2653  46.4129  47.0270  47.1880
    47.6295  47.7956  48.4101  48.8496  49.6183  49.6876  49.6991  49.9013
    50.0141  50.9402  51.7075  52.7131  53.7165  54.2285  54.2752  54.8572
    55.7757  56.0608  56.6887  56.9792  57.3003  57.3066  57.4985  57.6995
    57.8877  58.3899  58.4086  58.5003  59.3597  59.4688  59.6547  59.8244
    59.8515  59.9664  60.1956  60.2952  60.6625  60.9410  61.0846  61.1211

[...]

          k =-0.5000 0.0000 0.0000 (  3722 PWs)   bands (ev):

[...]

     the Fermi energy is    54.9796 ev

!    total energy              =   -3223.84126833 Ry
     Harris-Foulkes estimate   =   -3223.84135430 Ry
     estimated scf accuracy    <       0.00009496 Ry

     The total energy is the sum of the following terms:

     one-electron contribution =     159.58550957 Ry
     hartree contribution      =     290.55415241 Ry
     xc contribution           =    -306.37361530 Ry
     ewald contribution        =   -3367.33078663 Ry
     smearing contrib. (-TS)   =      -0.27652838 Ry

     convergence has been achieved in  10 iterations

     Forces acting on atoms (Ry/au):

     atom    1 type  1   force =     0.00000000   -0.14053649   -0.13206099
     atom    2 type  1   force =     0.00000000    0.14053649    0.13206099
     atom    3 type  1   force =     0.00000000   -0.14053649    0.13206099
     atom    4 type  1   force =     0.00000000    0.14053649   -0.13206099
     atom    5 type  1   force =     0.00000000    0.14063508   -0.10862184
     atom    6 type  1   force =     0.00000000   -0.14063508    0.10862184
     atom    7 type  1   force =     0.00000000    0.14063508    0.10862184
     atom    8 type  1   force =     0.00000000   -0.14063508   -0.10862184
     atom    9 type  2   force =     0.00000000   -0.21962549   -0.05922628
     atom   10 type  2   force =     0.00000000    0.21962549    0.05922628
     atom   11 type  2   force =     0.00000000   -0.21962549    0.05922628
     atom   12 type  2   force =     0.00000000    0.21962549   -0.05922628

     Total force =     0.694293     Total SCF correction =     0.000000

     entering subroutine stress ...

          total   stress  (Ry/bohr**3)                   (kbar)     P= 7410.41
   0.05351324   0.00000000   0.00000000       7872.07      0.00      0.00
   0.00000000   0.04719964   0.00000000          0.00   6943.30      0.00
   0.00000000   0.00000000   0.05041197          0.00      0.00   7415.86

     BFGS Geometry Optimization

     number of scf cycles    =   1
     number of bfgs steps    =   0

     enthalpy new            =   -3223.8412683317 Ry

     new trust radius        =       0.5000000000 bohr
     new conv_thr            =       0.0001000000 Ry

     new unit-cell volume =   1086.63209 a.u.^3 (   161.02226 Ang^3 )

CELL_PARAMETERS (alat=  7.01510508)
   1.085136619   0.000000000   0.000000000
   0.000000000   1.414781733   0.000000000
   0.000000000   0.000000000   2.050246702

ATOMIC_POSITIONS (crystal)
Co       0.750000000   0.825432218   0.435104818
Co       0.250000000   0.174567782   0.564895182
Co       0.750000000   0.325432218   0.064895182
Co       0.250000000   0.674567782   0.935104818
Co       0.250000000   0.538055462   0.281825845
Co       0.750000000   0.461944538   0.718174155
Co       0.250000000   0.038055462   0.218174155
Co       0.750000000   0.961944538   0.781825845
Si       0.250000000   0.201340021   0.893316930
Si       0.750000000   0.798659979   0.106683070
Si       0.250000000   0.701340021   0.606683070
Si       0.750000000   0.298659979   0.393316930

     Writing output data file Prototype-La-oP12-Co2Si.save
     NEW-OLD atomic charge density approx. for the potential
     NEW k-points:
        k(    1) = (   0.0000000   0.0000000   0.0000000), wk =   0.0833333
        k(    2) = (   0.0000000   0.0000000   0.1219365), wk =   0.1666667
        k(    3) = (   0.0000000   0.0000000  -0.2438731), wk =   0.0833333
        k(    4) = (   0.0000000   0.2356076   0.0000000), wk =   0.1666667
        k(    5) = (   0.0000000   0.2356076   0.1219365), wk =   0.3333333
        k(    6) = (   0.0000000   0.2356076  -0.2438731), wk =   0.1666667
        k(    7) = (  -0.4607715   0.0000000   0.0000000), wk =   0.0833333
        k(    8) = (  -0.4607715   0.0000000   0.1219365), wk =   0.1666667
        k(    9) = (  -0.4607715   0.0000000  -0.2438731), wk =   0.0833333
        k(   10) = (  -0.4607715   0.2356076   0.0000000), wk =   0.1666667
        k(   11) = (  -0.4607715   0.2356076   0.1219365), wk =   0.3333333
        k(   12) = (  -0.4607715   0.2356076  -0.2438731), wk =   0.1666667

[...]

     enthalpy old            =   -3223.8412683317 Ry
     enthalpy new            =   -3230.7771169080 Ry

     CASE: enthalpy_new < enthalpy_old

     small trust_radius: resetting bfgs history

     new trust radius        =       2.7046151627 bohr
     new conv_thr            =       0.0001000000 Ry

[...]

          total   stress  (Ry/bohr**3)                   (kbar)     P=-3341.38
  -0.02397989   0.00000000   0.00000000      -3527.56      0.00      0.00
   0.00000000  -0.02121514   0.00000000          0.00  -3120.85      0.00
   0.00000000   0.00000000  -0.02294767          0.00      0.00  -3375.72

     number of scf cycles    =   3
     number of bfgs steps    =   2

     enthalpy old            =   -3230.7771169080 Ry
     enthalpy new            =   -3206.4274313508 Ry

     CASE: enthalpy_new > enthalpy_old

     new trust radius        =       0.7153462363 bohr

     trust_radius < trust_radius_min

     resetting bfgs history

     Message from routine bfgs:
     history already reset at previous step: stopping
     new conv_thr            =       0.0001000000 Ry

     new unit-cell volume =   1297.14586 a.u.^3 (   192.21718 Ang^3 )

[...]

ATOMIC_POSITIONS (crystal)
Co       0.750000000   0.824919573   0.434801097
Co       0.250000000   0.175080427   0.565198903
Co       0.750000000   0.324919573   0.065198903
Co       0.250000000   0.675080427   0.934801097
Co       0.250000000   0.539194516   0.281296465
Co       0.750000000   0.460805484   0.718703535
Co       0.250000000   0.039194516   0.218703535
Co       0.750000000   0.960805484   0.781296465
Si       0.250000000   0.200162661   0.893216768
Si       0.750000000   0.799837339   0.106783232
Si       0.250000000   0.700162661   0.606783232
Si       0.750000000   0.299837339   0.393216768

     Writing output data file Prototype-La-oP12-Co2Si.save
     NEW-OLD atomic charge density approx. for the potential
     NEW k-points:
        k(    1) = (   0.0000000   0.0000000   0.0000000), wk =   0.0833333
        k(    2) = (   0.0000000   0.0000000   0.1147728), wk =   0.1666667
        k(    3) = (   0.0000000   0.0000000  -0.2295456), wk =   0.0833333
        k(    4) = (   0.0000000   0.2233394   0.0000000), wk =   0.1666667
        k(    5) = (   0.0000000   0.2233394   0.1147728), wk =   0.3333333
        k(    6) = (   0.0000000   0.2233394  -0.2295456), wk =   0.1666667
        k(    7) = (  -0.4326116   0.0000000   0.0000000), wk =   0.0833333
        k(    8) = (  -0.4326116   0.0000000   0.1147728), wk =   0.1666667
        k(    9) = (  -0.4326116   0.0000000  -0.2295456), wk =   0.0833333
        k(   10) = (  -0.4326116   0.2233394   0.0000000), wk =   0.1666667
        k(   11) = (  -0.4326116   0.2233394   0.1147728), wk =   0.3333333
        k(   12) = (  -0.4326116   0.2233394  -0.2295456), wk =   0.1666667

[...]

     The maximum number of steps has been reached.

     End of BFGS Geometry Optimization
Begin final coordinates
     new unit-cell volume =   1297.14586 a.u.^3 (   192.21718 Ang^3 )

CELL_PARAMETERS (alat=  7.01510508)
   1.155771129   0.000000000   0.000000000
   0.000000000   1.492496486   0.000000000
   0.000000000   0.000000000   2.178216847

ATOMIC_POSITIONS (crystal)
Co       0.750000000   0.824919573   0.434801097
Co       0.250000000   0.175080427   0.565198903
Co       0.750000000   0.324919573   0.065198903
Co       0.250000000   0.675080427   0.934801097
Co       0.250000000   0.539194516   0.281296465
Co       0.750000000   0.460805484   0.718703535
Co       0.250000000   0.039194516   0.218703535
Co       0.750000000   0.960805484   0.781296465
Si       0.250000000   0.200162661   0.893216768
Si       0.750000000   0.799837339   0.106783232
Si       0.250000000   0.700162661   0.606783232
Si       0.750000000   0.299837339   0.393216768
End final coordinates

     A final scf calculation at the relaxed structure.
     The G-vectors are recalculated for the final unit cell
     Results may differ from those at the preceding step.

     bravais-lattice index     =            0
     lattice parameter (alat)  =       7.0151  a.u.
     unit-cell volume          =    1297.1459 (a.u.)^3
     number of atoms/cell      =           12
     number of atomic types    =            2
     number of electrons       =       240.00
     number of Kohn-Sham states=          144
     kinetic-energy cutoff     =      40.0000  Ry
     charge density cutoff     =     160.0000  Ry
     convergence threshold     =      1.0E-04
     mixing beta               =       0.7000
     number of iterations used =            8  plain     mixing
     Exchange-correlation      = SLA-PZ-NOGX-NOGC ( 1 1 0 0 0)
     EXX-fraction              =        0.00

     celldm(1)=   7.015105  celldm(2)=   0.000000  celldm(3)=   0.000000
     celldm(4)=   0.000000  celldm(5)=   0.000000  celldm(6)=   0.000000

     crystal axes: (cart. coord. in units of alat)
               a(1) = (   1.155771   0.000000   0.000000 )
               a(2) = (   0.000000   1.492496   0.000000 )
               a(3) = (   0.000000   0.000000   2.178217 )

     reciprocal axes: (cart. coord. in units 2 pi/alat)
               b(1) = (  0.865223  0.000000  0.000000 )
               b(2) = (  0.000000  0.670018  0.000000 )
               b(3) = (  0.000000  0.000000  0.459091 )

     PseudoPot. # 1 for Er read from file:
     /home/cwx6513/pp.La/Er.UPF
     MD5 check sum: e152ae21b84514339d8526f066caf99b
     Pseudo is Norm-conserving, Zval = 22.0
     Generated in analytical, separable form
     Using radial grid of 1267 points,  6 beta functions with:
                l(1) =   0
                l(2) =   0
                l(3) =   1
                l(4) =   1
                l(5) =   2
                l(6) =   3

     PseudoPot. # 2 for Sm read from file:
     /home/cwx6513/pp.La/Sm.UPF
     MD5 check sum: 5079e8b144a06bfcdbc14fb02b96ab09
     Pseudo is Norm-conserving, Zval = 16.0
     Generated in analytical, separable form
     Using radial grid of 1259 points,  6 beta functions with:
                l(1) =   0
                l(2) =   0
                l(3) =   1
                l(4) =   1
                l(5) =   2
                l(6) =   3

     atomic species   valence    mass     pseudopotential
        Co            22.00    58.93320     Er( 1.00)
        Si            16.00    28.08550     Sm( 1.00)

      8 Sym. Ops., with inversion, found ( 6 have fractional translation)

   Cartesian axes

     site n.     atom                  positions (alat units)
         1           Co  tau(   1) = (   0.8668283   1.2311896   0.9470911  )
         2           Co  tau(   2) = (   0.2889428   0.2613069   1.2311258  )
         3           Co  tau(   3) = (   0.8668283   0.4849413   0.1420173  )
         4           Co  tau(   4) = (   0.2889428   1.0075552   2.0361995  )
         5           Co  tau(   5) = (   0.2889428   0.8047459   0.6127247  )
         6           Co  tau(   6) = (   0.8668283   0.6877506   1.5654921  )
         7           Co  tau(   7) = (   0.2889428   0.0584977   0.4763837  )
         8           Co  tau(   8) = (   0.8668283   1.4339988   1.7018331  )
         9           Si  tau(   9) = (   0.2889428   0.2987421   1.9456198  )
        10           Si  tau(  10) = (   0.8668283   1.1937544   0.2325970  )
        11           Si  tau(  11) = (   0.2889428   1.0449903   1.3217055  )
        12           Si  tau(  12) = (   0.8668283   0.4475062   0.8565114  )

     number of k points=    12  gaussian smearing, width (Ry)=  0.1000
                       cart. coord. in units 2pi/alat
        k(    1) = (   0.0000000   0.0000000   0.0000000), wk =   0.0833333
        k(    2) = (   0.0000000   0.0000000   0.1147728), wk =   0.1666667
        k(    3) = (   0.0000000   0.0000000  -0.2295456), wk =   0.0833333
        k(    4) = (   0.0000000   0.2233394   0.0000000), wk =   0.1666667
        k(    5) = (   0.0000000   0.2233394   0.1147728), wk =   0.3333333
        k(    6) = (   0.0000000   0.2233394  -0.2295456), wk =   0.1666667
        k(    7) = (  -0.4326116   0.0000000   0.0000000), wk =   0.0833333
        k(    8) = (  -0.4326116   0.0000000   0.1147728), wk =   0.1666667
        k(    9) = (  -0.4326116   0.0000000  -0.2295456), wk =   0.0833333
        k(   10) = (  -0.4326116   0.2233394   0.0000000), wk =   0.1666667
        k(   11) = (  -0.4326116   0.2233394   0.1147728), wk =   0.3333333
        k(   12) = (  -0.4326116   0.2233394  -0.2295456), wk =   0.1666667

     Largest allocated arrays     est. size (Mb)     dimensions
     Largest temporary arrays     est. size (Mb)     dimensions

     Initial potential from superposition of free atoms

     Starting from uniform charge
     Starting wfc are    0 randomized atomic wfcs

     Writing output data file Prototype-La-oP12-Co2Si.save

     Self-consistent Calculation

[...]

     iteration #  9     ecut=    40.00 Ry     beta=0.70
     CG style diagonalization
     c_bands:  1 eigenvalues not converged
     c_bands:  2 eigenvalues not converged
     ethr =  2.10E-06,  avg # of iterations =  4.3

     total energy              =   -3237.45835134 Ry
     Harris-Foulkes estimate   =   -3237.45866143 Ry
     estimated scf accuracy    <       0.00054282 Ry

     iteration # 10     ecut=    40.00 Ry     beta=0.70
     CG style diagonalization
     ethr =  2.26E-07,  avg # of iterations =  3.9

     End of self-consistent calculation

[...]

          k = 0.0000 0.2233-0.2295 (  5522 PWs)   bands (ev):

[...]

          k =-0.4326 0.2233-0.2295 (  5548 PWs)   bands (ev):

   -67.1572 -67.1572 -67.1514 -67.1514 -67.0677 -67.0677 -67.0482 -67.0482
   -29.3047 -29.3047 -29.2118 -29.2118 -29.2069 -29.2069 -29.1922 -29.1922
   -29.1816 -29.1816 -29.1503 -29.1503 -29.1105 -29.1105 -29.0919 -29.0919
   -29.0814 -29.0814 -29.0643 -29.0643 -29.0489 -29.0489 -29.0359 -29.0359
   -22.8644 -22.8644 -22.8635 -22.8635   1.2829   1.2829   1.3204   1.3204
     1.4114   1.4114   1.4168   1.4168   1.6449   1.6449   1.6608   1.6608
    16.0384  16.0384  16.4003  16.4003  16.5158  16.5158  16.6189  16.6189
    16.6627  16.6627  16.7231  16.7231  16.8891  16.8891  17.1456  17.1456
    17.1519  17.1519  17.3074  17.3074  17.3870  17.3870  17.5545  17.5545
    17.6341  17.6341  17.6867  17.6867  17.7242  17.7242  17.8397  17.8397
    18.0021  18.0021  18.2889  18.2889  18.3780  18.3780  18.5990  18.5990
    23.1956  23.1956  23.6778  23.6778  25.0768  25.0768  25.7966  25.7966
    28.3582  28.3582  28.6049  28.6049  28.9664  28.9664  29.4418  29.4418
    30.2886  30.2886  30.5776  30.5776  30.8366  30.8366  31.2142  31.2142
    31.8662  31.8662  32.6764  32.6764  33.7486  33.7486  34.8962  34.8962
    35.9221  35.9221  37.0024  37.0024  37.4084  37.4084  38.3237  38.3237
    39.7071  39.7072  40.1675  40.1675  41.0124  41.0124  41.0634  41.0634
    41.3547  41.3547  41.7573  41.7574  42.1039  42.1040  42.5203  42.5204

     the Fermi energy is    35.5403 ev

!    total energy              =   -3237.45853534 Ry
     Harris-Foulkes estimate   =   -3237.45860670 Ry
     estimated scf accuracy    <       0.00008502 Ry

     The total energy is the sum of the following terms:

     one-electron contribution =    -440.84253121 Ry
     hartree contribution      =     437.53754679 Ry
     xc contribution           =    -294.39589324 Ry
     ewald contribution        =   -2939.46538587 Ry
     smearing contrib. (-TS)   =      -0.29227182 Ry

     convergence has been achieved in  10 iterations

     Forces acting on atoms (Ry/au):

     atom    1 type  1   force =     0.00000000   -0.05088029    0.00265354
     atom    2 type  1   force =     0.00000000    0.05088029   -0.00265354
     atom    3 type  1   force =     0.00000000   -0.05088029   -0.00265354
     atom    4 type  1   force =     0.00000000    0.05088029    0.00265354
     atom    5 type  1   force =     0.00000000    0.06117069    0.00152497
     atom    6 type  1   force =     0.00000000   -0.06117069   -0.00152497
     atom    7 type  1   force =     0.00000000    0.06117069   -0.00152497
     atom    8 type  1   force =     0.00000000   -0.06117069    0.00152497
     atom    9 type  2   force =     0.00000000   -0.06419292    0.01269755
     atom   10 type  2   force =     0.00000000    0.06419292   -0.01269755
     atom   11 type  2   force =     0.00000000   -0.06419292   -0.01269755
     atom   12 type  2   force =     0.00000000    0.06419292    0.01269755

     Total force =     0.206126     Total SCF correction =     0.000000

     entering subroutine stress ...

          total   stress  (Ry/bohr**3)                   (kbar)     P= 1075.69
   0.00753177   0.00000000   0.00000000       1107.96      0.00      0.00
   0.00000000   0.00698052   0.00000000          0.00   1026.87      0.00
   0.00000000   0.00000000   0.00742480          0.00      0.00   1092.23

     Writing output data file Prototype-La-oP12-Co2Si.save

     General routines

     Parallel routines

   This run was terminated on:  23: 9:15  22Mar2018

   JOB DONE.