     Program PWSCF v.5.0.2 starts on 21Mar2018 at 22:59:10

     Current dimensions of program PWSCF are:
     Max number of different atomic species (ntypx) = 10
     Max number of k-points (npk) =  40000
     Max angular momentum in pseudopotentials (lmaxx) =  3
     Waiting for input...
     Reading input from standard input

     bravais-lattice index     =            0
     lattice parameter (alat)  =       7.0732  a.u.
     unit-cell volume          =     984.3927 (a.u.)^3
     number of atoms/cell      =            4
     number of atomic types    =            1
     number of electrons       =        52.00
     number of Kohn-Sham states=           31
     kinetic-energy cutoff     =      40.0000  Ry
     charge density cutoff     =     160.0000  Ry
     convergence threshold     =      1.0E-04
     mixing beta               =       0.7000
     number of iterations used =            8  plain     mixing
     Exchange-correlation      = SLA-PZ-NOGX-NOGC ( 1 1 0 0 0)
     EXX-fraction              =        0.00
     nstep                     =           50

     celldm(1)=   7.073224  celldm(2)=   0.000000  celldm(3)=   0.000000
     celldm(4)=   0.000000  celldm(5)=   0.000000  celldm(6)=   0.000000

     crystal axes: (cart. coord. in units of alat)
               a(1) = (   1.000000   0.000000   0.000000 )
               a(2) = (  -0.500000   0.866025   0.000000 )
               a(3) = (   0.000000   0.000000   3.212074 )

     reciprocal axes: (cart. coord. in units 2 pi/alat)
               b(1) = (  1.000000  0.577350  0.000000 )
               b(2) = (  0.000000  1.154701  0.000000 )
               b(3) = (  0.000000  0.000000  0.311325 )

     PseudoPot. # 1 for Pr read from file:
     /home/cwx6513/pp.La/Pr.UPF
     MD5 check sum: 70e2b4b153859e92c8c91247dfc63203
     Pseudo is Norm-conserving, Zval = 13.0
     Generated in analytical, separable form
     Using radial grid of 1255 points,  6 beta functions with:
                l(1) =   0
                l(2) =   0
                l(3) =   1
                l(4) =   1
                l(5) =   2
                l(6) =   3

     atomic species   valence    mass     pseudopotential
        Pr            13.00   140.90800     Pr( 1.00)

     24 Sym. Ops., with inversion, found (12 have fractional translation)

   Cartesian axes

     site n.     atom                  positions (alat units)
         1           Pr  tau(   1) = (   0.0000000   0.0000000   0.0000000  )
         2           Pr  tau(   2) = (   0.0000000   0.0000000   1.6060372  )
         3           Pr  tau(   3) = (  -0.0000005   0.5773506   0.8030186  )
         4           Pr  tau(   4) = (   0.5000005   0.2886748   2.4090558  )

     number of k points=    12  gaussian smearing, width (Ry)=  0.1000
                       cart. coord. in units 2pi/alat
        k(    1) = (   0.0000000   0.0000000   0.0000000), wk =   0.0833333
        k(    2) = (   0.0000000   0.0000000   0.0778313), wk =   0.1666667
        k(    3) = (   0.0000000   0.0000000  -0.1556626), wk =   0.0833333
        k(    4) = (   0.0000000   0.3849002   0.0000000), wk =   0.1666667
        k(    5) = (   0.0000000   0.3849002   0.0778313), wk =   0.3333333
        k(    6) = (   0.0000000   0.3849002  -0.1556626), wk =   0.1666667
        k(    7) = (  -0.5000000  -0.2886751   0.0000000), wk =   0.0833333
        k(    8) = (  -0.5000000  -0.2886751   0.0778313), wk =   0.1666667
        k(    9) = (  -0.5000000  -0.2886751  -0.1556626), wk =   0.0833333
        k(   10) = (  -0.5000000   0.0962250   0.0000000), wk =   0.1666667
        k(   11) = (  -0.5000000   0.0962250   0.0778313), wk =   0.3333333
        k(   12) = (  -0.5000000   0.0962250  -0.1556626), wk =   0.1666667

     Largest allocated arrays     est. size (Mb)     dimensions
     Largest temporary arrays     est. size (Mb)     dimensions

     Initial potential from superposition of free atoms
     Check: negative starting charge=   -0.000483

     starting charge   51.96217, renormalised to   52.00000

     negative rho (up, down):  0.484E-03 0.000E+00
     Starting wfc are   80 randomized atomic wfcs

     Self-consistent Calculation

     iteration #  1     ecut=    40.00 Ry     beta=0.70
     CG style diagonalization
     ethr =  1.00E-02,  avg # of iterations =  2.3

     negative rho (up, down):  0.133E-03 0.000E+00

     total energy              =    -369.06497266 Ry
     Harris-Foulkes estimate   =    -377.58758514 Ry
     estimated scf accuracy    <      11.27849895 Ry

[...]

     iteration #  5     ecut=    40.00 Ry     beta=0.70
     CG style diagonalization
     c_bands:  1 eigenvalues not converged
     ethr =  1.87E-05,  avg # of iterations =  3.9

[...]

     End of self-consistent calculation

          k = 0.0000 0.0000 0.0000 (  4167 PWs)   bands (ev):

   -32.1736 -32.1444 -32.1335 -32.1033 -12.1570 -11.8590 -11.8514 -11.6607
   -11.6607 -11.6237 -11.6237 -11.6111 -11.6111 -11.5701 -11.5701 -11.5325
     7.2566   8.4611   8.4638   8.7538  10.9463  10.9756  11.1448  11.1448
    11.1723  11.1723  11.3637  11.5161  11.5161  11.5929  11.5929

[...]

          k =-0.5000-0.2887 0.0000 (  4208 PWs)   bands (ev):

[...]

     the Fermi energy is    11.4389 ev

!    total energy              =    -371.54774107 Ry
     Harris-Foulkes estimate   =    -371.54774221 Ry
     estimated scf accuracy    <       0.00000143 Ry

     The total energy is the sum of the following terms:

     one-electron contribution =     -63.51549600 Ry
     hartree contribution      =      48.35200535 Ry
     xc contribution           =     -44.36712208 Ry
     ewald contribution        =    -311.54699087 Ry
     smearing contrib. (-TS)   =      -0.47013747 Ry

     convergence has been achieved in   9 iterations

     Forces acting on atoms (Ry/au):

     atom    1 type  1   force =     0.00000000    0.00000000    0.00000000
     atom    2 type  1   force =     0.00000000    0.00000000    0.00000000
     atom    3 type  1   force =     0.00000000    0.00000000    0.00000000
     atom    4 type  1   force =     0.00000000    0.00000000    0.00000000

     Total force =     0.000000     Total SCF correction =     0.000000

     entering subroutine stress ...

          total   stress  (Ry/bohr**3)                   (kbar)     P= -263.76
  -0.00191113   0.00000000   0.00000000       -281.14      0.00      0.00
   0.00000000  -0.00191113   0.00000000          0.00   -281.14      0.00
   0.00000000   0.00000000  -0.00155668          0.00      0.00   -229.00

     BFGS Geometry Optimization

     number of scf cycles    =   1
     number of bfgs steps    =   0

     enthalpy new            =    -371.5477410661 Ry

     new trust radius        =       0.2998081388 bohr
     new conv_thr            =       0.0001000000 Ry

     new unit-cell volume =    857.83848 a.u.^3 (   127.11855 Ang^3 )

CELL_PARAMETERS (alat=  7.07322357)
   0.952221861   0.000000000   0.000000000
  -0.476110930   0.824648321   0.000000000
   0.000000000   0.000000000   3.087069742

ATOMIC_POSITIONS (crystal)
Pr       0.000000000   0.000000000   0.000000000
Pr       0.000000000   0.000000000   0.500000000
Pr       0.333333000   0.666667000   0.250000000
Pr       0.666667000   0.333333000   0.750000000

     Writing output data file Element-Pr.q.save
     Check: negative starting charge=   -0.000483
     NEW-OLD atomic charge density approx. for the potential
     NEW k-points:
        k(    1) = (   0.0000000   0.0000000   0.0000000), wk =   0.0833333
        k(    2) = (   0.0000000   0.0000000   0.0809829), wk =   0.1666667
        k(    3) = (   0.0000000   0.0000000  -0.1619659), wk =   0.0833333
        k(    4) = (   0.0000000   0.4042127   0.0000000), wk =   0.1666667
        k(    5) = (   0.0000000   0.4042127   0.0809829), wk =   0.3333333
        k(    6) = (   0.0000000   0.4042127  -0.1619659), wk =   0.1666667
        k(    7) = (  -0.5250877  -0.3031595   0.0000000), wk =   0.0833333
        k(    8) = (  -0.5250877  -0.3031595   0.0809829), wk =   0.1666667
        k(    9) = (  -0.5250877  -0.3031595  -0.1619659), wk =   0.0833333
        k(   10) = (  -0.5250877   0.1010532   0.0000000), wk =   0.1666667
        k(   11) = (  -0.5250877   0.1010532   0.0809829), wk =   0.3333333
        k(   12) = (  -0.5250877   0.1010532  -0.1619659), wk =   0.1666667

     negative rho (up, down):  0.334E+00 0.000E+00
     extrapolated charge   44.33418, renormalised to   52.00000

[...]

     enthalpy old            =    -371.5477410661 Ry
     enthalpy new            =    -371.7579018546 Ry

     CASE: enthalpy_new < enthalpy_old

     small trust_radius: resetting bfgs history

[...]

     Writing output data file Element-Pr.q.save
     NEW-OLD atomic charge density approx. for the potential
     NEW k-points:
        k(    1) = (   0.0000000   0.0000000   0.0000000), wk =   0.0833333
        k(    2) = (   0.0000000   0.0000000   0.0832219), wk =   0.1666667
        k(    3) = (   0.0000000   0.0000000  -0.1664438), wk =   0.0833333
        k(    4) = (   0.0000000   0.4218124   0.0000000), wk =   0.1666667
        k(    5) = (   0.0000000   0.4218124   0.0832219), wk =   0.3333333
        k(    6) = (   0.0000000   0.4218124  -0.1664438), wk =   0.1666667
        k(    7) = (  -0.5479504  -0.3163593   0.0000000), wk =   0.0833333
        k(    8) = (  -0.5479504  -0.3163593   0.0832219), wk =   0.1666667
        k(    9) = (  -0.5479504  -0.3163593  -0.1664438), wk =   0.0833333
        k(   10) = (  -0.5479504   0.1054531   0.0000000), wk =   0.1666667
        k(   11) = (  -0.5479504   0.1054531   0.0832219), wk =   0.3333333
        k(   12) = (  -0.5479504   0.1054531  -0.1664438), wk =   0.1666667

[...]

     number of scf cycles    =   3
     number of bfgs steps    =   2

     enthalpy old            =    -371.7579018546 Ry
     enthalpy new            =    -371.8820964194 Ry

     CASE: enthalpy_new < enthalpy_old

     Message from routine bfgs:
     history already reset at previous step: stopping
     small trust_radius: resetting bfgs history

     new trust radius        =       0.1933859038 bohr
     new conv_thr            =       0.0000010000 Ry

     new unit-cell volume =    705.09349 a.u.^3 (   104.48407 Ang^3 )

[...]

ATOMIC_POSITIONS (crystal)
Pr       0.000000000   0.000000000   0.000000000
Pr       0.000000000   0.000000000   0.500000000
Pr       0.333333000   0.666667000   0.250000000
Pr       0.666667000   0.333333000   0.750000000

     Writing output data file Element-Pr.q.save
     NEW-OLD atomic charge density approx. for the potential
     NEW k-points:
        k(    1) = (   0.0000000   0.0000000   0.0000000), wk =   0.0833333
        k(    2) = (   0.0000000   0.0000000   0.0842668), wk =   0.1666667
        k(    3) = (   0.0000000   0.0000000  -0.1685337), wk =   0.0833333
        k(    4) = (   0.0000000   0.4370769   0.0000000), wk =   0.1666667
        k(    5) = (   0.0000000   0.4370769   0.0842668), wk =   0.3333333
        k(    6) = (   0.0000000   0.4370769  -0.1685337), wk =   0.1666667
        k(    7) = (  -0.5677795  -0.3278077   0.0000000), wk =   0.0833333
        k(    8) = (  -0.5677795  -0.3278077   0.0842668), wk =   0.1666667
        k(    9) = (  -0.5677795  -0.3278077  -0.1685337), wk =   0.0833333
        k(   10) = (  -0.5677795   0.1092692   0.0000000), wk =   0.1666667
        k(   11) = (  -0.5677795   0.1092692   0.0842668), wk =   0.3333333
        k(   12) = (  -0.5677795   0.1092692  -0.1685337), wk =   0.1666667

     negative rho (up, down):  0.807E-01 0.000E+00
     extrapolated charge   47.47065, renormalised to   52.00000

[...]

     The maximum number of steps has been reached.

     End of BFGS Geometry Optimization
Begin final coordinates
     new unit-cell volume =    705.09349 a.u.^3 (   104.48407 Ang^3 )

CELL_PARAMETERS (alat=  7.07322357)
   0.880623543   0.000000000   0.000000000
  -0.440311771   0.762642359   0.000000000
   0.000000000   0.000000000   2.966766275

ATOMIC_POSITIONS (crystal)
Pr       0.000000000   0.000000000   0.000000000
Pr       0.000000000   0.000000000   0.500000000
Pr       0.333333000   0.666667000   0.250000000
Pr       0.666667000   0.333333000   0.750000000
End final coordinates

     A final scf calculation at the relaxed structure.
     The G-vectors are recalculated for the final unit cell
     Results may differ from those at the preceding step.

     bravais-lattice index     =            0
     lattice parameter (alat)  =       7.0732  a.u.
     unit-cell volume          =     705.0935 (a.u.)^3
     number of atoms/cell      =            4
     number of atomic types    =            1
     number of electrons       =        52.00
     number of Kohn-Sham states=           31
     kinetic-energy cutoff     =      40.0000  Ry
     charge density cutoff     =     160.0000  Ry
     convergence threshold     =      1.0E-06
     mixing beta               =       0.7000
     number of iterations used =            8  plain     mixing
     Exchange-correlation      = SLA-PZ-NOGX-NOGC ( 1 1 0 0 0)
     EXX-fraction              =        0.00

     celldm(1)=   7.073224  celldm(2)=   0.000000  celldm(3)=   0.000000
     celldm(4)=   0.000000  celldm(5)=   0.000000  celldm(6)=   0.000000

     crystal axes: (cart. coord. in units of alat)
               a(1) = (   0.880624   0.000000   0.000000 )
               a(2) = (  -0.440312   0.762642   0.000000 )
               a(3) = (   0.000000   0.000000   2.966766 )

     reciprocal axes: (cart. coord. in units 2 pi/alat)
               b(1) = (  1.135559  0.655615  0.000000 )
               b(2) = (  0.000000  1.311231  0.000000 )
               b(3) = (  0.000000  0.000000  0.337067 )

     PseudoPot. # 1 for Pr read from file:
     /home/cwx6513/pp.La/Pr.UPF
     MD5 check sum: 70e2b4b153859e92c8c91247dfc63203
     Pseudo is Norm-conserving, Zval = 13.0
     Generated in analytical, separable form
     Using radial grid of 1255 points,  6 beta functions with:
                l(1) =   0
                l(2) =   0
                l(3) =   1
                l(4) =   1
                l(5) =   2
                l(6) =   3

     atomic species   valence    mass     pseudopotential
        Pr            13.00   140.90800     Pr( 1.00)

     24 Sym. Ops., with inversion, found (12 have fractional translation)

   Cartesian axes

     site n.     atom                  positions (alat units)
         1           Pr  tau(   1) = (   0.0000000   0.0000000   0.0000000  )
         2           Pr  tau(   2) = (   0.0000000   0.0000000   1.4833831  )
         3           Pr  tau(   3) = (  -0.0000004   0.5084285   0.7416916  )
         4           Pr  tau(   4) = (   0.4403122   0.2542139   2.2250747  )

     number of k points=    12  gaussian smearing, width (Ry)=  0.1000
                       cart. coord. in units 2pi/alat
        k(    1) = (   0.0000000   0.0000000   0.0000000), wk =   0.0833333
        k(    2) = (   0.0000000   0.0000000   0.0842668), wk =   0.1666667
        k(    3) = (   0.0000000   0.0000000  -0.1685337), wk =   0.0833333
        k(    4) = (   0.0000000   0.4370769   0.0000000), wk =   0.1666667
        k(    5) = (   0.0000000   0.4370769   0.0842668), wk =   0.3333333
        k(    6) = (   0.0000000   0.4370769  -0.1685337), wk =   0.1666667
        k(    7) = (  -0.5677795  -0.3278077   0.0000000), wk =   0.0833333
        k(    8) = (  -0.5677795  -0.3278077   0.0842668), wk =   0.1666667
        k(    9) = (  -0.5677795  -0.3278077  -0.1685337), wk =   0.0833333
        k(   10) = (  -0.5677795   0.1092692   0.0000000), wk =   0.1666667
        k(   11) = (  -0.5677795   0.1092692   0.0842668), wk =   0.3333333
        k(   12) = (  -0.5677795   0.1092692  -0.1685337), wk =   0.1666667

     Largest allocated arrays     est. size (Mb)     dimensions
     Largest temporary arrays     est. size (Mb)     dimensions

     Initial potential from superposition of free atoms
     Check: negative starting charge=   -0.000704

     starting charge   51.96217, renormalised to   52.00000

     negative rho (up, down):  0.704E-03 0.000E+00
     Starting wfc are   80 randomized atomic wfcs

     Writing output data file Element-Pr.q.save

     Self-consistent Calculation

     iteration #  1     ecut=    40.00 Ry     beta=0.70
     CG style diagonalization
     c_bands:  5 eigenvalues not converged
     c_bands:  1 eigenvalues not converged
     c_bands:  2 eigenvalues not converged
     c_bands:  5 eigenvalues not converged
     c_bands:  3 eigenvalues not converged
     c_bands:  3 eigenvalues not converged
     c_bands:  2 eigenvalues not converged
     c_bands:  3 eigenvalues not converged
     c_bands:  1 eigenvalues not converged
     ethr =  1.00E-06,  avg # of iterations = 11.3

[...]

     negative rho (up, down):  0.166E-04 0.000E+00

[...]

     total energy              =    -371.88942469 Ry
     Harris-Foulkes estimate   =    -371.88942560 Ry
     estimated scf accuracy    <       0.00000429 Ry

     iteration #  8     ecut=    40.00 Ry     beta=0.70
     CG style diagonalization
     ethr =  8.25E-09,  avg # of iterations =  3.3

     End of self-consistent calculation

[...]

          k = 0.0000 0.4371-0.1685 (  3024 PWs)   bands (ev):

[...]

          k =-0.5678 0.1093-0.1685 (  3012 PWs)   bands (ev):

   -25.7528 -25.7528 -25.6944 -25.6944  -6.4055  -6.4055  -6.3065  -6.3065
    -5.7306  -5.7306  -5.5432  -5.5432  -5.4558  -5.4558  -5.2231  -5.2231
    14.1165  14.1165  14.5888  14.5888  14.7269  14.7269  16.0473  16.0473
    16.8894  16.8894  17.6704  17.6704  18.2248  18.2248  19.6153

     the Fermi energy is    17.3086 ev

!    total energy              =    -371.88942444 Ry
     Harris-Foulkes estimate   =    -371.88942516 Ry
     estimated scf accuracy    <       0.00000080 Ry

     The total energy is the sum of the following terms:

     one-electron contribution =     -12.56072529 Ry
     hartree contribution      =      34.82838691 Ry
     xc contribution           =     -45.64571080 Ry
     ewald contribution        =    -348.17009389 Ry
     smearing contrib. (-TS)   =      -0.34128136 Ry

     convergence has been achieved in   8 iterations

     Forces acting on atoms (Ry/au):

     atom    1 type  1   force =     0.00000000    0.00000000    0.00000000
     atom    2 type  1   force =     0.00000000    0.00000000    0.00000000
     atom    3 type  1   force =     0.00000000    0.00000000    0.00000000
     atom    4 type  1   force =     0.00000000    0.00000000    0.00000000

     Total force =     0.000000     Total SCF correction =     0.000000

     entering subroutine stress ...

          total   stress  (Ry/bohr**3)                   (kbar)     P= -163.06
  -0.00152344   0.00000000   0.00000000       -224.11      0.00      0.00
   0.00000000  -0.00152344   0.00000000          0.00   -224.11      0.00
   0.00000000   0.00000000  -0.00027850          0.00      0.00    -40.97

     Writing output data file Element-Pr.q.save

     General routines

     Parallel routines

   This run was terminated on:  22:59:44  21Mar2018

   JOB DONE.