     Program PWSCF v.5.0.2 starts on 23Mar2018 at  0:54:30

     Current dimensions of program PWSCF are:
     Max number of different atomic species (ntypx) = 10
     Max number of k-points (npk) =  40000
     Max angular momentum in pseudopotentials (lmaxx) =  3
     Waiting for input...
     Reading input from standard input

     Subspace diagonalization in iterative solution of the eigenvalue problem:
     a serial algorithm will be used

     bravais-lattice index     =            0
     lattice parameter (alat)  =       9.9235  a.u.
     unit-cell volume          =    1361.0366 (a.u.)^3
     number of atoms/cell      =           12
     number of atomic types    =            2
     number of electrons       =       244.00
     number of Kohn-Sham states=          146
     kinetic-energy cutoff     =      40.0000  Ry
     charge density cutoff     =     160.0000  Ry
     convergence threshold     =      1.0E-04
     mixing beta               =       0.7000
     number of iterations used =            8  plain     mixing
     Exchange-correlation      = SLA-PZ-NOGX-NOGC ( 1 1 0 0 0)
     EXX-fraction              =        0.00
     nstep                     =           50

     celldm(1)=   9.923489  celldm(2)=   0.000000  celldm(3)=   0.000000
     celldm(4)=   0.000000  celldm(5)=   0.000000  celldm(6)=   0.000000

     crystal axes: (cart. coord. in units of alat)
               a(1) = (   1.000000   0.000000   0.000000 )
               a(2) = (  -0.500000   0.866025   0.000000 )
               a(3) = (   0.000000   0.000000   1.608222 )

     reciprocal axes: (cart. coord. in units 2 pi/alat)
               b(1) = (  1.000000  0.577350  0.000000 )
               b(2) = (  0.000000  1.154701  0.000000 )
               b(3) = (  0.000000  0.000000  0.621805 )

     PseudoPot. # 1 for Ho read from file:
     /home/cwx6513/pp.La/Ho.UPF
     MD5 check sum: f307ee11bce99f5b724fa279e3790763
     Pseudo is Norm-conserving, Zval = 21.0
     Generated in analytical, separable form
     Using radial grid of 1265 points,  6 beta functions with:
                l(1) =   0
                l(2) =   0
                l(3) =   1
                l(4) =   1
                l(5) =   2
                l(6) =   3

     PseudoPot. # 2 for Dy read from file:
     /home/cwx6513/pp.La/Dy.UPF
     MD5 check sum: 9597327bec62616a94a14d07f3fd9936
     Pseudo is Norm-conserving, Zval = 20.0
     Generated in analytical, separable form
     Using radial grid of 1265 points,  6 beta functions with:
                l(1) =   0
                l(2) =   0
                l(3) =   1
                l(4) =   1
                l(5) =   2
                l(6) =   3

     atomic species   valence    mass     pseudopotential
        Mg            21.00    24.30500     Ho( 1.00)
        Zn            20.00    65.39000     Dy( 1.00)

     24 Sym. Ops., with inversion, found (12 have fractional translation)

   Cartesian axes

     site n.     atom                  positions (alat units)
         1           Mg  tau(   1) = (  -0.0000005   0.5773506   0.1003820  )
         2           Mg  tau(   2) = (   0.5000005   0.2886748   0.9044931  )
         3           Mg  tau(   3) = (   0.5000005   0.2886748   1.5078402  )
         4           Mg  tau(   4) = (  -0.0000005   0.5773506   0.7037291  )
         5           Zn  tau(   5) = (   0.0000000   0.0000000   0.0000000  )
         6           Zn  tau(   6) = (   0.0000000   0.0000000   0.8041111  )
         7           Zn  tau(   7) = (   0.0000000   0.2950739   1.2061667  )
         8           Zn  tau(   8) = (   0.7444585   0.1475370   0.4020556  )
         9           Zn  tau(   9) = (   0.2555415   0.1475370   0.4020556  )
        10           Zn  tau(  10) = (   0.2444585   0.7184884   1.2061667  )
        11           Zn  tau(  11) = (  -0.2444585   0.7184884   1.2061667  )
        12           Zn  tau(  12) = (   0.5000000   0.5709515   0.4020556  )

     number of k points=    12  gaussian smearing, width (Ry)=  0.1000
                       cart. coord. in units 2pi/alat
        k(    1) = (   0.0000000   0.0000000   0.0000000), wk =   0.0833333
        k(    2) = (   0.0000000   0.0000000   0.1554512), wk =   0.1666667
        k(    3) = (   0.0000000   0.0000000  -0.3109023), wk =   0.0833333
        k(    4) = (   0.0000000   0.3849002   0.0000000), wk =   0.1666667
        k(    5) = (   0.0000000   0.3849002   0.1554512), wk =   0.3333333
        k(    6) = (   0.0000000   0.3849002  -0.3109023), wk =   0.1666667
        k(    7) = (  -0.5000000  -0.2886751   0.0000000), wk =   0.0833333
        k(    8) = (  -0.5000000  -0.2886751   0.1554512), wk =   0.1666667
        k(    9) = (  -0.5000000  -0.2886751  -0.3109023), wk =   0.0833333
        k(   10) = (  -0.5000000   0.0962250   0.0000000), wk =   0.1666667
        k(   11) = (  -0.5000000   0.0962250   0.1554512), wk =   0.3333333
        k(   12) = (  -0.5000000   0.0962250  -0.3109023), wk =   0.1666667

     Largest allocated arrays     est. size (Mb)     dimensions
     Largest temporary arrays     est. size (Mb)     dimensions

     Initial potential from superposition of free atoms

     Starting from uniform charge
     Starting wfc are    0 randomized atomic wfcs

     Self-consistent Calculation

     iteration #  1     ecut=    40.00 Ry     beta=0.70
     CG style diagonalization
     ethr =  1.00E-02,  avg # of iterations = 18.0

     total energy              =   -2948.25462917 Ry
     Harris-Foulkes estimate   =   -3929.97738951 Ry
     estimated scf accuracy    <    1249.34572801 Ry

[...]

     iteration #  3     ecut=    40.00 Ry     beta=0.70
     CG style diagonalization
     c_bands:  2 eigenvalues not converged
     c_bands:  1 eigenvalues not converged
     c_bands:  1 eigenvalues not converged
     ethr =  1.00E-02,  avg # of iterations =  9.2

[...]

     End of self-consistent calculation

          k = 0.0000 0.0000 0.0000 (  5769 PWs)   bands (ev):

   -59.4383 -59.4332 -59.4256 -59.4097 -51.9807 -51.9548 -51.7910 -51.7909
   -51.7853 -51.7852 -51.7821 -51.7281 -23.6761 -23.6622 -23.6608 -23.6608
   -23.6355 -23.6354 -23.6094 -23.5853 -23.5853 -23.5848 -23.5796 -23.5796
   -20.1972 -19.9701 -19.5678 -19.2636 -19.2636 -19.2166 -19.2165 -19.0862
   -19.0862 -18.9316 -18.8688 -18.7669 -18.7669 -18.7074 -18.7073 -18.4376
   -18.4375 -18.4292 -18.4174 -18.4071 -18.3738 -18.3738 -18.3717 -18.3716
    16.4771  17.1328  17.4870  18.1752  18.1752  18.5792  18.6450  18.6450
    18.7044  18.8382  19.0356  19.0356  19.1370  19.1370  19.1916  19.1916
    19.2160  19.3247  19.3247  19.6499  19.6625  19.6625  19.9211  19.9212
    20.2419  20.2419  20.2822  20.2822  20.3437  20.3652  20.3652  20.5740
    20.6627  20.6627  20.8629  21.1086  21.1086  22.0635  22.0635  22.1078
    22.2717  22.3174  22.3174  23.0226  23.0226  23.1835  23.4919  23.6073
    23.6950  23.6950  23.6974  23.9683  23.9683  24.0504  24.0504  24.3758
    24.3758  25.3731  25.3732  25.7638  25.7638  26.7260  26.7286  28.8721
    29.1035  29.6748  30.0053  30.0054  30.6088  30.6089  30.6565  31.6668
    32.4615  32.4616  32.8651  33.5685  34.2749  34.2751  34.5437  34.5825
    34.5826  36.3562  36.3562  37.6109  37.9078  37.9078  37.9134  37.9472
    38.2838  38.2839  38.4047  38.8706  38.9660  38.9661  39.3226  39.3227
    39.5101  39.5104

[...]

          k =-0.5000-0.2887 0.0000 (  5800 PWs)   bands (ev):

[...]

     the Fermi energy is    33.7188 ev

!    total energy              =   -3255.70825595 Ry
     Harris-Foulkes estimate   =   -3255.70827378 Ry
     estimated scf accuracy    <       0.00001918 Ry

     The total energy is the sum of the following terms:

     one-electron contribution =    -472.57452372 Ry
     hartree contribution      =     452.96519840 Ry
     xc contribution           =    -299.21178780 Ry
     ewald contribution        =   -2936.64778131 Ry
     smearing contrib. (-TS)   =      -0.23936152 Ry

     convergence has been achieved in  12 iterations

     Forces acting on atoms (Ry/au):

     atom    1 type  1   force =     0.00000000    0.00000000    0.01887691
     atom    2 type  1   force =     0.00000000    0.00000000    0.01887691
     atom    3 type  1   force =     0.00000000    0.00000000   -0.01887691
     atom    4 type  1   force =     0.00000000    0.00000000   -0.01887691
     atom    5 type  2   force =     0.00000000    0.00000000    0.00000000
     atom    6 type  2   force =     0.00000000    0.00000000    0.00000000
     atom    7 type  2   force =     0.00000000    0.05287106    0.00000000
     atom    8 type  2   force =    -0.04578768    0.02643553    0.00000000
     atom    9 type  2   force =     0.04578768    0.02643553    0.00000000
     atom   10 type  2   force =    -0.04578768   -0.02643553    0.00000000
     atom   11 type  2   force =     0.04578768   -0.02643553    0.00000000
     atom   12 type  2   force =     0.00000000   -0.05287106    0.00000000

     Total force =     0.134898     Total SCF correction =     0.000000

     entering subroutine stress ...

          total   stress  (Ry/bohr**3)                   (kbar)     P=  979.90
   0.00656626   0.00000000   0.00000000        965.93      0.00      0.00
   0.00000000   0.00656626   0.00000000          0.00    965.93      0.00
   0.00000000   0.00000000   0.00685121          0.00      0.00   1007.85

     BFGS Geometry Optimization

     number of scf cycles    =   1
     number of bfgs steps    =   0

     enthalpy new            =   -3255.7082559468 Ry

     new trust radius        =       0.5000000000 bohr
     new conv_thr            =       0.0001000000 Ry

     new unit-cell volume =   1648.16667 a.u.^3 (   244.23310 Ang^3 )

CELL_PARAMETERS (alat=  9.92348860)
   1.064946585   0.000000000   0.000000000
  -0.532473293   0.922270797   0.000000000
   0.000000000   0.000000000   1.717203317

ATOMIC_POSITIONS (crystal)
Mg       0.333333000   0.666667000   0.062885970
Mg       0.666667000   0.333333000   0.562885970
Mg       0.666667000   0.333333000   0.937114030
Mg       0.333333000   0.666667000   0.437114030
Zn       0.000000000   0.000000000   0.000000000
Zn       0.000000000   0.000000000   0.500000000
Zn       0.171578001   0.343156003   0.750000000
Zn       0.828421999   0.171578001   0.250000000
Zn       0.343156003   0.171578001   0.250000000
Zn       0.656843997   0.828421999   0.750000000
Zn       0.171578001   0.828421999   0.750000000
Zn       0.828421999   0.656843997   0.250000000

     Writing output data file Prototype-La-hP12-MgZn2.save
     NEW-OLD atomic charge density approx. for the potential
     NEW k-points:
        k(    1) = (   0.0000000   0.0000000   0.0000000), wk =   0.0833333
        k(    2) = (   0.0000000   0.0000000   0.1455856), wk =   0.1666667
        k(    3) = (   0.0000000   0.0000000  -0.2911711), wk =   0.0833333
        k(    4) = (   0.0000000   0.3614267   0.0000000), wk =   0.1666667
        k(    5) = (   0.0000000   0.3614267   0.1455856), wk =   0.3333333
        k(    6) = (   0.0000000   0.3614267  -0.2911711), wk =   0.1666667
        k(    7) = (  -0.4695071  -0.2710701   0.0000000), wk =   0.0833333
        k(    8) = (  -0.4695071  -0.2710701   0.1455856), wk =   0.1666667
        k(    9) = (  -0.4695071  -0.2710701  -0.2911711), wk =   0.0833333
        k(   10) = (  -0.4695071   0.0903567   0.0000000), wk =   0.1666667
        k(   11) = (  -0.4695071   0.0903567   0.1455856), wk =   0.3333333
        k(   12) = (  -0.4695071   0.0903567  -0.2911711), wk =   0.1666667

[...]

     enthalpy old            =   -3255.7082559468 Ry
     enthalpy new            =   -3256.2399596356 Ry

     CASE: enthalpy_new < enthalpy_old

     small trust_radius: resetting bfgs history

     new trust radius        =       0.3832674603 bohr
     new conv_thr            =       0.0000064551 Ry

[...]

     number of scf cycles    =   3
     number of bfgs steps    =   2

     enthalpy old            =   -3256.2399596356 Ry
     enthalpy new            =   -3256.0694598665 Ry

     CASE: enthalpy_new > enthalpy_old

     new trust radius        =       0.1338232379 bohr

     trust_radius < trust_radius_min

     resetting bfgs history

     Message from routine bfgs:
     history already reset at previous step: stopping
     new conv_thr            =       0.0000064551 Ry

     new unit-cell volume =   1418.91161 a.u.^3 (   210.26101 Ang^3 )

[...]

ATOMIC_POSITIONS (crystal)
Mg       0.333333000   0.666667000   0.062929376
Mg       0.666667000   0.333333000   0.562929376
Mg       0.666667000   0.333333000   0.937070624
Mg       0.333333000   0.666667000   0.437070624
Zn       0.000000000   0.000000000   0.000000000
Zn       0.000000000   0.000000000   0.500000000
Zn       0.171190475   0.342380950   0.750000000
Zn       0.828809525   0.171190475   0.250000000
Zn       0.342380950   0.171190475   0.250000000
Zn       0.657619050   0.828809525   0.750000000
Zn       0.171190475   0.828809525   0.750000000
Zn       0.828809525   0.657619050   0.250000000

     Writing output data file Prototype-La-hP12-MgZn2.save
     NEW-OLD atomic charge density approx. for the potential
     NEW k-points:
        k(    1) = (   0.0000000   0.0000000   0.0000000), wk =   0.0833333
        k(    2) = (   0.0000000   0.0000000   0.1531549), wk =   0.1666667
        k(    3) = (   0.0000000   0.0000000  -0.3063097), wk =   0.0833333
        k(    4) = (   0.0000000   0.3797842   0.0000000), wk =   0.1666667
        k(    5) = (   0.0000000   0.3797842   0.1531549), wk =   0.3333333
        k(    6) = (   0.0000000   0.3797842  -0.3063097), wk =   0.1666667
        k(    7) = (  -0.4933542  -0.2848382   0.0000000), wk =   0.0833333
        k(    8) = (  -0.4933542  -0.2848382   0.1531549), wk =   0.1666667
        k(    9) = (  -0.4933542  -0.2848382  -0.3063097), wk =   0.0833333
        k(   10) = (  -0.4933542   0.0949461   0.0000000), wk =   0.1666667
        k(   11) = (  -0.4933542   0.0949461   0.1531549), wk =   0.3333333
        k(   12) = (  -0.4933542   0.0949461  -0.3063097), wk =   0.1666667

[...]

     The maximum number of steps has been reached.

     End of BFGS Geometry Optimization
Begin final coordinates
     new unit-cell volume =   1418.91161 a.u.^3 (   210.26101 Ang^3 )

CELL_PARAMETERS (alat=  9.92348860)
   1.013470650   0.000000000   0.000000000
  -0.506735325   0.877691329   0.000000000
   0.000000000   0.000000000   1.632334778

ATOMIC_POSITIONS (crystal)
Mg       0.333333000   0.666667000   0.062929376
Mg       0.666667000   0.333333000   0.562929376
Mg       0.666667000   0.333333000   0.937070624
Mg       0.333333000   0.666667000   0.437070624
Zn       0.000000000   0.000000000   0.000000000
Zn       0.000000000   0.000000000   0.500000000
Zn       0.171190475   0.342380950   0.750000000
Zn       0.828809525   0.171190475   0.250000000
Zn       0.342380950   0.171190475   0.250000000
Zn       0.657619050   0.828809525   0.750000000
Zn       0.171190475   0.828809525   0.750000000
Zn       0.828809525   0.657619050   0.250000000
End final coordinates

     A final scf calculation at the relaxed structure.
     The G-vectors are recalculated for the final unit cell
     Results may differ from those at the preceding step.

     bravais-lattice index     =            0
     lattice parameter (alat)  =       9.9235  a.u.
     unit-cell volume          =    1418.9116 (a.u.)^3
     number of atoms/cell      =           12
     number of atomic types    =            2
     number of electrons       =       244.00
     number of Kohn-Sham states=          146
     kinetic-energy cutoff     =      40.0000  Ry
     charge density cutoff     =     160.0000  Ry
     convergence threshold     =      6.5E-06
     mixing beta               =       0.7000
     number of iterations used =            8  plain     mixing
     Exchange-correlation      = SLA-PZ-NOGX-NOGC ( 1 1 0 0 0)
     EXX-fraction              =        0.00

     celldm(1)=   9.923489  celldm(2)=   0.000000  celldm(3)=   0.000000
     celldm(4)=   0.000000  celldm(5)=   0.000000  celldm(6)=   0.000000

     crystal axes: (cart. coord. in units of alat)
               a(1) = (   1.013471   0.000000   0.000000 )
               a(2) = (  -0.506735   0.877691   0.000000 )
               a(3) = (   0.000000   0.000000   1.632335 )

     reciprocal axes: (cart. coord. in units 2 pi/alat)
               b(1) = (  0.986708  0.569676  0.000000 )
               b(2) = (  0.000000  1.139353  0.000000 )
               b(3) = (  0.000000  0.000000  0.612619 )

     PseudoPot. # 1 for Ho read from file:
     /home/cwx6513/pp.La/Ho.UPF
     MD5 check sum: f307ee11bce99f5b724fa279e3790763
     Pseudo is Norm-conserving, Zval = 21.0
     Generated in analytical, separable form
     Using radial grid of 1265 points,  6 beta functions with:
                l(1) =   0
                l(2) =   0
                l(3) =   1
                l(4) =   1
                l(5) =   2
                l(6) =   3

     PseudoPot. # 2 for Dy read from file:
     /home/cwx6513/pp.La/Dy.UPF
     MD5 check sum: 9597327bec62616a94a14d07f3fd9936
     Pseudo is Norm-conserving, Zval = 20.0
     Generated in analytical, separable form
     Using radial grid of 1265 points,  6 beta functions with:
                l(1) =   0
                l(2) =   0
                l(3) =   1
                l(4) =   1
                l(5) =   2
                l(6) =   3

     atomic species   valence    mass     pseudopotential
        Mg            21.00    24.30500     Ho( 1.00)
        Zn            20.00    65.39000     Dy( 1.00)

     24 Sym. Ops., with inversion, found (12 have fractional translation)

   Cartesian axes

     site n.     atom                  positions (alat units)
         1           Mg  tau(   1) = (  -0.0000005   0.5851278   0.1027218  )
         2           Mg  tau(   2) = (   0.5067358   0.2925635   0.9188892  )
         3           Mg  tau(   3) = (   0.5067358   0.2925635   1.5296130  )
         4           Mg  tau(   4) = (  -0.0000005   0.5851278   0.7134456  )
         5           Zn  tau(   5) = (   0.0000000   0.0000000   0.0000000  )
         6           Zn  tau(   6) = (   0.0000000   0.0000000   0.8161674  )
         7           Zn  tau(   7) = (   0.0000000   0.3005048   1.2242511  )
         8           Zn  tau(   8) = (   0.7532259   0.1502524   0.4080837  )
         9           Zn  tau(   9) = (   0.2602448   0.1502524   0.4080837  )
        10           Zn  tau(  10) = (   0.2464905   0.7274389   1.2242511  )
        11           Zn  tau(  11) = (  -0.2464905   0.7274389   1.2242511  )
        12           Zn  tau(  12) = (   0.5067353   0.5771865   0.4080837  )

     number of k points=    12  gaussian smearing, width (Ry)=  0.1000
                       cart. coord. in units 2pi/alat
        k(    1) = (   0.0000000   0.0000000   0.0000000), wk =   0.0833333
        k(    2) = (   0.0000000   0.0000000   0.1531549), wk =   0.1666667
        k(    3) = (   0.0000000   0.0000000  -0.3063097), wk =   0.0833333
        k(    4) = (   0.0000000   0.3797842   0.0000000), wk =   0.1666667
        k(    5) = (   0.0000000   0.3797842   0.1531549), wk =   0.3333333
        k(    6) = (   0.0000000   0.3797842  -0.3063097), wk =   0.1666667
        k(    7) = (  -0.4933542  -0.2848382   0.0000000), wk =   0.0833333
        k(    8) = (  -0.4933542  -0.2848382   0.1531549), wk =   0.1666667
        k(    9) = (  -0.4933542  -0.2848382  -0.3063097), wk =   0.0833333
        k(   10) = (  -0.4933542   0.0949461   0.0000000), wk =   0.1666667
        k(   11) = (  -0.4933542   0.0949461   0.1531549), wk =   0.3333333
        k(   12) = (  -0.4933542   0.0949461  -0.3063097), wk =   0.1666667

     Largest allocated arrays     est. size (Mb)     dimensions
     Largest temporary arrays     est. size (Mb)     dimensions

     Initial potential from superposition of free atoms

     Starting from uniform charge
     Starting wfc are    0 randomized atomic wfcs

     Writing output data file Prototype-La-hP12-MgZn2.save

     Self-consistent Calculation

[...]

     iteration # 10     ecut=    40.00 Ry     beta=0.70
     CG style diagonalization
     c_bands:  1 eigenvalues not converged
     ethr =  2.11E-06,  avg # of iterations =  3.7

[...]

     total energy              =   -3256.38691301 Ry
     Harris-Foulkes estimate   =   -3256.38692049 Ry
     estimated scf accuracy    <       0.00001160 Ry

     iteration # 12     ecut=    40.00 Ry     beta=0.70
     CG style diagonalization
     ethr =  4.76E-09,  avg # of iterations =  3.9

     End of self-consistent calculation

[...]

          k = 0.0000 0.3798-0.3063 (  6058 PWs)   bands (ev):

[...]

          k =-0.4934 0.0949-0.3063 (  6072 PWs)   bands (ev):

   -60.8465 -60.8465 -60.8418 -60.8417 -53.2256 -53.2255 -53.1758 -53.1758
   -53.1185 -53.1185 -53.0769 -53.0769 -25.0572 -25.0571 -25.0486 -25.0486
   -25.0379 -25.0379 -25.0135 -25.0134 -24.9908 -24.9908 -24.9879 -24.9879
   -20.9527 -20.9527 -20.6704 -20.6704 -20.3974 -20.3974 -20.3228 -20.3228
   -20.2693 -20.2693 -20.2416 -20.2416 -20.1131 -20.1131 -19.9947 -19.9947
   -19.8825 -19.8825 -19.8265 -19.8265 -19.7906 -19.7906 -19.7748 -19.7748
    16.9330  16.9330  17.3872  17.3872  17.5891  17.5891  17.7243  17.7243
    17.8037  17.8037  17.8634  17.8634  18.0327  18.0327  18.1740  18.1740
    18.2559  18.2559  18.3279  18.3279  18.5602  18.5602  18.7573  18.7573
    18.9960  18.9961  19.1809  19.1809  19.3644  19.3644  19.7047  19.7048
    20.0771  20.0771  20.1727  20.1727  20.3175  20.3175  20.4411  20.4411
    20.7151  20.7151  21.1743  21.1743  21.3100  21.3100  21.7031  21.7031
    21.8055  21.8055  22.0413  22.0413  22.2778  22.2778  22.5115  22.5115
    22.6276  22.6277  22.7903  22.7903  23.5924  23.5924  23.9559  23.9559
    25.4572  25.4573  27.7959  27.7959  29.4311  29.4311  29.7605  29.7605
    31.0444  31.0445  32.6043  32.6043  34.3255  34.3255  35.3198  35.3198
    35.7349  35.7349  36.4387  36.4387  36.8248  36.8248  37.2684  37.2685
    37.5757  37.5757  38.0204  38.0204  38.2352  38.2353  38.7015  38.7015
    39.0576  39.0577

     the Fermi energy is    32.0594 ev

!    total energy              =   -3256.38691731 Ry
     Harris-Foulkes estimate   =   -3256.38691860 Ry
     estimated scf accuracy    <       0.00000143 Ry

     The total energy is the sum of the following terms:

     one-electron contribution =    -530.89966459 Ry
     hartree contribution      =     469.84948058 Ry
     xc contribution           =    -298.40674391 Ry
     ewald contribution        =   -2896.68734607 Ry
     smearing contrib. (-TS)   =      -0.24264333 Ry

     convergence has been achieved in  12 iterations

     Forces acting on atoms (Ry/au):

     atom    1 type  1   force =     0.00000000    0.00000000    0.01768581
     atom    2 type  1   force =     0.00000000    0.00000000    0.01768581
     atom    3 type  1   force =     0.00000000    0.00000000   -0.01768581
     atom    4 type  1   force =     0.00000000    0.00000000   -0.01768581
     atom    5 type  2   force =     0.00000000    0.00000000    0.00000000
     atom    6 type  2   force =     0.00000000    0.00000000    0.00000000
     atom    7 type  2   force =     0.00000000   -0.00308342    0.00000000
     atom    8 type  2   force =     0.00267032   -0.00154171    0.00000000
     atom    9 type  2   force =    -0.00267032   -0.00154171    0.00000000
     atom   10 type  2   force =     0.00267032    0.00154171    0.00000000
     atom   11 type  2   force =    -0.00267032    0.00154171    0.00000000
     atom   12 type  2   force =     0.00000000    0.00308342    0.00000000

     Total force =     0.036169     Total SCF correction =     0.000000

     entering subroutine stress ...

          total   stress  (Ry/bohr**3)                   (kbar)     P=  719.01
   0.00486383   0.00000000   0.00000000        715.49      0.00      0.00
   0.00000000   0.00486383   0.00000000          0.00    715.49      0.00
   0.00000000   0.00000000   0.00493547          0.00      0.00    726.03

     Writing output data file Prototype-La-hP12-MgZn2.save

     General routines

     Parallel routines

   This run was terminated on:   1:25: 8  23Mar2018

   JOB DONE.