     Program PWSCF v.5.0.2 starts on 23Mar2018 at  0:54:33

     Current dimensions of program PWSCF are:
     Max number of different atomic species (ntypx) = 10
     Max number of k-points (npk) =  40000
     Max angular momentum in pseudopotentials (lmaxx) =  3
     Waiting for input...
     Reading input from standard input

     Subspace diagonalization in iterative solution of the eigenvalue problem:
     a serial algorithm will be used

     bravais-lattice index     =            0
     lattice parameter (alat)  =       7.0151  a.u.
     unit-cell volume          =     862.2778 (a.u.)^3
     number of atoms/cell      =           12
     number of atomic types    =            2
     number of electrons       =       248.00
     number of Kohn-Sham states=          149
     kinetic-energy cutoff     =      40.0000  Ry
     charge density cutoff     =     160.0000  Ry
     convergence threshold     =      1.0E-04
     mixing beta               =       0.7000
     number of iterations used =            8  plain     mixing
     Exchange-correlation      = SLA-PZ-NOGX-NOGC ( 1 1 0 0 0)
     EXX-fraction              =        0.00
     nstep                     =           50

     celldm(1)=   7.015105  celldm(2)=   0.000000  celldm(3)=   0.000000
     celldm(4)=   0.000000  celldm(5)=   0.000000  celldm(6)=   0.000000

     crystal axes: (cart. coord. in units of alat)
               a(1) = (   1.000000   0.000000   0.000000 )
               a(2) = (   0.000000   1.315963   0.000000 )
               a(3) = (   0.000000   0.000000   1.898020 )

     reciprocal axes: (cart. coord. in units 2 pi/alat)
               b(1) = (  1.000000  0.000000  0.000000 )
               b(2) = (  0.000000  0.759900  0.000000 )
               b(3) = (  0.000000  0.000000  0.526865 )

     PseudoPot. # 1 for Ho read from file:
     /home/cwx6513/pp.La/Ho.UPF
     MD5 check sum: f307ee11bce99f5b724fa279e3790763
     Pseudo is Norm-conserving, Zval = 21.0
     Generated in analytical, separable form
     Using radial grid of 1265 points,  6 beta functions with:
                l(1) =   0
                l(2) =   0
                l(3) =   1
                l(4) =   1
                l(5) =   2
                l(6) =   3

     PseudoPot. # 2 for Dy read from file:
     /home/cwx6513/pp.La/Dy.UPF
     MD5 check sum: 9597327bec62616a94a14d07f3fd9936
     Pseudo is Norm-conserving, Zval = 20.0
     Generated in analytical, separable form
     Using radial grid of 1265 points,  6 beta functions with:
                l(1) =   0
                l(2) =   0
                l(3) =   1
                l(4) =   1
                l(5) =   2
                l(6) =   3

     atomic species   valence    mass     pseudopotential
        Co            21.00    58.93320     Ho( 1.00)
        Si            20.00    28.08550     Dy( 1.00)

      8 Sym. Ops., with inversion, found ( 6 have fractional translation)

   Cartesian axes

     site n.     atom                  positions (alat units)
         1           Co  tau(   1) = (   0.7500000   1.0875135   0.8270358  )
         2           Co  tau(   2) = (   0.2500000   0.2284499   1.0709846  )
         3           Co  tau(   3) = (   0.7500000   0.4295318   0.1219744  )
         4           Co  tau(   4) = (   0.2500000   0.8864316   1.7760460  )
         5           Co  tau(   5) = (   0.2500000   0.7067855   0.5358966  )
         6           Co  tau(   6) = (   0.7500000   0.6091779   1.3621238  )
         7           Co  tau(   7) = (   0.2500000   0.0488038   0.4131136  )
         8           Co  tau(   8) = (   0.7500000   1.2671596   1.4849068  )
         9           Si  tau(   9) = (   0.2500000   0.2669484   1.6960710  )
        10           Si  tau(  10) = (   0.7500000   1.0490149   0.2019494  )
        11           Si  tau(  11) = (   0.2500000   0.9249301   1.1509596  )
        12           Si  tau(  12) = (   0.7500000   0.3910333   0.7470608  )

     number of k points=    12  gaussian smearing, width (Ry)=  0.1000
                       cart. coord. in units 2pi/alat
        k(    1) = (   0.0000000   0.0000000   0.0000000), wk =   0.0833333
        k(    2) = (   0.0000000   0.0000000   0.1317162), wk =   0.1666667
        k(    3) = (   0.0000000   0.0000000  -0.2634324), wk =   0.0833333
        k(    4) = (   0.0000000   0.2532999   0.0000000), wk =   0.1666667
        k(    5) = (   0.0000000   0.2532999   0.1317162), wk =   0.3333333
        k(    6) = (   0.0000000   0.2532999  -0.2634324), wk =   0.1666667
        k(    7) = (  -0.5000000   0.0000000   0.0000000), wk =   0.0833333
        k(    8) = (  -0.5000000   0.0000000   0.1317162), wk =   0.1666667
        k(    9) = (  -0.5000000   0.0000000  -0.2634324), wk =   0.0833333
        k(   10) = (  -0.5000000   0.2532999   0.0000000), wk =   0.1666667
        k(   11) = (  -0.5000000   0.2532999   0.1317162), wk =   0.3333333
        k(   12) = (  -0.5000000   0.2532999  -0.2634324), wk =   0.1666667

     Largest allocated arrays     est. size (Mb)     dimensions
     Largest temporary arrays     est. size (Mb)     dimensions

     Initial potential from superposition of free atoms

     Starting from uniform charge
     Starting wfc are    0 randomized atomic wfcs

     Self-consistent Calculation

     iteration #  1     ecut=    40.00 Ry     beta=0.70
     CG style diagonalization
     c_bands:  4 eigenvalues not converged
     ethr =  1.00E-02,  avg # of iterations = 15.8

     total energy              =   -3147.12104195 Ry
     Harris-Foulkes estimate   =   -3771.71654137 Ry
     estimated scf accuracy    <     813.68643790 Ry

     iteration #  2     ecut=    40.00 Ry     beta=0.70
     CG style diagonalization
     ethr =  1.00E-02,  avg # of iterations =  8.3

[...]

     End of self-consistent calculation

          k = 0.0000 0.0000 0.0000 (  3675 PWs)   bands (ev):

   -41.1210 -40.9853 -40.9725 -40.9473 -40.9061 -40.8173 -40.7615 -40.7516
   -33.1462 -33.1384 -33.1300 -33.1069  -6.5993  -6.5020  -6.2408  -6.2015
    -6.1616  -6.0070  -5.9669  -5.9260  -5.9098  -5.8729  -5.6265  -5.5401
    -5.5336  -5.4791  -5.4721  -5.4678  -5.4145  -5.3111  -5.2477  -5.1743
    -5.0845  -5.0365  -4.8236  -4.7539  -0.6498  -0.5890  -0.5774  -0.5672
    -0.4327  -0.4325  -0.3535  -0.3293  -0.2328  -0.1883  -0.1277  -0.1191
    31.3453  31.6830  31.8726  32.0238  32.0641  32.1332  32.5401  32.5940
    32.6601  33.2736  33.3177  33.6401  33.7112  34.0712  34.1030  34.4543
    34.7595  34.9915  35.1509  35.5711  36.0023  36.2014  36.2262  36.2742
    36.4755  36.7546  36.8562  36.8766  36.9184  37.4634  37.5888  37.6881
    37.7678  37.9494  37.9760  38.1812  38.4874  38.8527  38.8534  39.8638
    39.9701  40.2140  40.5481  40.5525  40.6190  41.3026  41.4733  41.6432
    42.3721  42.4503  42.7216  42.9885  43.0012  43.0090  43.2004  43.3221
    44.3215  44.4552  44.5708  44.5933  44.9128  45.2776  45.4687  47.7427
    48.1503  49.8970  49.9933  50.5383  52.3152  53.3514  53.5659  55.6125
    56.2155  56.2434  56.4361  56.6975  57.0195  57.2263  57.5311  57.5591
    57.6915  57.9635  58.0157  58.1136  58.1554  58.1850  59.1020  59.3215
    59.4654  59.5821  59.8051  59.8542  60.0777  60.2228  60.4240  60.6030
    60.9116  60.9785  61.4796  61.6566  62.1547

[...]

          k =-0.5000 0.0000 0.0000 (  3722 PWs)   bands (ev):

[...]

     the Fermi energy is    56.6039 ev

!    total energy              =   -3371.86117739 Ry
     Harris-Foulkes estimate   =   -3371.86118417 Ry
     estimated scf accuracy    <       0.00000923 Ry

     The total energy is the sum of the following terms:

     one-electron contribution =     220.21303669 Ry
     hartree contribution      =     281.23585980 Ry
     xc contribution           =    -319.19579882 Ry
     ewald contribution        =   -3553.67303484 Ry
     smearing contrib. (-TS)   =      -0.44124023 Ry

     convergence has been achieved in   9 iterations

     Forces acting on atoms (Ry/au):

     atom    1 type  1   force =     0.00000000   -0.09619491   -0.08965610
     atom    2 type  1   force =     0.00000000    0.09619491    0.08965610
     atom    3 type  1   force =     0.00000000   -0.09619491    0.08965610
     atom    4 type  1   force =     0.00000000    0.09619491   -0.08965610
     atom    5 type  1   force =     0.00000000    0.12668293   -0.18314928
     atom    6 type  1   force =     0.00000000   -0.12668293    0.18314928
     atom    7 type  1   force =     0.00000000    0.12668293    0.18314928
     atom    8 type  1   force =     0.00000000   -0.12668293   -0.18314928
     atom    9 type  2   force =     0.00000000   -0.21873244    0.02209525
     atom   10 type  2   force =     0.00000000    0.21873244   -0.02209525
     atom   11 type  2   force =     0.00000000   -0.21873244   -0.02209525
     atom   12 type  2   force =     0.00000000    0.21873244    0.02209525

     Total force =     0.678870     Total SCF correction =     0.000000

     entering subroutine stress ...

          total   stress  (Ry/bohr**3)                   (kbar)     P= 7511.51
   0.05335106   0.00000000   0.00000000       7848.21      0.00      0.00
   0.00000000   0.04874972   0.00000000          0.00   7171.33      0.00
   0.00000000   0.00000000   0.05108593          0.00      0.00   7515.00

     BFGS Geometry Optimization

     number of scf cycles    =   1
     number of bfgs steps    =   0

     enthalpy new            =   -3371.8611773913 Ry

     new trust radius        =       0.5000000000 bohr
     new conv_thr            =       0.0001000000 Ry

     new unit-cell volume =   1090.69345 a.u.^3 (   161.62409 Ang^3 )

CELL_PARAMETERS (alat=  7.01510508)
   1.085136619   0.000000000   0.000000000
   0.000000000   1.418337293   0.000000000
   0.000000000   0.000000000   2.052750761

ATOMIC_POSITIONS (crystal)
Co       0.750000000   0.825735869   0.435306188
Co       0.250000000   0.174264131   0.564693812
Co       0.750000000   0.325735869   0.064693812
Co       0.250000000   0.674264131   0.935306188
Co       0.250000000   0.537961938   0.281466982
Co       0.750000000   0.462038062   0.718533018
Co       0.250000000   0.037961938   0.218533018
Co       0.750000000   0.962038062   0.781466982
Si       0.250000000   0.201341594   0.893705925
Si       0.750000000   0.798658406   0.106294075
Si       0.250000000   0.701341594   0.606294075
Si       0.750000000   0.298658406   0.393705925

     Writing output data file Prototype-La-oP12-Co2Si.save
     NEW-OLD atomic charge density approx. for the potential
     NEW k-points:
        k(    1) = (   0.0000000   0.0000000   0.0000000), wk =   0.0833333
        k(    2) = (   0.0000000   0.0000000   0.1217878), wk =   0.1666667
        k(    3) = (   0.0000000   0.0000000  -0.2435756), wk =   0.0833333
        k(    4) = (   0.0000000   0.2350170   0.0000000), wk =   0.1666667
        k(    5) = (   0.0000000   0.2350170   0.1217878), wk =   0.3333333
        k(    6) = (   0.0000000   0.2350170  -0.2435756), wk =   0.1666667
        k(    7) = (  -0.4607715   0.0000000   0.0000000), wk =   0.0833333
        k(    8) = (  -0.4607715   0.0000000   0.1217878), wk =   0.1666667
        k(    9) = (  -0.4607715   0.0000000  -0.2435756), wk =   0.0833333
        k(   10) = (  -0.4607715   0.2350170   0.0000000), wk =   0.1666667
        k(   11) = (  -0.4607715   0.2350170   0.1217878), wk =   0.3333333
        k(   12) = (  -0.4607715   0.2350170  -0.2435756), wk =   0.1666667

[...]

     enthalpy old            =   -3371.8611773913 Ry
     enthalpy new            =   -3379.2498824760 Ry

     CASE: enthalpy_new < enthalpy_old

     small trust_radius: resetting bfgs history

     new trust radius        =       3.0598001046 bohr
     new conv_thr            =       0.0001000000 Ry

[...]

          total   stress  (Ry/bohr**3)                   (kbar)     P=-3130.47
  -0.02289521   0.00000000   0.00000000      -3368.00      0.00      0.00
   0.00000000  -0.01990176   0.00000000          0.00  -2927.65      0.00
   0.00000000   0.00000000  -0.02104448          0.00      0.00  -3095.75

     number of scf cycles    =   3
     number of bfgs steps    =   2

     enthalpy old            =   -3379.2498824760 Ry
     enthalpy new            =   -3354.0828517296 Ry

     CASE: enthalpy_new > enthalpy_old

     new trust radius        =       0.8915430194 bohr

     trust_radius < trust_radius_min

     resetting bfgs history

     Message from routine bfgs:
     history already reset at previous step: stopping
     new conv_thr            =       0.0001000000 Ry

     new unit-cell volume =   1292.19834 a.u.^3 (   191.48404 Ang^3 )

[...]

ATOMIC_POSITIONS (crystal)
Co       0.750000000   0.825498749   0.435106678
Co       0.250000000   0.174501251   0.564893322
Co       0.750000000   0.325498749   0.064893322
Co       0.250000000   0.674501251   0.935106678
Co       0.250000000   0.538742354   0.280725898
Co       0.750000000   0.461257646   0.719274102
Co       0.250000000   0.038742354   0.219274102
Co       0.750000000   0.961257646   0.780725898
Si       0.250000000   0.200402464   0.893916931
Si       0.750000000   0.799597536   0.106083069
Si       0.250000000   0.700402464   0.606083069
Si       0.750000000   0.299597536   0.393916931

     Writing output data file Prototype-La-oP12-Co2Si.save
     NEW-OLD atomic charge density approx. for the potential
     NEW k-points:
        k(    1) = (   0.0000000   0.0000000   0.0000000), wk =   0.0833333
        k(    2) = (   0.0000000   0.0000000   0.1151879), wk =   0.1666667
        k(    3) = (   0.0000000   0.0000000  -0.2303758), wk =   0.0833333
        k(    4) = (   0.0000000   0.2232666   0.0000000), wk =   0.1666667
        k(    5) = (   0.0000000   0.2232666   0.1151879), wk =   0.3333333
        k(    6) = (   0.0000000   0.2232666  -0.2303758), wk =   0.1666667
        k(    7) = (  -0.4328441   0.0000000   0.0000000), wk =   0.0833333
        k(    8) = (  -0.4328441   0.0000000   0.1151879), wk =   0.1666667
        k(    9) = (  -0.4328441   0.0000000  -0.2303758), wk =   0.0833333
        k(   10) = (  -0.4328441   0.2232666   0.0000000), wk =   0.1666667
        k(   11) = (  -0.4328441   0.2232666   0.1151879), wk =   0.3333333
        k(   12) = (  -0.4328441   0.2232666  -0.2303758), wk =   0.1666667

[...]

     The maximum number of steps has been reached.

     End of BFGS Geometry Optimization
Begin final coordinates
     new unit-cell volume =   1292.19834 a.u.^3 (   191.48404 Ang^3 )

CELL_PARAMETERS (alat=  7.01510508)
   1.155150320   0.000000000   0.000000000
   0.000000000   1.492983225   0.000000000
   0.000000000   0.000000000   2.170367139

ATOMIC_POSITIONS (crystal)
Co       0.750000000   0.825498749   0.435106678
Co       0.250000000   0.174501251   0.564893322
Co       0.750000000   0.325498749   0.064893322
Co       0.250000000   0.674501251   0.935106678
Co       0.250000000   0.538742354   0.280725898
Co       0.750000000   0.461257646   0.719274102
Co       0.250000000   0.038742354   0.219274102
Co       0.750000000   0.961257646   0.780725898
Si       0.250000000   0.200402464   0.893916931
Si       0.750000000   0.799597536   0.106083069
Si       0.250000000   0.700402464   0.606083069
Si       0.750000000   0.299597536   0.393916931
End final coordinates

     A final scf calculation at the relaxed structure.
     The G-vectors are recalculated for the final unit cell
     Results may differ from those at the preceding step.

     bravais-lattice index     =            0
     lattice parameter (alat)  =       7.0151  a.u.
     unit-cell volume          =    1292.1983 (a.u.)^3
     number of atoms/cell      =           12
     number of atomic types    =            2
     number of electrons       =       248.00
     number of Kohn-Sham states=          149
     kinetic-energy cutoff     =      40.0000  Ry
     charge density cutoff     =     160.0000  Ry
     convergence threshold     =      1.0E-04
     mixing beta               =       0.7000
     number of iterations used =            8  plain     mixing
     Exchange-correlation      = SLA-PZ-NOGX-NOGC ( 1 1 0 0 0)
     EXX-fraction              =        0.00

     celldm(1)=   7.015105  celldm(2)=   0.000000  celldm(3)=   0.000000
     celldm(4)=   0.000000  celldm(5)=   0.000000  celldm(6)=   0.000000

     crystal axes: (cart. coord. in units of alat)
               a(1) = (   1.155150   0.000000   0.000000 )
               a(2) = (   0.000000   1.492983   0.000000 )
               a(3) = (   0.000000   0.000000   2.170367 )

     reciprocal axes: (cart. coord. in units 2 pi/alat)
               b(1) = (  0.865688  0.000000  0.000000 )
               b(2) = (  0.000000  0.669800  0.000000 )
               b(3) = (  0.000000  0.000000  0.460752 )

     PseudoPot. # 1 for Ho read from file:
     /home/cwx6513/pp.La/Ho.UPF
     MD5 check sum: f307ee11bce99f5b724fa279e3790763
     Pseudo is Norm-conserving, Zval = 21.0
     Generated in analytical, separable form
     Using radial grid of 1265 points,  6 beta functions with:
                l(1) =   0
                l(2) =   0
                l(3) =   1
                l(4) =   1
                l(5) =   2
                l(6) =   3

     PseudoPot. # 2 for Dy read from file:
     /home/cwx6513/pp.La/Dy.UPF
     MD5 check sum: 9597327bec62616a94a14d07f3fd9936
     Pseudo is Norm-conserving, Zval = 20.0
     Generated in analytical, separable form
     Using radial grid of 1265 points,  6 beta functions with:
                l(1) =   0
                l(2) =   0
                l(3) =   1
                l(4) =   1
                l(5) =   2
                l(6) =   3

     atomic species   valence    mass     pseudopotential
        Co            21.00    58.93320     Ho( 1.00)
        Si            20.00    28.08550     Dy( 1.00)

      8 Sym. Ops., with inversion, found ( 6 have fractional translation)

   Cartesian axes

     site n.     atom                  positions (alat units)
         1           Co  tau(   1) = (   0.8663627   1.2324558   0.9443412  )
         2           Co  tau(   2) = (   0.2887876   0.2605274   1.2260259  )
         3           Co  tau(   3) = (   0.8663627   0.4859642   0.1408423  )
         4           Co  tau(   4) = (   0.2887876   1.0070191   2.0295248  )
         5           Co  tau(   5) = (   0.2887876   0.8043333   0.6092783  )
         6           Co  tau(   6) = (   0.8663627   0.6886499   1.5610889  )
         7           Co  tau(   7) = (   0.2887876   0.0578417   0.4759053  )
         8           Co  tau(   8) = (   0.8663627   1.4351415   1.6944618  )
         9           Si  tau(   9) = (   0.2887876   0.2991975   1.9401279  )
        10           Si  tau(  10) = (   0.8663627   1.1937857   0.2302392  )
        11           Si  tau(  11) = (   0.2887876   1.0456891   1.3154228  )
        12           Si  tau(  12) = (   0.8663627   0.4472941   0.8549444  )

     number of k points=    12  gaussian smearing, width (Ry)=  0.1000
                       cart. coord. in units 2pi/alat
        k(    1) = (   0.0000000   0.0000000   0.0000000), wk =   0.0833333
        k(    2) = (   0.0000000   0.0000000   0.1151879), wk =   0.1666667
        k(    3) = (   0.0000000   0.0000000  -0.2303758), wk =   0.0833333
        k(    4) = (   0.0000000   0.2232666   0.0000000), wk =   0.1666667
        k(    5) = (   0.0000000   0.2232666   0.1151879), wk =   0.3333333
        k(    6) = (   0.0000000   0.2232666  -0.2303758), wk =   0.1666667
        k(    7) = (  -0.4328441   0.0000000   0.0000000), wk =   0.0833333
        k(    8) = (  -0.4328441   0.0000000   0.1151879), wk =   0.1666667
        k(    9) = (  -0.4328441   0.0000000  -0.2303758), wk =   0.0833333
        k(   10) = (  -0.4328441   0.2232666   0.0000000), wk =   0.1666667
        k(   11) = (  -0.4328441   0.2232666   0.1151879), wk =   0.3333333
        k(   12) = (  -0.4328441   0.2232666  -0.2303758), wk =   0.1666667

     Largest allocated arrays     est. size (Mb)     dimensions
     Largest temporary arrays     est. size (Mb)     dimensions

     Initial potential from superposition of free atoms

     Starting from uniform charge
     Starting wfc are    0 randomized atomic wfcs

     Writing output data file Prototype-La-oP12-Co2Si.save

     Self-consistent Calculation

[...]

     iteration #  9     ecut=    40.00 Ry     beta=0.70
     CG style diagonalization
     c_bands:  1 eigenvalues not converged
     c_bands:  1 eigenvalues not converged
     ethr =  8.55E-07,  avg # of iterations =  4.3

     total energy              =   -3386.47376794 Ry
     Harris-Foulkes estimate   =   -3386.47382168 Ry
     estimated scf accuracy    <       0.00010941 Ry

     iteration # 10     ecut=    40.00 Ry     beta=0.70
     CG style diagonalization
     ethr =  4.41E-08,  avg # of iterations =  3.9

     End of self-consistent calculation

[...]

          k = 0.0000 0.2233-0.2304 (  5506 PWs)   bands (ev):

[...]

          k =-0.4328 0.2233-0.2304 (  5536 PWs)   bands (ev):

   -57.7550 -57.7550 -57.7476 -57.7476 -57.6732 -57.6732 -57.6621 -57.6621
   -49.4268 -49.4268 -49.4261 -49.4261 -22.1585 -22.1585 -22.1092 -22.1092
   -22.0946 -22.0946 -22.0852 -22.0852 -22.0417 -22.0417 -21.9974 -21.9974
   -21.9587 -21.9587 -21.9096 -21.9096 -21.9027 -21.9027 -21.8901 -21.8901
   -21.8464 -21.8464 -21.8216 -21.8216 -16.5561 -16.5561 -16.5486 -16.5486
   -16.4970 -16.4970 -16.4933 -16.4933 -16.4042 -16.4042 -16.4039 -16.4039
    19.2405  19.2405  19.6860  19.6860  19.7294  19.7294  19.8181  19.8181
    19.9672  19.9672  20.2346  20.2346  20.3743  20.3743  20.4761  20.4761
    20.5327  20.5327  20.6928  20.6928  20.7635  20.7635  21.0148  21.0148
    21.1446  21.1446  21.3959  21.3959  21.4015  21.4015  21.6906  21.6906
    21.9209  21.9209  22.2710  22.2710  22.2818  22.2818  22.7219  22.7219
    23.1752  23.1752  23.2367  23.2367  24.3834  24.3834  24.4758  24.4758
    24.7590  24.7590  24.7741  24.7741  25.0854  25.0854  25.3635  25.3635
    25.6702  25.6702  25.8398  25.8398  26.6003  26.6003  26.9943  26.9943
    28.5860  28.5860  28.8758  28.8758  30.9742  30.9742  33.6449  33.6449
    34.8413  34.8413  35.1774  35.1774  37.1420  37.1420  37.3454  37.3454
    39.5581  39.5581  40.7522  40.7522  41.1865  41.1865  41.2537  41.2537
    41.6503  41.6503  41.7682  41.7683  42.2781  42.2783  42.3847  42.3848
    42.8848  42.8851  42.9039  42.9042  43.2446

     the Fermi energy is    36.4037 ev

!    total energy              =   -3386.47379246 Ry
     Harris-Foulkes estimate   =   -3386.47380638 Ry
     estimated scf accuracy    <       0.00001801 Ry

     The total energy is the sum of the following terms:

     one-electron contribution =    -412.98338575 Ry
     hartree contribution      =     441.22227984 Ry
     xc contribution           =    -308.01351206 Ry
     ewald contribution        =   -3106.36025504 Ry
     smearing contrib. (-TS)   =      -0.33891945 Ry

     convergence has been achieved in  10 iterations

     Forces acting on atoms (Ry/au):

     atom    1 type  1   force =     0.00000000   -0.04147083   -0.00906861
     atom    2 type  1   force =     0.00000000    0.04147083    0.00906861
     atom    3 type  1   force =     0.00000000   -0.04147083    0.00906861
     atom    4 type  1   force =     0.00000000    0.04147083   -0.00906861
     atom    5 type  1   force =     0.00000000    0.04183346   -0.04242167
     atom    6 type  1   force =     0.00000000   -0.04183346    0.04242167
     atom    7 type  1   force =     0.00000000    0.04183346    0.04242167
     atom    8 type  1   force =     0.00000000   -0.04183346   -0.04242167
     atom    9 type  2   force =     0.00000000   -0.07040988    0.02155422
     atom   10 type  2   force =     0.00000000    0.07040988   -0.02155422
     atom   11 type  2   force =     0.00000000   -0.07040988   -0.02155422
     atom   12 type  2   force =     0.00000000    0.07040988    0.02155422

     Total force =     0.207594     Total SCF correction =     0.000000

     entering subroutine stress ...

          total   stress  (Ry/bohr**3)                   (kbar)     P= 1340.83
   0.00992612   0.00000000   0.00000000       1460.18      0.00      0.00
   0.00000000   0.00851452   0.00000000          0.00   1252.53      0.00
   0.00000000   0.00000000   0.00890364          0.00      0.00   1309.77

     Writing output data file Prototype-La-oP12-Co2Si.save

     General routines

     Parallel routines

   This run was terminated on:   1:19:25  23Mar2018

   JOB DONE.