     Program PWSCF v.5.0.2 starts on 22Mar2018 at 22:45:43

     Current dimensions of program PWSCF are:
     Max number of different atomic species (ntypx) = 10
     Max number of k-points (npk) =  40000
     Max angular momentum in pseudopotentials (lmaxx) =  3
     Waiting for input...
     Reading input from standard input

     Subspace diagonalization in iterative solution of the eigenvalue problem:
     a serial algorithm will be used

     bravais-lattice index     =            0
     lattice parameter (alat)  =       9.9235  a.u.
     unit-cell volume          =    1361.0366 (a.u.)^3
     number of atoms/cell      =           12
     number of atomic types    =            2
     number of electrons       =       216.00
     number of Kohn-Sham states=          130
     kinetic-energy cutoff     =      40.0000  Ry
     charge density cutoff     =     160.0000  Ry
     convergence threshold     =      1.0E-04
     mixing beta               =       0.7000
     number of iterations used =            8  plain     mixing
     Exchange-correlation      = SLA-PZ-NOGX-NOGC ( 1 1 0 0 0)
     EXX-fraction              =        0.00
     nstep                     =           50

     celldm(1)=   9.923489  celldm(2)=   0.000000  celldm(3)=   0.000000
     celldm(4)=   0.000000  celldm(5)=   0.000000  celldm(6)=   0.000000

     crystal axes: (cart. coord. in units of alat)
               a(1) = (   1.000000   0.000000   0.000000 )
               a(2) = (  -0.500000   0.866025   0.000000 )
               a(3) = (   0.000000   0.000000   1.608222 )

     reciprocal axes: (cart. coord. in units 2 pi/alat)
               b(1) = (  1.000000  0.577350  0.000000 )
               b(2) = (  0.000000  1.154701  0.000000 )
               b(3) = (  0.000000  0.000000  0.621805 )

     PseudoPot. # 1 for Er read from file:
     /home/cwx6513/pp.La/Er.UPF
     MD5 check sum: e152ae21b84514339d8526f066caf99b
     Pseudo is Norm-conserving, Zval = 22.0
     Generated in analytical, separable form
     Using radial grid of 1267 points,  6 beta functions with:
                l(1) =   0
                l(2) =   0
                l(3) =   1
                l(4) =   1
                l(5) =   2
                l(6) =   3

     PseudoPot. # 2 for Sm read from file:
     /home/cwx6513/pp.La/Sm.UPF
     MD5 check sum: 5079e8b144a06bfcdbc14fb02b96ab09
     Pseudo is Norm-conserving, Zval = 16.0
     Generated in analytical, separable form
     Using radial grid of 1259 points,  6 beta functions with:
                l(1) =   0
                l(2) =   0
                l(3) =   1
                l(4) =   1
                l(5) =   2
                l(6) =   3

     atomic species   valence    mass     pseudopotential
        Mg            22.00    24.30500     Er( 1.00)
        Zn            16.00    65.39000     Sm( 1.00)

     24 Sym. Ops., with inversion, found (12 have fractional translation)

   Cartesian axes

     site n.     atom                  positions (alat units)
         1           Mg  tau(   1) = (  -0.0000005   0.5773506   0.1003820  )
         2           Mg  tau(   2) = (   0.5000005   0.2886748   0.9044931  )
         3           Mg  tau(   3) = (   0.5000005   0.2886748   1.5078402  )
         4           Mg  tau(   4) = (  -0.0000005   0.5773506   0.7037291  )
         5           Zn  tau(   5) = (   0.0000000   0.0000000   0.0000000  )
         6           Zn  tau(   6) = (   0.0000000   0.0000000   0.8041111  )
         7           Zn  tau(   7) = (   0.0000000   0.2950739   1.2061667  )
         8           Zn  tau(   8) = (   0.7444585   0.1475370   0.4020556  )
         9           Zn  tau(   9) = (   0.2555415   0.1475370   0.4020556  )
        10           Zn  tau(  10) = (   0.2444585   0.7184884   1.2061667  )
        11           Zn  tau(  11) = (  -0.2444585   0.7184884   1.2061667  )
        12           Zn  tau(  12) = (   0.5000000   0.5709515   0.4020556  )

     number of k points=    12  gaussian smearing, width (Ry)=  0.1000
                       cart. coord. in units 2pi/alat
        k(    1) = (   0.0000000   0.0000000   0.0000000), wk =   0.0833333
        k(    2) = (   0.0000000   0.0000000   0.1554512), wk =   0.1666667
        k(    3) = (   0.0000000   0.0000000  -0.3109023), wk =   0.0833333
        k(    4) = (   0.0000000   0.3849002   0.0000000), wk =   0.1666667
        k(    5) = (   0.0000000   0.3849002   0.1554512), wk =   0.3333333
        k(    6) = (   0.0000000   0.3849002  -0.3109023), wk =   0.1666667
        k(    7) = (  -0.5000000  -0.2886751   0.0000000), wk =   0.0833333
        k(    8) = (  -0.5000000  -0.2886751   0.1554512), wk =   0.1666667
        k(    9) = (  -0.5000000  -0.2886751  -0.3109023), wk =   0.0833333
        k(   10) = (  -0.5000000   0.0962250   0.0000000), wk =   0.1666667
        k(   11) = (  -0.5000000   0.0962250   0.1554512), wk =   0.3333333
        k(   12) = (  -0.5000000   0.0962250  -0.3109023), wk =   0.1666667

     Largest allocated arrays     est. size (Mb)     dimensions
     Largest temporary arrays     est. size (Mb)     dimensions

     Initial potential from superposition of free atoms

     Starting from uniform charge
     Starting wfc are    0 randomized atomic wfcs

     Self-consistent Calculation

     iteration #  1     ecut=    40.00 Ry     beta=0.70
     CG style diagonalization
     c_bands:  1 eigenvalues not converged
     c_bands:  1 eigenvalues not converged
     c_bands:  1 eigenvalues not converged
     c_bands:  2 eigenvalues not converged
     c_bands:  1 eigenvalues not converged
     c_bands:  2 eigenvalues not converged
     ethr =  1.00E-02,  avg # of iterations = 13.3

     total energy              =   -1475.49890329 Ry
     Harris-Foulkes estimate   =   -3130.91312037 Ry
     estimated scf accuracy    <    1995.21994659 Ry

     iteration #  2     ecut=    40.00 Ry     beta=0.70
     CG style diagonalization
     ethr =  1.00E-02,  avg # of iterations = 17.2

[...]

     End of self-consistent calculation

          k = 0.0000 0.0000 0.0000 (  5769 PWs)   bands (ev):

   -70.3730 -70.3625 -70.3563 -70.3254 -32.3676 -32.3499 -32.3450 -32.3450
   -32.3231 -32.3231 -32.3148 -32.2896 -32.2896 -32.2884 -32.2810 -32.2809
   -27.5364 -27.3044 -26.9593 -26.7075 -26.6368 -26.6367 -26.6349 -26.6349
    -5.3104  -4.7458  -4.1343  -3.3316  -3.3315  -3.1671  -3.1670  -3.1136
    -3.1135  -2.6214  -2.1446  -2.1445  -2.0779  -2.0778  -2.0174  -1.1196
    -1.1195  -1.0835  -1.0760  -1.0745  -0.8304  -0.8304  -0.7376  -0.7375
    14.0536  14.0537  14.0757  14.1056  14.2122  14.2122  14.2357  14.2357
    14.3783  14.3783  14.6306  14.6438  14.6439  14.7618  14.7782  14.7782
    14.7941  14.7941  14.8466  14.8466  18.3140  19.9488  20.7584  21.4770
    22.5386  22.5386  22.6551  23.3119  23.4304  23.5954  23.6272  23.6272
    24.0824  24.0824  24.4302  24.4302  25.6177  25.6178  26.2569  26.2569
    26.3001  26.3001  26.4828  27.4699  28.1875  28.1877  28.7913  29.0979
    29.8039  30.4066  30.4067  30.4358  30.4389  30.5565  30.5566  30.6886
    30.6886  30.7432  30.7432  32.0624  32.0624  32.0876  32.0877  32.4062
    32.6343  32.6343  32.7907  33.9917  33.9918  34.4938  34.6028  34.6028
    34.9391  35.6602  35.6604  36.0505  36.5143  36.5762  37.1346  37.3963
    37.3965  37.5785

[...]

          k =-0.5000-0.2887 0.0000 (  5800 PWs)   bands (ev):

[...]

     the Fermi energy is    31.1192 ev

!    total energy              =   -2528.32826340 Ry
     Harris-Foulkes estimate   =   -2528.32829890 Ry
     estimated scf accuracy    <       0.00004108 Ry

     The total energy is the sum of the following terms:

     one-electron contribution =    -245.44464120 Ry
     hartree contribution      =     314.09215101 Ry
     xc contribution           =    -247.06139426 Ry
     ewald contribution        =   -2349.36338888 Ry
     smearing contrib. (-TS)   =      -0.55099006 Ry

     convergence has been achieved in  11 iterations

     Forces acting on atoms (Ry/au):

     atom    1 type  1   force =     0.00000000    0.00000000    0.03580268
     atom    2 type  1   force =     0.00000000    0.00000000    0.03580268
     atom    3 type  1   force =     0.00000000    0.00000000   -0.03580268
     atom    4 type  1   force =     0.00000000    0.00000000   -0.03580268
     atom    5 type  2   force =     0.00000000    0.00000000    0.00000000
     atom    6 type  2   force =     0.00000000    0.00000000    0.00000000
     atom    7 type  2   force =     0.00000000    0.03433083    0.00000000
     atom    8 type  2   force =    -0.02973137    0.01716542    0.00000000
     atom    9 type  2   force =     0.02973137    0.01716542    0.00000000
     atom   10 type  2   force =    -0.02973137   -0.01716542    0.00000000
     atom   11 type  2   force =     0.02973137   -0.01716542    0.00000000
     atom   12 type  2   force =     0.00000000   -0.03433083    0.00000000

     Total force =     0.110449     Total SCF correction =     0.000000

     entering subroutine stress ...

          total   stress  (Ry/bohr**3)                   (kbar)     P=  766.73
   0.00516277   0.00000000   0.00000000        759.47      0.00      0.00
   0.00000000   0.00516277   0.00000000          0.00    759.47      0.00
   0.00000000   0.00000000   0.00531078          0.00      0.00    781.24

     BFGS Geometry Optimization

     number of scf cycles    =   1
     number of bfgs steps    =   0

     enthalpy new            =   -2528.3282633977 Ry

     new trust radius        =       0.5000000000 bohr
     new conv_thr            =       0.0001000000 Ry

     new unit-cell volume =   1651.04564 a.u.^3 (   244.65972 Ang^3 )

CELL_PARAMETERS (alat=  9.92348860)
   1.065876288   0.000000000   0.000000000
  -0.532938144   0.923075943   0.000000000
   0.000000000   0.000000000   1.717203317

ATOMIC_POSITIONS (crystal)
Mg       0.333333000   0.666667000   0.063563016
Mg       0.666667000   0.333333000   0.563563016
Mg       0.666667000   0.333333000   0.936436984
Mg       0.333333000   0.666667000   0.436436984
Zn       0.000000000   0.000000000   0.000000000
Zn       0.000000000   0.000000000   0.500000000
Zn       0.171380450   0.342760900   0.750000000
Zn       0.828619550   0.171380450   0.250000000
Zn       0.342760900   0.171380450   0.250000000
Zn       0.657239100   0.828619550   0.750000000
Zn       0.171380450   0.828619550   0.750000000
Zn       0.828619550   0.657239100   0.250000000

     Writing output data file Prototype-La-hP12-MgZn2.save
     NEW-OLD atomic charge density approx. for the potential
     NEW k-points:
        k(    1) = (   0.0000000   0.0000000   0.0000000), wk =   0.0833333
        k(    2) = (   0.0000000   0.0000000   0.1455856), wk =   0.1666667
        k(    3) = (   0.0000000   0.0000000  -0.2911711), wk =   0.0833333
        k(    4) = (   0.0000000   0.3611115   0.0000000), wk =   0.1666667
        k(    5) = (   0.0000000   0.3611115   0.1455856), wk =   0.3333333
        k(    6) = (   0.0000000   0.3611115  -0.2911711), wk =   0.1666667
        k(    7) = (  -0.4690976  -0.2708336   0.0000000), wk =   0.0833333
        k(    8) = (  -0.4690976  -0.2708336   0.1455856), wk =   0.1666667
        k(    9) = (  -0.4690976  -0.2708336  -0.2911711), wk =   0.0833333
        k(   10) = (  -0.4690976   0.0902779   0.0000000), wk =   0.1666667
        k(   11) = (  -0.4690976   0.0902779   0.1455856), wk =   0.3333333
        k(   12) = (  -0.4690976   0.0902779  -0.2911711), wk =   0.1666667

[...]

     enthalpy old            =   -2528.3282633977 Ry
     enthalpy new            =   -2528.6783327182 Ry

     CASE: enthalpy_new < enthalpy_old

     small trust_radius: resetting bfgs history

     new trust radius        =       0.3979676248 bohr
     new conv_thr            =       0.0000041800 Ry

[...]

     number of scf cycles    =   3
     number of bfgs steps    =   2

     enthalpy old            =   -2528.6783327182 Ry
     enthalpy new            =   -2528.5826890936 Ry

     CASE: enthalpy_new > enthalpy_old

     new trust radius        =       0.1615384181 bohr

     trust_radius < trust_radius_min

     resetting bfgs history

     Message from routine bfgs:
     history already reset at previous step: stopping
     new conv_thr            =       0.0000041800 Ry

     new unit-cell volume =   1408.91370 a.u.^3 (   208.77947 Ang^3 )

[...]

ATOMIC_POSITIONS (crystal)
Mg       0.333333000   0.666667000   0.063620556
Mg       0.666667000   0.333333000   0.563620556
Mg       0.666667000   0.333333000   0.936379444
Mg       0.333333000   0.666667000   0.436379444
Zn       0.000000000   0.000000000   0.000000000
Zn       0.000000000   0.000000000   0.500000000
Zn       0.171632713   0.343265425   0.750000000
Zn       0.828367287   0.171632713   0.250000000
Zn       0.343265425   0.171632713   0.250000000
Zn       0.656734575   0.828367287   0.750000000
Zn       0.171632713   0.828367287   0.750000000
Zn       0.828367287   0.656734575   0.250000000

     Writing output data file Prototype-La-hP12-MgZn2.save
     NEW-OLD atomic charge density approx. for the potential
     NEW k-points:
        k(    1) = (   0.0000000   0.0000000   0.0000000), wk =   0.0833333
        k(    2) = (   0.0000000   0.0000000   0.1534890), wk =   0.1666667
        k(    3) = (   0.0000000   0.0000000  -0.3069781), wk =   0.0833333
        k(    4) = (   0.0000000   0.3807142   0.0000000), wk =   0.1666667
        k(    5) = (   0.0000000   0.3807142   0.1534890), wk =   0.3333333
        k(    6) = (   0.0000000   0.3807142  -0.3069781), wk =   0.1666667
        k(    7) = (  -0.4945623  -0.2855357   0.0000000), wk =   0.0833333
        k(    8) = (  -0.4945623  -0.2855357   0.1534890), wk =   0.1666667
        k(    9) = (  -0.4945623  -0.2855357  -0.3069781), wk =   0.0833333
        k(   10) = (  -0.4945623   0.0951786   0.0000000), wk =   0.1666667
        k(   11) = (  -0.4945623   0.0951786   0.1534890), wk =   0.3333333
        k(   12) = (  -0.4945623   0.0951786  -0.3069781), wk =   0.1666667

[...]

     The maximum number of steps has been reached.

     End of BFGS Geometry Optimization
Begin final coordinates
     new unit-cell volume =   1408.91370 a.u.^3 (   208.77947 Ang^3 )

CELL_PARAMETERS (alat=  9.92348860)
   1.010995004   0.000000000   0.000000000
  -0.505497502   0.875547357   0.000000000
   0.000000000   0.000000000   1.628780702

ATOMIC_POSITIONS (crystal)
Mg       0.333333000   0.666667000   0.063620556
Mg       0.666667000   0.333333000   0.563620556
Mg       0.666667000   0.333333000   0.936379444
Mg       0.333333000   0.666667000   0.436379444
Zn       0.000000000   0.000000000   0.000000000
Zn       0.000000000   0.000000000   0.500000000
Zn       0.171632713   0.343265425   0.750000000
Zn       0.828367287   0.171632713   0.250000000
Zn       0.343265425   0.171632713   0.250000000
Zn       0.656734575   0.828367287   0.750000000
Zn       0.171632713   0.828367287   0.750000000
Zn       0.828367287   0.656734575   0.250000000
End final coordinates

     A final scf calculation at the relaxed structure.
     The G-vectors are recalculated for the final unit cell
     Results may differ from those at the preceding step.

     bravais-lattice index     =            0
     lattice parameter (alat)  =       9.9235  a.u.
     unit-cell volume          =    1408.9137 (a.u.)^3
     number of atoms/cell      =           12
     number of atomic types    =            2
     number of electrons       =       216.00
     number of Kohn-Sham states=          130
     kinetic-energy cutoff     =      40.0000  Ry
     charge density cutoff     =     160.0000  Ry
     convergence threshold     =      4.2E-06
     mixing beta               =       0.7000
     number of iterations used =            8  plain     mixing
     Exchange-correlation      = SLA-PZ-NOGX-NOGC ( 1 1 0 0 0)
     EXX-fraction              =        0.00

     celldm(1)=   9.923489  celldm(2)=   0.000000  celldm(3)=   0.000000
     celldm(4)=   0.000000  celldm(5)=   0.000000  celldm(6)=   0.000000

     crystal axes: (cart. coord. in units of alat)
               a(1) = (   1.010995   0.000000   0.000000 )
               a(2) = (  -0.505498   0.875547   0.000000 )
               a(3) = (   0.000000   0.000000   1.628781 )

     reciprocal axes: (cart. coord. in units 2 pi/alat)
               b(1) = (  0.989125  0.571071  0.000000 )
               b(2) = (  0.000000  1.142143  0.000000 )
               b(3) = (  0.000000  0.000000  0.613956 )

     PseudoPot. # 1 for Er read from file:
     /home/cwx6513/pp.La/Er.UPF
     MD5 check sum: e152ae21b84514339d8526f066caf99b
     Pseudo is Norm-conserving, Zval = 22.0
     Generated in analytical, separable form
     Using radial grid of 1267 points,  6 beta functions with:
                l(1) =   0
                l(2) =   0
                l(3) =   1
                l(4) =   1
                l(5) =   2
                l(6) =   3

     PseudoPot. # 2 for Sm read from file:
     /home/cwx6513/pp.La/Sm.UPF
     MD5 check sum: 5079e8b144a06bfcdbc14fb02b96ab09
     Pseudo is Norm-conserving, Zval = 16.0
     Generated in analytical, separable form
     Using radial grid of 1259 points,  6 beta functions with:
                l(1) =   0
                l(2) =   0
                l(3) =   1
                l(4) =   1
                l(5) =   2
                l(6) =   3

     atomic species   valence    mass     pseudopotential
        Mg            22.00    24.30500     Er( 1.00)
        Zn            16.00    65.39000     Sm( 1.00)

     24 Sym. Ops., with inversion, found (12 have fractional translation)

   Cartesian axes

     site n.     atom                  positions (alat units)
         1           Mg  tau(   1) = (  -0.0000005   0.5836985   0.1036239  )
         2           Mg  tau(   2) = (   0.5054980   0.2918488   0.9180143  )
         3           Mg  tau(   3) = (   0.5054980   0.2918488   1.5251568  )
         4           Mg  tau(   4) = (  -0.0000005   0.5836985   0.7107664  )
         5           Zn  tau(   5) = (   0.0000000   0.0000000   0.0000000  )
         6           Zn  tau(   6) = (   0.0000000   0.0000000   0.8143904  )
         7           Zn  tau(   7) = (   0.0000000   0.3005451   1.2215855  )
         8           Zn  tau(   8) = (   0.7507153   0.1502726   0.4071952  )
         9           Zn  tau(   9) = (   0.2602797   0.1502726   0.4071952  )
        10           Zn  tau(  10) = (   0.2452178   0.7252748   1.2215855  )
        11           Zn  tau(  11) = (  -0.2452178   0.7252748   1.2215855  )
        12           Zn  tau(  12) = (   0.5054975   0.5750022   0.4071952  )

     number of k points=    12  gaussian smearing, width (Ry)=  0.1000
                       cart. coord. in units 2pi/alat
        k(    1) = (   0.0000000   0.0000000   0.0000000), wk =   0.0833333
        k(    2) = (   0.0000000   0.0000000   0.1534890), wk =   0.1666667
        k(    3) = (   0.0000000   0.0000000  -0.3069781), wk =   0.0833333
        k(    4) = (   0.0000000   0.3807142   0.0000000), wk =   0.1666667
        k(    5) = (   0.0000000   0.3807142   0.1534890), wk =   0.3333333
        k(    6) = (   0.0000000   0.3807142  -0.3069781), wk =   0.1666667
        k(    7) = (  -0.4945623  -0.2855357   0.0000000), wk =   0.0833333
        k(    8) = (  -0.4945623  -0.2855357   0.1534890), wk =   0.1666667
        k(    9) = (  -0.4945623  -0.2855357  -0.3069781), wk =   0.0833333
        k(   10) = (  -0.4945623   0.0951786   0.0000000), wk =   0.1666667
        k(   11) = (  -0.4945623   0.0951786   0.1534890), wk =   0.3333333
        k(   12) = (  -0.4945623   0.0951786  -0.3069781), wk =   0.1666667

     Largest allocated arrays     est. size (Mb)     dimensions
     Largest temporary arrays     est. size (Mb)     dimensions

     Initial potential from superposition of free atoms

     Starting from uniform charge
     Starting wfc are    0 randomized atomic wfcs

     Writing output data file Prototype-La-hP12-MgZn2.save

     Self-consistent Calculation

[...]

     iteration # 11     ecut=    40.00 Ry     beta=0.70
     CG style diagonalization
     c_bands:  1 eigenvalues not converged
     c_bands:  1 eigenvalues not converged
     ethr =  2.41E-07,  avg # of iterations =  3.6

     total energy              =   -2528.73384578 Ry
     Harris-Foulkes estimate   =   -2528.73385992 Ry
     estimated scf accuracy    <       0.00003039 Ry

     iteration # 12     ecut=    40.00 Ry     beta=0.70
     CG style diagonalization
     ethr =  1.41E-08,  avg # of iterations =  4.0

     End of self-consistent calculation

[...]

          k = 0.0000 0.3807-0.3070 (  6008 PWs)   bands (ev):

[...]

          k =-0.4946 0.0952-0.3070 (  6038 PWs)   bands (ev):

   -71.5044 -71.5044 -71.4935 -71.4935 -33.4691 -33.4691 -33.4614 -33.4614
   -33.4533 -33.4533 -33.4354 -33.4354 -33.4204 -33.4204 -33.4162 -33.4162
   -28.3156 -28.3155 -28.1126 -28.1126 -27.7849 -27.7849 -27.7779 -27.7779
    -5.2313  -5.2313  -4.5474  -4.5474  -4.0179  -4.0179  -3.9475  -3.9475
    -3.8070  -3.8070  -3.5861  -3.5861  -3.1987  -3.1987  -2.8985  -2.8985
    -2.6888  -2.6888  -2.5505  -2.5505  -2.2437  -2.2437  -2.1579  -2.1579
    12.9886  12.9886  13.0142  13.0142  13.1257  13.1257  13.2704  13.2704
    13.3218  13.3218  13.4662  13.4662  13.5188  13.5188  13.5763  13.5763
    13.7608  13.7608  13.8127  13.8127  19.5895  19.5895  20.4356  20.4356
    22.4734  22.4734  22.9162  22.9162  23.3369  23.3369  23.5940  23.5940
    23.7619  23.7619  24.2335  24.2335  24.5699  24.5699  24.8353  24.8353
    25.0677  25.0677  26.0703  26.0703  26.5328  26.5328  26.7567  26.7567
    27.2024  27.2024  27.4808  27.4808  27.9243  27.9243  28.2974  28.2974
    28.9430  28.9430  29.4864  29.4864  29.7569  29.7569  30.5657  30.5657
    31.4188  31.4188  31.8878  31.8878  32.7388  32.7388  33.2428  33.2428
    33.6654  33.6654  34.8146  34.8147  35.8987  35.8988  36.4015  36.4015
    37.1236  37.1242

     the Fermi energy is    29.9068 ev

!    total energy              =   -2528.73385484 Ry
     Harris-Foulkes estimate   =   -2528.73385621 Ry
     estimated scf accuracy    <       0.00000165 Ry

     The total energy is the sum of the following terms:

     one-electron contribution =    -283.25002408 Ry
     hartree contribution      =     324.04939936 Ry
     xc contribution           =    -246.30174692 Ry
     ewald contribution        =   -2322.66015766 Ry
     smearing contrib. (-TS)   =      -0.57132554 Ry

     convergence has been achieved in  12 iterations

     Forces acting on atoms (Ry/au):

     atom    1 type  1   force =     0.00000000    0.00000000    0.01627144
     atom    2 type  1   force =     0.00000000    0.00000000    0.01627144
     atom    3 type  1   force =     0.00000000    0.00000000   -0.01627144
     atom    4 type  1   force =     0.00000000    0.00000000   -0.01627144
     atom    5 type  2   force =     0.00000000    0.00000000    0.00000000
     atom    6 type  2   force =     0.00000000    0.00000000    0.00000000
     atom    7 type  2   force =     0.00000000   -0.00894432    0.00000000
     atom    8 type  2   force =     0.00774601   -0.00447216    0.00000000
     atom    9 type  2   force =    -0.00774601   -0.00447216    0.00000000
     atom   10 type  2   force =     0.00774601    0.00447216    0.00000000
     atom   11 type  2   force =    -0.00774601    0.00447216    0.00000000
     atom   12 type  2   force =     0.00000000    0.00894432    0.00000000

     Total force =     0.039231     Total SCF correction =     0.000000

     entering subroutine stress ...

          total   stress  (Ry/bohr**3)                   (kbar)     P=  581.16
   0.00396374   0.00000000   0.00000000        583.09      0.00      0.00
   0.00000000   0.00396374   0.00000000          0.00    583.09      0.00
   0.00000000   0.00000000   0.00392439          0.00      0.00    577.30

     Writing output data file Prototype-La-hP12-MgZn2.save

     General routines

     Parallel routines

   This run was terminated on:  23: 9:38  22Mar2018

   JOB DONE.