     Program PWSCF v.5.0.2 starts on 21Mar2018 at 22:59: 9

     Current dimensions of program PWSCF are:
     Max number of different atomic species (ntypx) = 10
     Max number of k-points (npk) =  40000
     Max angular momentum in pseudopotentials (lmaxx) =  3
     Waiting for input...
     Reading input from standard input

     bravais-lattice index     =            0
     lattice parameter (alat)  =       6.9452  a.u.
     unit-cell volume          =     933.5175 (a.u.)^3
     number of atoms/cell      =            4
     number of atomic types    =            1
     number of electrons       =        60.00
     number of Kohn-Sham states=           36
     kinetic-energy cutoff     =      40.0000  Ry
     charge density cutoff     =     160.0000  Ry
     convergence threshold     =      1.0E-04
     mixing beta               =       0.7000
     number of iterations used =            8  plain     mixing
     Exchange-correlation      = SLA-PZ-NOGX-NOGC ( 1 1 0 0 0)
     EXX-fraction              =        0.00
     nstep                     =           50

     celldm(1)=   6.945161  celldm(2)=   0.000000  celldm(3)=   0.000000
     celldm(4)=   0.000000  celldm(5)=   0.000000  celldm(6)=   0.000000

     crystal axes: (cart. coord. in units of alat)
               a(1) = (   1.000000   0.000000   0.000000 )
               a(2) = (  -0.500000   0.866025   0.000000 )
               a(3) = (   0.000000   0.000000   3.217695 )

     reciprocal axes: (cart. coord. in units 2 pi/alat)
               b(1) = (  1.000000  0.577350  0.000000 )
               b(2) = (  0.000000  1.154701  0.000000 )
               b(3) = (  0.000000  0.000000  0.310781 )

     PseudoPot. # 1 for Pm read from file:
     /home/cwx6513/pp.La/Pm.UPF
     MD5 check sum: 0061344aafc48faba5d75831754de21b
     Pseudo is Norm-conserving, Zval = 15.0
     Generated in analytical, separable form
     Using radial grid of 1259 points,  6 beta functions with:
                l(1) =   0
                l(2) =   0
                l(3) =   1
                l(4) =   1
                l(5) =   2
                l(6) =   3

     atomic species   valence    mass     pseudopotential
        Pm            15.00   145.00000     Pm( 1.00)

     24 Sym. Ops., with inversion, found (12 have fractional translation)

   Cartesian axes

     site n.     atom                  positions (alat units)
         1           Pm  tau(   1) = (   0.0000000   0.0000000   0.0000000  )
         2           Pm  tau(   2) = (   0.5000005   0.2886748   2.4132711  )
         3           Pm  tau(   3) = (   0.0000000   0.0000000   1.6088474  )
         4           Pm  tau(   4) = (  -0.0000005   0.5773506   0.8044237  )

     number of k points=    12  gaussian smearing, width (Ry)=  0.1000
                       cart. coord. in units 2pi/alat
        k(    1) = (   0.0000000   0.0000000   0.0000000), wk =   0.0833333
        k(    2) = (   0.0000000   0.0000000   0.0776954), wk =   0.1666667
        k(    3) = (   0.0000000   0.0000000  -0.1553907), wk =   0.0833333
        k(    4) = (   0.0000000   0.3849002   0.0000000), wk =   0.1666667
        k(    5) = (   0.0000000   0.3849002   0.0776954), wk =   0.3333333
        k(    6) = (   0.0000000   0.3849002  -0.1553907), wk =   0.1666667
        k(    7) = (  -0.5000000  -0.2886751   0.0000000), wk =   0.0833333
        k(    8) = (  -0.5000000  -0.2886751   0.0776954), wk =   0.1666667
        k(    9) = (  -0.5000000  -0.2886751  -0.1553907), wk =   0.0833333
        k(   10) = (  -0.5000000   0.0962250   0.0000000), wk =   0.1666667
        k(   11) = (  -0.5000000   0.0962250   0.0776954), wk =   0.3333333
        k(   12) = (  -0.5000000   0.0962250  -0.1553907), wk =   0.1666667

     Largest allocated arrays     est. size (Mb)     dimensions
     Largest temporary arrays     est. size (Mb)     dimensions

     Initial potential from superposition of free atoms

     Starting from uniform charge
     Starting wfc are    0 randomized atomic wfcs

     Self-consistent Calculation

     iteration #  1     ecut=    40.00 Ry     beta=0.70
     CG style diagonalization
     ethr =  1.00E-02,  avg # of iterations =  8.7

     total energy              =    -482.85150080 Ry
     Harris-Foulkes estimate   =    -632.66314605 Ry
     estimated scf accuracy    <     201.58015985 Ry

[...]

     negative rho (up, down):  0.170E-03 0.000E+00

[...]

     iteration #  7     ecut=    40.00 Ry     beta=0.70
     CG style diagonalization
     c_bands:  1 eigenvalues not converged
     c_bands:  2 eigenvalues not converged
     c_bands:  2 eigenvalues not converged
     c_bands:  2 eigenvalues not converged
     c_bands:  1 eigenvalues not converged
     c_bands:  3 eigenvalues not converged
     ethr =  3.18E-05,  avg # of iterations =  6.2

[...]

     End of self-consistent calculation

          k = 0.0000 0.0000 0.0000 (  3927 PWs)   bands (ev):

   -41.1144 -41.0991 -41.0984 -41.0831 -17.6760 -17.5130 -17.5116 -17.4447
   -17.4447 -17.4193 -17.4193 -17.4118 -17.4118 -17.3881 -17.3881 -17.3464
     7.3206   8.4205   8.4218   8.5749  10.4115  10.4115  10.4262  10.4262
    10.4456  10.4672  10.5721  10.6908  10.6908  10.7484  10.7484  11.4801
    11.4801  11.8770  11.8771  12.2392

[...]

          k =-0.5000-0.2887 0.0000 (  3970 PWs)   bands (ev):

[...]

     the Fermi energy is    11.6675 ev

!    total energy              =    -519.17272944 Ry
     Harris-Foulkes estimate   =    -519.17280005 Ry
     estimated scf accuracy    <       0.00007548 Ry

     The total energy is the sum of the following terms:

     one-electron contribution =    -119.66045104 Ry
     hartree contribution      =      79.73971949 Ry
     xc contribution           =     -56.51562774 Ry
     ewald contribution        =    -422.18689726 Ry
     smearing contrib. (-TS)   =      -0.54947290 Ry

     convergence has been achieved in  18 iterations

     Forces acting on atoms (Ry/au):

     atom    1 type  1   force =     0.00000000    0.00000000    0.00000000
     atom    2 type  1   force =     0.00000000    0.00000000    0.00000000
     atom    3 type  1   force =     0.00000000    0.00000000    0.00000000
     atom    4 type  1   force =     0.00000000    0.00000000    0.00000000

     Total force =     0.000000     Total SCF correction =     0.000000

     entering subroutine stress ...

          total   stress  (Ry/bohr**3)                   (kbar)     P= -379.69
  -0.00257822   0.00000000   0.00000000       -379.27      0.00      0.00
   0.00000000  -0.00257822   0.00000000          0.00   -379.27      0.00
   0.00000000   0.00000000  -0.00258680          0.00      0.00   -380.53

     BFGS Geometry Optimization

     number of scf cycles    =   1
     number of bfgs steps    =   0

     enthalpy new            =    -519.1727294418 Ry

     new trust radius        =       0.3951792653 bohr
     new conv_thr            =       0.0001000000 Ry

     new unit-cell volume =    764.21640 a.u.^3 (   113.24519 Ang^3 )

CELL_PARAMETERS (alat=  6.94516123)
   0.935544621   0.000000000   0.000000000
  -0.467772310   0.810205408   0.000000000
   0.000000000   0.000000000   3.009606472

ATOMIC_POSITIONS (crystal)
Pm       0.000000000   0.000000000   0.000000000
Pm       0.666667000   0.333333000   0.750000000
Pm       0.000000000   0.000000000   0.500000000
Pm       0.333333000   0.666667000   0.250000000

     Writing output data file Element-Pm.q.save
     NEW-OLD atomic charge density approx. for the potential
     NEW k-points:
        k(    1) = (   0.0000000   0.0000000   0.0000000), wk =   0.0833333
        k(    2) = (   0.0000000   0.0000000   0.0830673), wk =   0.1666667
        k(    3) = (   0.0000000   0.0000000  -0.1661347), wk =   0.0833333
        k(    4) = (   0.0000000   0.4114183   0.0000000), wk =   0.1666667
        k(    5) = (   0.0000000   0.4114183   0.0830673), wk =   0.3333333
        k(    6) = (   0.0000000   0.4114183  -0.1661347), wk =   0.1666667
        k(    7) = (  -0.5344481  -0.3085637   0.0000000), wk =   0.0833333
        k(    8) = (  -0.5344481  -0.3085637   0.0830673), wk =   0.1666667
        k(    9) = (  -0.5344481  -0.3085637  -0.1661347), wk =   0.0833333
        k(   10) = (  -0.5344481   0.1028546   0.0000000), wk =   0.1666667
        k(   11) = (  -0.5344481   0.1028546   0.0830673), wk =   0.3333333
        k(   12) = (  -0.5344481   0.1028546  -0.1661347), wk =   0.1666667

[...]

     enthalpy old            =    -519.1727294418 Ry
     enthalpy new            =    -519.5945716653 Ry

     CASE: enthalpy_new < enthalpy_old

     small trust_radius: resetting bfgs history

[...]

     number of scf cycles    =   3
     number of bfgs steps    =   2

     enthalpy old            =    -519.5945716653 Ry
     enthalpy new            =    -519.8544755126 Ry

     CASE: enthalpy_new < enthalpy_old

     Message from routine bfgs:
     history already reset at previous step: stopping
     small trust_radius: resetting bfgs history

     new trust radius        =       0.2045726409 bohr
     new conv_thr            =       0.0000010000 Ry

     new unit-cell volume =    564.56049 a.u.^3 (    83.65923 Ang^3 )

[...]

ATOMIC_POSITIONS (crystal)
Pm       0.000000000   0.000000000   0.000000000
Pm       0.666667000   0.333333000   0.750000000
Pm       0.000000000   0.000000000   0.500000000
Pm       0.333333000   0.666667000   0.250000000

     Writing output data file Element-Pm.q.save
     NEW-OLD atomic charge density approx. for the potential
     NEW k-points:
        k(    1) = (   0.0000000   0.0000000   0.0000000), wk =   0.0833333
        k(    2) = (   0.0000000   0.0000000   0.0915613), wk =   0.1666667
        k(    3) = (   0.0000000   0.0000000  -0.1831226), wk =   0.0833333
        k(    4) = (   0.0000000   0.4559275   0.0000000), wk =   0.1666667
        k(    5) = (   0.0000000   0.4559275   0.0915613), wk =   0.3333333
        k(    6) = (   0.0000000   0.4559275  -0.1831226), wk =   0.1666667
        k(    7) = (  -0.5922671  -0.3419456   0.0000000), wk =   0.0833333
        k(    8) = (  -0.5922671  -0.3419456   0.0915613), wk =   0.1666667
        k(    9) = (  -0.5922671  -0.3419456  -0.1831226), wk =   0.0833333
        k(   10) = (  -0.5922671   0.1139819   0.0000000), wk =   0.1666667
        k(   11) = (  -0.5922671   0.1139819   0.0915613), wk =   0.3333333
        k(   12) = (  -0.5922671   0.1139819  -0.1831226), wk =   0.1666667

[...]

     The maximum number of steps has been reached.

     End of BFGS Geometry Optimization
Begin final coordinates
     new unit-cell volume =    564.56049 a.u.^3 (    83.65923 Ang^3 )

CELL_PARAMETERS (alat=  6.94516123)
   0.844213633   0.000000000   0.000000000
  -0.422106817   0.731110453   0.000000000
   0.000000000   0.000000000   2.730411649

ATOMIC_POSITIONS (crystal)
Pm       0.000000000   0.000000000   0.000000000
Pm       0.666667000   0.333333000   0.750000000
Pm       0.000000000   0.000000000   0.500000000
Pm       0.333333000   0.666667000   0.250000000
End final coordinates

     A final scf calculation at the relaxed structure.
     The G-vectors are recalculated for the final unit cell
     Results may differ from those at the preceding step.

     bravais-lattice index     =            0
     lattice parameter (alat)  =       6.9452  a.u.
     unit-cell volume          =     564.5605 (a.u.)^3
     number of atoms/cell      =            4
     number of atomic types    =            1
     number of electrons       =        60.00
     number of Kohn-Sham states=           36
     kinetic-energy cutoff     =      40.0000  Ry
     charge density cutoff     =     160.0000  Ry
     convergence threshold     =      1.0E-06
     mixing beta               =       0.7000
     number of iterations used =            8  plain     mixing
     Exchange-correlation      = SLA-PZ-NOGX-NOGC ( 1 1 0 0 0)
     EXX-fraction              =        0.00

     celldm(1)=   6.945161  celldm(2)=   0.000000  celldm(3)=   0.000000
     celldm(4)=   0.000000  celldm(5)=   0.000000  celldm(6)=   0.000000

     crystal axes: (cart. coord. in units of alat)
               a(1) = (   0.844214   0.000000   0.000000 )
               a(2) = (  -0.422107   0.731110   0.000000 )
               a(3) = (   0.000000   0.000000   2.730412 )

     reciprocal axes: (cart. coord. in units 2 pi/alat)
               b(1) = (  1.184534  0.683891  0.000000 )
               b(2) = (  0.000000  1.367782  0.000000 )
               b(3) = (  0.000000  0.000000  0.366245 )

     PseudoPot. # 1 for Pm read from file:
     /home/cwx6513/pp.La/Pm.UPF
     MD5 check sum: 0061344aafc48faba5d75831754de21b
     Pseudo is Norm-conserving, Zval = 15.0
     Generated in analytical, separable form
     Using radial grid of 1259 points,  6 beta functions with:
                l(1) =   0
                l(2) =   0
                l(3) =   1
                l(4) =   1
                l(5) =   2
                l(6) =   3

     atomic species   valence    mass     pseudopotential
        Pm            15.00   145.00000     Pm( 1.00)

     24 Sym. Ops., with inversion, found (12 have fractional translation)

   Cartesian axes

     site n.     atom                  positions (alat units)
         1           Pm  tau(   1) = (   0.0000000   0.0000000   0.0000000  )
         2           Pm  tau(   2) = (   0.4221072   0.2437032   2.0478087  )
         3           Pm  tau(   3) = (   0.0000000   0.0000000   1.3652058  )
         4           Pm  tau(   4) = (  -0.0000004   0.4874072   0.6826029  )

     number of k points=    12  gaussian smearing, width (Ry)=  0.1000
                       cart. coord. in units 2pi/alat
        k(    1) = (   0.0000000   0.0000000   0.0000000), wk =   0.0833333
        k(    2) = (   0.0000000   0.0000000   0.0915613), wk =   0.1666667
        k(    3) = (   0.0000000   0.0000000  -0.1831226), wk =   0.0833333
        k(    4) = (   0.0000000   0.4559275   0.0000000), wk =   0.1666667
        k(    5) = (   0.0000000   0.4559275   0.0915613), wk =   0.3333333
        k(    6) = (   0.0000000   0.4559275  -0.1831226), wk =   0.1666667
        k(    7) = (  -0.5922671  -0.3419456   0.0000000), wk =   0.0833333
        k(    8) = (  -0.5922671  -0.3419456   0.0915613), wk =   0.1666667
        k(    9) = (  -0.5922671  -0.3419456  -0.1831226), wk =   0.0833333
        k(   10) = (  -0.5922671   0.1139819   0.0000000), wk =   0.1666667
        k(   11) = (  -0.5922671   0.1139819   0.0915613), wk =   0.3333333
        k(   12) = (  -0.5922671   0.1139819  -0.1831226), wk =   0.1666667

     Largest allocated arrays     est. size (Mb)     dimensions
     Largest temporary arrays     est. size (Mb)     dimensions

     Initial potential from superposition of free atoms

     Starting from uniform charge
     Starting wfc are    0 randomized atomic wfcs

     Writing output data file Element-Pm.q.save

     Self-consistent Calculation

[...]

     negative rho (up, down):  0.827E-04 0.000E+00

[...]

     iteration # 36     ecut=    40.00 Ry     beta=0.70
     CG style diagonalization
     c_bands:  1 eigenvalues not converged
     ethr =  4.69E-08,  avg # of iterations =  3.1

[...]

     total energy              =    -519.79676042 Ry
     Harris-Foulkes estimate   =    -519.79676066 Ry
     estimated scf accuracy    <       0.00000157 Ry

     iteration # 47     ecut=    40.00 Ry     beta=0.70
     CG style diagonalization
     ethr =  2.61E-09,  avg # of iterations =  3.7

     End of self-consistent calculation

[...]

          k = 0.0000 0.4559-0.1831 (  2416 PWs)   bands (ev):

[...]

          k =-0.5923 0.1140-0.1831 (  2412 PWs)   bands (ev):

   -30.3994 -30.3994 -30.3294 -30.3294  -7.7777  -7.7777  -7.6700  -7.6700
    -7.1236  -7.1236  -6.9078  -6.9078  -6.8178  -6.8178  -6.5260  -6.5260
    17.3773  17.3773  17.8570  17.8570  17.9395  17.9395  19.4009  19.4009
    20.3605  20.3605  21.1697  21.1697  21.8001  21.8001  23.1591  23.1591
    24.2947  24.2947  25.7384  25.7384

     the Fermi energy is    22.5390 ev

!    total energy              =    -519.79676072 Ry
     Harris-Foulkes estimate   =    -519.79676075 Ry
     estimated scf accuracy    <       0.00000003 Ry

     The total energy is the sum of the following terms:

     one-electron contribution =      -9.90945705 Ry
     hartree contribution      =      48.11137362 Ry
     xc contribution           =     -58.48000594 Ry
     ewald contribution        =    -499.24845744 Ry
     smearing contrib. (-TS)   =      -0.27021390 Ry

     convergence has been achieved in  47 iterations

     Forces acting on atoms (Ry/au):

     atom    1 type  1   force =     0.00000000    0.00000000    0.00000000
     atom    2 type  1   force =     0.00000000    0.00000000    0.00000000
     atom    3 type  1   force =     0.00000000    0.00000000    0.00000000
     atom    4 type  1   force =     0.00000000    0.00000000    0.00000000

     Total force =     0.000000     Total SCF correction =     0.000000

     entering subroutine stress ...

          total   stress  (Ry/bohr**3)                   (kbar)     P= -127.18
  -0.00090634   0.00000000   0.00000000       -133.33      0.00      0.00
   0.00000000  -0.00090634   0.00000000          0.00   -133.33      0.00
   0.00000000   0.00000000  -0.00078101          0.00      0.00   -114.89

     Writing output data file Element-Pm.q.save

     General routines

     Parallel routines

   This run was terminated on:  23: 0:40  21Mar2018

   JOB DONE.