     Program PWSCF v.5.0.2 starts on 23Mar2018 at  0:57:27

     Current dimensions of program PWSCF are:
     Max number of different atomic species (ntypx) = 10
     Max number of k-points (npk) =  40000
     Max angular momentum in pseudopotentials (lmaxx) =  3
     Waiting for input...
     Reading input from standard input

     Subspace diagonalization in iterative solution of the eigenvalue problem:
     a serial algorithm will be used

     bravais-lattice index     =            0
     lattice parameter (alat)  =       7.0151  a.u.
     unit-cell volume          =     862.2778 (a.u.)^3
     number of atoms/cell      =           12
     number of atomic types    =            2
     number of electrons       =       220.00
     number of Kohn-Sham states=          132
     kinetic-energy cutoff     =      40.0000  Ry
     charge density cutoff     =     160.0000  Ry
     convergence threshold     =      1.0E-04
     mixing beta               =       0.7000
     number of iterations used =            8  plain     mixing
     Exchange-correlation      = SLA-PZ-NOGX-NOGC ( 1 1 0 0 0)
     EXX-fraction              =        0.00
     nstep                     =           50

     celldm(1)=   7.015105  celldm(2)=   0.000000  celldm(3)=   0.000000
     celldm(4)=   0.000000  celldm(5)=   0.000000  celldm(6)=   0.000000

     crystal axes: (cart. coord. in units of alat)
               a(1) = (   1.000000   0.000000   0.000000 )
               a(2) = (   0.000000   1.315963   0.000000 )
               a(3) = (   0.000000   0.000000   1.898020 )

     reciprocal axes: (cart. coord. in units 2 pi/alat)
               b(1) = (  1.000000  0.000000  0.000000 )
               b(2) = (  0.000000  0.759900  0.000000 )
               b(3) = (  0.000000  0.000000  0.526865 )

     PseudoPot. # 1 for Ho read from file:
     /home/cwx6513/pp.La/Ho.UPF
     MD5 check sum: f307ee11bce99f5b724fa279e3790763
     Pseudo is Norm-conserving, Zval = 21.0
     Generated in analytical, separable form
     Using radial grid of 1265 points,  6 beta functions with:
                l(1) =   0
                l(2) =   0
                l(3) =   1
                l(4) =   1
                l(5) =   2
                l(6) =   3

     PseudoPot. # 2 for Pr read from file:
     /home/cwx6513/pp.La/Pr.UPF
     MD5 check sum: 70e2b4b153859e92c8c91247dfc63203
     Pseudo is Norm-conserving, Zval = 13.0
     Generated in analytical, separable form
     Using radial grid of 1255 points,  6 beta functions with:
                l(1) =   0
                l(2) =   0
                l(3) =   1
                l(4) =   1
                l(5) =   2
                l(6) =   3

     atomic species   valence    mass     pseudopotential
        Co            21.00    58.93320     Ho( 1.00)
        Si            13.00    28.08550     Pr( 1.00)

      8 Sym. Ops., with inversion, found ( 6 have fractional translation)

   Cartesian axes

     site n.     atom                  positions (alat units)
         1           Co  tau(   1) = (   0.7500000   1.0875135   0.8270358  )
         2           Co  tau(   2) = (   0.2500000   0.2284499   1.0709846  )
         3           Co  tau(   3) = (   0.7500000   0.4295318   0.1219744  )
         4           Co  tau(   4) = (   0.2500000   0.8864316   1.7760460  )
         5           Co  tau(   5) = (   0.2500000   0.7067855   0.5358966  )
         6           Co  tau(   6) = (   0.7500000   0.6091779   1.3621238  )
         7           Co  tau(   7) = (   0.2500000   0.0488038   0.4131136  )
         8           Co  tau(   8) = (   0.7500000   1.2671596   1.4849068  )
         9           Si  tau(   9) = (   0.2500000   0.2669484   1.6960710  )
        10           Si  tau(  10) = (   0.7500000   1.0490149   0.2019494  )
        11           Si  tau(  11) = (   0.2500000   0.9249301   1.1509596  )
        12           Si  tau(  12) = (   0.7500000   0.3910333   0.7470608  )

     number of k points=    12  gaussian smearing, width (Ry)=  0.1000
                       cart. coord. in units 2pi/alat
        k(    1) = (   0.0000000   0.0000000   0.0000000), wk =   0.0833333
        k(    2) = (   0.0000000   0.0000000   0.1317162), wk =   0.1666667
        k(    3) = (   0.0000000   0.0000000  -0.2634324), wk =   0.0833333
        k(    4) = (   0.0000000   0.2532999   0.0000000), wk =   0.1666667
        k(    5) = (   0.0000000   0.2532999   0.1317162), wk =   0.3333333
        k(    6) = (   0.0000000   0.2532999  -0.2634324), wk =   0.1666667
        k(    7) = (  -0.5000000   0.0000000   0.0000000), wk =   0.0833333
        k(    8) = (  -0.5000000   0.0000000   0.1317162), wk =   0.1666667
        k(    9) = (  -0.5000000   0.0000000  -0.2634324), wk =   0.0833333
        k(   10) = (  -0.5000000   0.2532999   0.0000000), wk =   0.1666667
        k(   11) = (  -0.5000000   0.2532999   0.1317162), wk =   0.3333333
        k(   12) = (  -0.5000000   0.2532999  -0.2634324), wk =   0.1666667

     Largest allocated arrays     est. size (Mb)     dimensions
     Largest temporary arrays     est. size (Mb)     dimensions

     Initial potential from superposition of free atoms
     Check: negative starting charge=   -0.001196

     starting charge   51.96217, renormalised to  220.00000

     negative rho (up, down):  0.506E-02 0.000E+00
     Starting wfc are   80 randomized atomic wfcs

     Self-consistent Calculation

     iteration #  1     ecut=    40.00 Ry     beta=0.70
     CG style diagonalization
     c_bands:  2 eigenvalues not converged
     c_bands:  1 eigenvalues not converged
     c_bands:  2 eigenvalues not converged
     c_bands:  2 eigenvalues not converged
     c_bands:  1 eigenvalues not converged
     c_bands:  3 eigenvalues not converged
     c_bands:  1 eigenvalues not converged
     ethr =  1.00E-02,  avg # of iterations = 32.4

     negative rho (up, down):  0.150E-02 0.000E+00

     total energy              =   -1916.33119298 Ry
     Harris-Foulkes estimate   =   -5622.61145716 Ry
     estimated scf accuracy    <    4396.05570362 Ry

[...]

     iteration #  4     ecut=    40.00 Ry     beta=0.70
     CG style diagonalization
     ethr =  1.00E-02,  avg # of iterations =  9.0

[...]

     End of self-consistent calculation

          k = 0.0000 0.0000 0.0000 (  3675 PWs)   bands (ev):

   -43.9225 -43.8625 -43.7128 -43.7022 -43.6752 -43.6534 -43.6312 -43.6229
    -9.4187  -9.1971  -9.0270  -8.9308  -8.8020  -8.7256  -8.7153  -8.5324
    -8.4906  -8.4253  -8.3966  -8.2925  -8.2598  -8.1852  -8.1427  -8.1164
    -8.0843  -8.0517  -7.9304  -7.9239  -7.8934  -7.7536  -7.7136  -7.6221
     5.9576   6.4504   6.5224   6.5430  22.5307  23.0181  23.2023  23.2849
    23.6383  23.8448  23.8767  24.2553  24.3774  24.5564  25.2147  25.9935
    29.9168  30.2906  30.4195  30.5087  30.6865  30.8171  30.9914  31.5123
    32.3533  32.4957  32.7684  33.0585  33.0877  33.1262  33.6631  34.2569
    34.3976  34.5374  34.5780  34.6156  34.9311  35.0226  35.2482  35.2582
    35.3688  35.5675  36.0280  36.7944  36.8282  37.2898  37.2932  37.7004
    37.8369  37.9816  38.2461  38.4255  38.4588  38.8702  38.9218  39.1944
    39.2746  40.1370  42.6171  43.1682  44.7592  45.5536  45.9635  46.3171
    46.7044  47.0311  47.5643  47.8420  48.1368  48.3588  49.6102  49.7329
    49.7408  50.3261  50.4775  51.2757  51.7553  52.0318  52.3308  52.6771
    52.7787  52.8185  52.8306  54.1036  54.5805  54.7676  55.7680  56.2248
    56.3093  56.5343  57.3142  57.4744  57.8108  57.8950  58.1147  58.1385
    58.2550  59.0755  59.1425  59.5399

[...]

          k =-0.5000 0.0000 0.0000 (  3722 PWs)   bands (ev):

[...]

     the Fermi energy is    51.5376 ev

!    total energy              =   -2703.63698030 Ry
     Harris-Foulkes estimate   =   -2703.63702660 Ry
     estimated scf accuracy    <       0.00005516 Ry

     The total energy is the sum of the following terms:

     one-electron contribution =     188.55867514 Ry
     hartree contribution      =     243.76367400 Ry
     xc contribution           =    -270.66839815 Ry
     ewald contribution        =   -2864.98059204 Ry
     smearing contrib. (-TS)   =      -0.31033925 Ry

     convergence has been achieved in  11 iterations

     Forces acting on atoms (Ry/au):

     atom    1 type  1   force =     0.00000000   -0.11895054   -0.07014213
     atom    2 type  1   force =     0.00000000    0.11895054    0.07014213
     atom    3 type  1   force =     0.00000000   -0.11895054    0.07014213
     atom    4 type  1   force =     0.00000000    0.11895054   -0.07014213
     atom    5 type  1   force =     0.00000000    0.17708932   -0.22142200
     atom    6 type  1   force =     0.00000000   -0.17708932    0.22142200
     atom    7 type  1   force =     0.00000000    0.17708932    0.22142200
     atom    8 type  1   force =     0.00000000   -0.17708932   -0.22142200
     atom    9 type  2   force =     0.00000000   -0.14966280    0.03666863
     atom   10 type  2   force =     0.00000000    0.14966280   -0.03666863
     atom   11 type  2   force =     0.00000000   -0.14966280   -0.03666863
     atom   12 type  2   force =     0.00000000    0.14966280    0.03666863

     Total force =     0.702000     Total SCF correction =     0.023144

     entering subroutine stress ...

          total   stress  (Ry/bohr**3)                   (kbar)     P= 7242.86
   0.05316085   0.00000000   0.00000000       7820.23      0.00      0.00
   0.00000000   0.04632421   0.00000000          0.00   6814.53      0.00
   0.00000000   0.00000000   0.04822284          0.00      0.00   7093.82

     BFGS Geometry Optimization

     number of scf cycles    =   1
     number of bfgs steps    =   0

     enthalpy new            =   -2703.6369803043 Ry

     new trust radius        =       0.5000000000 bohr
     new conv_thr            =       0.0001000000 Ry

     new unit-cell volume =   1082.72876 a.u.^3 (   160.44385 Ang^3 )

CELL_PARAMETERS (alat=  7.01510508)
   1.085136619   0.000000000   0.000000000
   0.000000000   1.413591816   0.000000000
   0.000000000   0.000000000   2.044601574

ATOMIC_POSITIONS (crystal)
Co       0.750000000   0.825575584   0.435398535
Co       0.250000000   0.174424416   0.564601465
Co       0.750000000   0.325575584   0.064601465
Co       0.250000000   0.674424416   0.935398535
Co       0.250000000   0.538314850   0.281279704
Co       0.750000000   0.461685150   0.718720296
Co       0.250000000   0.038314850   0.218720296
Co       0.750000000   0.961685150   0.781279704
Si       0.250000000   0.201815467   0.893776418
Si       0.750000000   0.798184533   0.106223582
Si       0.250000000   0.701815467   0.606223582
Si       0.750000000   0.298184533   0.393776418

     Writing output data file Prototype-La-oP12-Co2Si.save
     Check: negative starting charge=   -0.001196
     NEW-OLD atomic charge density approx. for the potential
     NEW k-points:
        k(    1) = (   0.0000000   0.0000000   0.0000000), wk =   0.0833333
        k(    2) = (   0.0000000   0.0000000   0.1222732), wk =   0.1666667
        k(    3) = (   0.0000000   0.0000000  -0.2445464), wk =   0.0833333
        k(    4) = (   0.0000000   0.2358059   0.0000000), wk =   0.1666667
        k(    5) = (   0.0000000   0.2358059   0.1222732), wk =   0.3333333
        k(    6) = (   0.0000000   0.2358059  -0.2445464), wk =   0.1666667
        k(    7) = (  -0.4607715   0.0000000   0.0000000), wk =   0.0833333
        k(    8) = (  -0.4607715   0.0000000   0.1222732), wk =   0.1666667
        k(    9) = (  -0.4607715   0.0000000  -0.2445464), wk =   0.0833333
        k(   10) = (  -0.4607715   0.2358059   0.0000000), wk =   0.1666667
        k(   11) = (  -0.4607715   0.2358059   0.1222732), wk =   0.3333333
        k(   12) = (  -0.4607715   0.2358059  -0.2445464), wk =   0.1666667
     Check: negative starting charge=   -0.006049

     negative rho (up, down):  0.498E-02 0.000E+00
     extrapolated charge  230.57985, renormalised to  220.00000

[...]

     enthalpy old            =   -2703.6369803043 Ry
     enthalpy new            =   -2710.5176606588 Ry

     CASE: enthalpy_new < enthalpy_old

     small trust_radius: resetting bfgs history

     new trust radius        =       3.0914929122 bohr
     new conv_thr            =       0.0001000000 Ry

[...]

     Writing output data file Prototype-La-oP12-Co2Si.save
     Check: negative starting charge=   -0.006049
     NEW-OLD atomic charge density approx. for the potential
     NEW k-points:
        k(    1) = (   0.0000000   0.0000000   0.0000000), wk =   0.0833333
        k(    2) = (   0.0000000   0.0000000   0.0860583), wk =   0.1666667
        k(    3) = (   0.0000000   0.0000000  -0.1721167), wk =   0.0833333
        k(    4) = (   0.0000000   0.1700643   0.0000000), wk =   0.1666667
        k(    5) = (   0.0000000   0.1700643   0.0860583), wk =   0.3333333
        k(    6) = (   0.0000000   0.1700643  -0.1721167), wk =   0.1666667
        k(    7) = (  -0.3135006   0.0000000   0.0000000), wk =   0.0833333
        k(    8) = (  -0.3135006   0.0000000   0.0860583), wk =   0.1666667
        k(    9) = (  -0.3135006   0.0000000  -0.1721167), wk =   0.0833333
        k(   10) = (  -0.3135006   0.1700643   0.0000000), wk =   0.1666667
        k(   11) = (  -0.3135006   0.1700643   0.0860583), wk =   0.3333333
        k(   12) = (  -0.3135006   0.1700643  -0.1721167), wk =   0.1666667
     extrapolated charge  254.01649, renormalised to  220.00000

[...]

          total   stress  (Ry/bohr**3)                   (kbar)     P=-2625.40
  -0.01980586   0.00000000   0.00000000      -2913.54      0.00      0.00
   0.00000000  -0.01628828   0.00000000          0.00  -2396.09      0.00
   0.00000000   0.00000000  -0.01744709          0.00      0.00  -2566.55

     number of scf cycles    =   3
     number of bfgs steps    =   2

     enthalpy old            =   -2710.5176606588 Ry
     enthalpy new            =   -2690.2093947096 Ry

     CASE: enthalpy_new > enthalpy_old

     new trust radius        =       0.9674165432 bohr

     trust_radius < trust_radius_min

     resetting bfgs history

     Message from routine bfgs:
     history already reset at previous step: stopping
     new conv_thr            =       0.0001000000 Ry

     new unit-cell volume =   1275.66629 a.u.^3 (   189.03424 Ang^3 )

[...]

ATOMIC_POSITIONS (crystal)
Co       0.750000000   0.825017965   0.435175068
Co       0.250000000   0.174982035   0.564824932
Co       0.750000000   0.325017965   0.064824932
Co       0.250000000   0.674982035   0.935175068
Co       0.250000000   0.539294882   0.280273901
Co       0.750000000   0.460705118   0.719726099
Co       0.250000000   0.039294882   0.219726099
Co       0.750000000   0.960705118   0.780273901
Si       0.250000000   0.200824887   0.893920775
Si       0.750000000   0.799175113   0.106079225
Si       0.250000000   0.700824887   0.606079225
Si       0.750000000   0.299175113   0.393920775

     Writing output data file Prototype-La-oP12-Co2Si.save
     NEW-OLD atomic charge density approx. for the potential
     NEW k-points:
        k(    1) = (   0.0000000   0.0000000   0.0000000), wk =   0.0833333
        k(    2) = (   0.0000000   0.0000000   0.1159057), wk =   0.1666667
        k(    3) = (   0.0000000   0.0000000  -0.2318115), wk =   0.0833333
        k(    4) = (   0.0000000   0.2249923   0.0000000), wk =   0.1666667
        k(    5) = (   0.0000000   0.2249923   0.1159057), wk =   0.3333333
        k(    6) = (   0.0000000   0.2249923  -0.2318115), wk =   0.1666667
        k(    7) = (  -0.4323959   0.0000000   0.0000000), wk =   0.0833333
        k(    8) = (  -0.4323959   0.0000000   0.1159057), wk =   0.1666667
        k(    9) = (  -0.4323959   0.0000000  -0.2318115), wk =   0.0833333
        k(   10) = (  -0.4323959   0.2249923   0.0000000), wk =   0.1666667
        k(   11) = (  -0.4323959   0.2249923   0.1159057), wk =   0.3333333
        k(   12) = (  -0.4323959   0.2249923  -0.2318115), wk =   0.1666667
     Check: negative starting charge=   -0.011005

     negative rho (up, down):  0.322E+02 0.000E+00
     extrapolated charge  144.26033, renormalised to  220.00000

[...]

     The maximum number of steps has been reached.

     End of BFGS Geometry Optimization
Begin final coordinates
     new unit-cell volume =   1275.66629 a.u.^3 (   189.03424 Ang^3 )

CELL_PARAMETERS (alat=  7.01510508)
   1.156347794   0.000000000   0.000000000
   0.000000000   1.481531886   0.000000000
   0.000000000   0.000000000   2.156925072

ATOMIC_POSITIONS (crystal)
Co       0.750000000   0.825017965   0.435175068
Co       0.250000000   0.174982035   0.564824932
Co       0.750000000   0.325017965   0.064824932
Co       0.250000000   0.674982035   0.935175068
Co       0.250000000   0.539294882   0.280273901
Co       0.750000000   0.460705118   0.719726099
Co       0.250000000   0.039294882   0.219726099
Co       0.750000000   0.960705118   0.780273901
Si       0.250000000   0.200824887   0.893920775
Si       0.750000000   0.799175113   0.106079225
Si       0.250000000   0.700824887   0.606079225
Si       0.750000000   0.299175113   0.393920775
End final coordinates

     A final scf calculation at the relaxed structure.
     The G-vectors are recalculated for the final unit cell
     Results may differ from those at the preceding step.

     bravais-lattice index     =            0
     lattice parameter (alat)  =       7.0151  a.u.
     unit-cell volume          =    1275.6663 (a.u.)^3
     number of atoms/cell      =           12
     number of atomic types    =            2
     number of electrons       =       220.00
     number of Kohn-Sham states=          132
     kinetic-energy cutoff     =      40.0000  Ry
     charge density cutoff     =     160.0000  Ry
     convergence threshold     =      1.0E-04
     mixing beta               =       0.7000
     number of iterations used =            8  plain     mixing
     Exchange-correlation      = SLA-PZ-NOGX-NOGC ( 1 1 0 0 0)
     EXX-fraction              =        0.00

     celldm(1)=   7.015105  celldm(2)=   0.000000  celldm(3)=   0.000000
     celldm(4)=   0.000000  celldm(5)=   0.000000  celldm(6)=   0.000000

     crystal axes: (cart. coord. in units of alat)
               a(1) = (   1.156348   0.000000   0.000000 )
               a(2) = (   0.000000   1.481532   0.000000 )
               a(3) = (   0.000000   0.000000   2.156925 )

     reciprocal axes: (cart. coord. in units 2 pi/alat)
               b(1) = (  0.864792  0.000000  0.000000 )
               b(2) = (  0.000000  0.674977  0.000000 )
               b(3) = (  0.000000  0.000000  0.463623 )

     PseudoPot. # 1 for Ho read from file:
     /home/cwx6513/pp.La/Ho.UPF
     MD5 check sum: f307ee11bce99f5b724fa279e3790763
     Pseudo is Norm-conserving, Zval = 21.0
     Generated in analytical, separable form
     Using radial grid of 1265 points,  6 beta functions with:
                l(1) =   0
                l(2) =   0
                l(3) =   1
                l(4) =   1
                l(5) =   2
                l(6) =   3

     PseudoPot. # 2 for Pr read from file:
     /home/cwx6513/pp.La/Pr.UPF
     MD5 check sum: 70e2b4b153859e92c8c91247dfc63203
     Pseudo is Norm-conserving, Zval = 13.0
     Generated in analytical, separable form
     Using radial grid of 1255 points,  6 beta functions with:
                l(1) =   0
                l(2) =   0
                l(3) =   1
                l(4) =   1
                l(5) =   2
                l(6) =   3

     atomic species   valence    mass     pseudopotential
        Co            21.00    58.93320     Ho( 1.00)
        Si            13.00    28.08550     Pr( 1.00)

      8 Sym. Ops., with inversion, found ( 6 have fractional translation)

   Cartesian axes

     site n.     atom                  positions (alat units)
         1           Co  tau(   1) = (   0.8672608   1.2222904   0.9386400  )
         2           Co  tau(   2) = (   0.2890869   0.2592415   1.2182851  )
         3           Co  tau(   3) = (   0.8672608   0.4815245   0.1398225  )
         4           Co  tau(   4) = (   0.2890869   1.0000074   2.0171026  )
         5           Co  tau(   5) = (   0.2890869   0.7989826   0.6045298  )
         6           Co  tau(   6) = (   0.8672608   0.6825493   1.5523953  )
         7           Co  tau(   7) = (   0.2890869   0.0582166   0.4739327  )
         8           Co  tau(   8) = (   0.8672608   1.4233153   1.6829923  )
         9           Si  tau(   9) = (   0.2890869   0.2975285   1.9281201  )
        10           Si  tau(  10) = (   0.8672608   1.1840034   0.2288049  )
        11           Si  tau(  11) = (   0.2890869   1.0382944   1.3072675  )
        12           Si  tau(  12) = (   0.8672608   0.4432375   0.8496576  )

     number of k points=    12  gaussian smearing, width (Ry)=  0.1000
                       cart. coord. in units 2pi/alat
        k(    1) = (   0.0000000   0.0000000   0.0000000), wk =   0.0833333
        k(    2) = (   0.0000000   0.0000000   0.1159057), wk =   0.1666667
        k(    3) = (   0.0000000   0.0000000  -0.2318115), wk =   0.0833333
        k(    4) = (   0.0000000   0.2249923   0.0000000), wk =   0.1666667
        k(    5) = (   0.0000000   0.2249923   0.1159057), wk =   0.3333333
        k(    6) = (   0.0000000   0.2249923  -0.2318115), wk =   0.1666667
        k(    7) = (  -0.4323959   0.0000000   0.0000000), wk =   0.0833333
        k(    8) = (  -0.4323959   0.0000000   0.1159057), wk =   0.1666667
        k(    9) = (  -0.4323959   0.0000000  -0.2318115), wk =   0.0833333
        k(   10) = (  -0.4323959   0.2249923   0.0000000), wk =   0.1666667
        k(   11) = (  -0.4323959   0.2249923   0.1159057), wk =   0.3333333
        k(   12) = (  -0.4323959   0.2249923  -0.2318115), wk =   0.1666667

     Largest allocated arrays     est. size (Mb)     dimensions
     Largest temporary arrays     est. size (Mb)     dimensions

     Initial potential from superposition of free atoms
     Check: negative starting charge=   -0.001124

     starting charge   51.96217, renormalised to  220.00000

     negative rho (up, down):  0.476E-02 0.000E+00
     Starting wfc are   80 randomized atomic wfcs

     Writing output data file Prototype-La-oP12-Co2Si.save

     Self-consistent Calculation

[...]

     negative rho (up, down):  0.172E-03 0.000E+00

[...]

     iteration # 10     ecut=    40.00 Ry     beta=0.70
     CG style diagonalization
     c_bands:  1 eigenvalues not converged
     c_bands:  2 eigenvalues not converged
     ethr =  3.87E-07,  avg # of iterations =  5.6

     total energy              =   -2716.50044711 Ry
     Harris-Foulkes estimate   =   -2716.50051821 Ry
     estimated scf accuracy    <       0.00013350 Ry

     iteration # 11     ecut=    40.00 Ry     beta=0.70
     CG style diagonalization
     ethr =  6.07E-08,  avg # of iterations =  3.7

     End of self-consistent calculation

[...]

          k = 0.0000 0.2250-0.2318 (  5460 PWs)   bands (ev):

[...]

          k =-0.4324 0.2250-0.2318 (  5456 PWs)   bands (ev):

   -58.9544 -58.9544 -58.9456 -58.9456 -58.9117 -58.9117 -58.8956 -58.8956
   -23.3981 -23.3981 -23.2929 -23.2929 -23.2923 -23.2923 -23.2490 -23.2490
   -23.2488 -23.2488 -23.1852 -23.1852 -23.1349 -23.1349 -23.1283 -23.1283
   -23.1061 -23.1061 -23.1000 -23.1000 -23.0768 -23.0768 -23.0593 -23.0593
    -9.0699  -9.0699  -9.0602  -9.0602   9.6283   9.6283   9.7768   9.7768
     9.9664   9.9664   9.9830   9.9830  10.2887  10.2887  10.3275  10.3275
    18.5439  18.5439  18.9256  18.9256  19.1584  19.1584  19.2349  19.2349
    19.3760  19.3760  19.5557  19.5557  19.6525  19.6525  19.9887  19.9887
    20.0291  20.0291  20.2699  20.2699  20.4176  20.4176  20.6434  20.6434
    20.6580  20.6580  20.8053  20.8053  20.8228  20.8228  21.1099  21.1099
    21.2457  21.2457  21.7603  21.7603  21.8524  21.8524  22.0634  22.0634
    25.4483  25.4483  25.4521  25.4521  27.4991  27.4991  28.3014  28.3014
    30.4547  30.4547  30.5106  30.5106  30.9551  30.9551  31.7252  31.7252
    32.5125  32.5125  33.0098  33.0098  33.2866  33.2866  33.6779  33.6779
    34.3839  34.3839  35.6544  35.6544  36.7363  36.7364  37.3691  37.3692
    38.1835  38.1836  39.6847  39.6849  40.1094  40.1094  40.5917  40.5917
    40.9281  40.9281  41.8684  41.8688

     the Fermi energy is    34.0402 ev

!    total energy              =   -2716.50046889 Ry
     Harris-Foulkes estimate   =   -2716.50048855 Ry
     estimated scf accuracy    <       0.00002470 Ry

     The total energy is the sum of the following terms:

     one-electron contribution =    -301.98328107 Ry
     hartree contribution      =     360.03695706 Ry
     xc contribution           =    -259.59220764 Ry
     ewald contribution        =   -2514.53998108 Ry
     smearing contrib. (-TS)   =      -0.42195616 Ry

     convergence has been achieved in  11 iterations

     Forces acting on atoms (Ry/au):

     atom    1 type  1   force =     0.00000000   -0.06053326   -0.01739027
     atom    2 type  1   force =     0.00000000    0.06053326    0.01739027
     atom    3 type  1   force =     0.00000000   -0.06053326    0.01739027
     atom    4 type  1   force =     0.00000000    0.06053326   -0.01739027
     atom    5 type  1   force =     0.00000000    0.06271876   -0.09654367
     atom    6 type  1   force =     0.00000000   -0.06271876    0.09654367
     atom    7 type  1   force =     0.00000000    0.06271876    0.09654367
     atom    8 type  1   force =     0.00000000   -0.06271876   -0.09654367
     atom    9 type  2   force =     0.00000000   -0.07846355    0.00559807
     atom   10 type  2   force =     0.00000000    0.07846355   -0.00559807
     atom   11 type  2   force =     0.00000000   -0.07846355   -0.00559807
     atom   12 type  2   force =     0.00000000    0.07846355    0.00559807

     Total force =     0.305999     Total SCF correction =     0.012856

     entering subroutine stress ...

          total   stress  (Ry/bohr**3)                   (kbar)     P= 1340.72
   0.01005356   0.00000000   0.00000000       1478.93      0.00      0.00
   0.00000000   0.00824488   0.00000000          0.00   1212.86      0.00
   0.00000000   0.00000000   0.00904365          0.00      0.00   1330.37

     Writing output data file Prototype-La-oP12-Co2Si.save

     General routines

     Parallel routines

   This run was terminated on:   1:30:37  23Mar2018

   JOB DONE.