     Program PWSCF v.5.0.2 starts on 22Mar2018 at 16:17:16

     Current dimensions of program PWSCF are:
     Max number of different atomic species (ntypx) = 10
     Max number of k-points (npk) =  40000
     Max angular momentum in pseudopotentials (lmaxx) =  3
     Waiting for input...
     Reading input from standard input

     Subspace diagonalization in iterative solution of the eigenvalue problem:
     a serial algorithm will be used

     bravais-lattice index     =            0
     lattice parameter (alat)  =       8.5346  a.u.
     unit-cell volume          =     621.6493 (a.u.)^3
     number of atoms/cell      =            8
     number of atomic types    =            2
     number of electrons       =       122.00
     number of Kohn-Sham states=           73
     kinetic-energy cutoff     =      40.0000  Ry
     charge density cutoff     =     160.0000  Ry
     convergence threshold     =      1.0E-04
     mixing beta               =       0.7000
     number of iterations used =            8  plain     mixing
     Exchange-correlation      = SLA-PZ-NOGX-NOGC ( 1 1 0 0 0)
     EXX-fraction              =        0.00
     nstep                     =           50

     celldm(1)=   8.534573  celldm(2)=   0.000000  celldm(3)=   0.000000
     celldm(4)=   0.000000  celldm(5)=   0.000000  celldm(6)=   0.000000

     crystal axes: (cart. coord. in units of alat)
               a(1) = (   1.000000   0.000000   0.000000 )
               a(2) = (   0.000000   1.000000   0.000000 )
               a(3) = (   0.000000   0.000000   1.000000 )

     reciprocal axes: (cart. coord. in units 2 pi/alat)
               b(1) = (  1.000000  0.000000  0.000000 )
               b(2) = (  0.000000  1.000000  0.000000 )
               b(3) = (  0.000000  0.000000  1.000000 )

     PseudoPot. # 1 for Pr read from file:
     /home/cwx6513/pp.La/Pr.UPF
     MD5 check sum: 70e2b4b153859e92c8c91247dfc63203
     Pseudo is Norm-conserving, Zval = 13.0
     Generated in analytical, separable form
     Using radial grid of 1255 points,  6 beta functions with:
                l(1) =   0
                l(2) =   0
                l(3) =   1
                l(4) =   1
                l(5) =   2
                l(6) =   3

     PseudoPot. # 2 for Er read from file:
     /home/cwx6513/pp.La/Er.UPF
     MD5 check sum: e152ae21b84514339d8526f066caf99b
     Pseudo is Norm-conserving, Zval = 22.0
     Generated in analytical, separable form
     Using radial grid of 1267 points,  6 beta functions with:
                l(1) =   0
                l(2) =   0
                l(3) =   1
                l(4) =   1
                l(5) =   2
                l(6) =   3

     atomic species   valence    mass     pseudopotential
        Cr            13.00    51.99610     Pr( 1.00)
        Si            22.00    28.08550     Er( 1.00)

     48 Sym. Ops., with inversion, found (24 have fractional translation)

   Cartesian axes

     site n.     atom                  positions (alat units)
         1           Cr  tau(   1) = (   0.0000000   0.5000000   0.2500000  )
         2           Cr  tau(   2) = (   0.0000000   0.5000000   0.7500000  )
         3           Cr  tau(   3) = (   0.5000000   0.7500000   0.0000000  )
         4           Cr  tau(   4) = (   0.5000000   0.2500000   0.0000000  )
         5           Cr  tau(   5) = (   0.7500000   0.0000000   0.5000000  )
         6           Cr  tau(   6) = (   0.2500000   0.0000000   0.5000000  )
         7           Si  tau(   7) = (   0.5000000   0.5000000   0.5000000  )
         8           Si  tau(   8) = (   0.0000000   0.0000000   0.0000000  )

     number of k points=    48  gaussian smearing, width (Ry)=  0.1000
                       cart. coord. in units 2pi/alat
        k(    1) = (   0.0000000   0.0000000   0.0000000), wk =   0.0095238
        k(    2) = (   0.0000000   0.0000000   0.1428571), wk =   0.0190476
        k(    3) = (   0.0000000   0.0000000   0.2857143), wk =   0.0190476
        k(    4) = (   0.0000000   0.0000000   0.4285714), wk =   0.0190476
        k(    5) = (   0.0000000   0.1666667   0.0000000), wk =   0.0190476
        k(    6) = (   0.0000000   0.1666667   0.1428571), wk =   0.0380952
        k(    7) = (   0.0000000   0.1666667   0.2857143), wk =   0.0380952
        k(    8) = (   0.0000000   0.1666667   0.4285714), wk =   0.0380952
        k(    9) = (   0.0000000   0.3333333   0.0000000), wk =   0.0190476
        k(   10) = (   0.0000000   0.3333333   0.1428571), wk =   0.0380952
        k(   11) = (   0.0000000   0.3333333   0.2857143), wk =   0.0380952
        k(   12) = (   0.0000000   0.3333333   0.4285714), wk =   0.0380952
        k(   13) = (   0.0000000  -0.5000000   0.0000000), wk =   0.0095238
        k(   14) = (   0.0000000  -0.5000000   0.1428571), wk =   0.0190476
        k(   15) = (   0.0000000  -0.5000000   0.2857143), wk =   0.0190476
        k(   16) = (   0.0000000  -0.5000000   0.4285714), wk =   0.0190476
        k(   17) = (   0.2000000   0.0000000   0.0000000), wk =   0.0190476
        k(   18) = (   0.2000000   0.0000000   0.1428571), wk =   0.0380952
        k(   19) = (   0.2000000   0.0000000   0.2857143), wk =   0.0380952
        k(   20) = (   0.2000000   0.0000000   0.4285714), wk =   0.0380952
        k(   21) = (   0.2000000   0.1666667   0.0000000), wk =   0.0380952
        k(   22) = (   0.2000000   0.1666667   0.1428571), wk =   0.0761905
        k(   23) = (   0.2000000   0.1666667   0.2857143), wk =   0.0761905
        k(   24) = (   0.2000000   0.1666667   0.4285714), wk =   0.0761905
        k(   25) = (   0.2000000   0.3333333   0.0000000), wk =   0.0380952
        k(   26) = (   0.2000000   0.3333333   0.1428571), wk =   0.0761905
        k(   27) = (   0.2000000   0.3333333   0.2857143), wk =   0.0761905
        k(   28) = (   0.2000000   0.3333333   0.4285714), wk =   0.0761905
        k(   29) = (   0.2000000  -0.5000000   0.0000000), wk =   0.0190476
        k(   30) = (   0.2000000  -0.5000000   0.1428571), wk =   0.0380952
        k(   31) = (   0.2000000  -0.5000000   0.2857143), wk =   0.0380952
        k(   32) = (   0.2000000  -0.5000000   0.4285714), wk =   0.0380952
        k(   33) = (   0.4000000   0.0000000   0.0000000), wk =   0.0190476
        k(   34) = (   0.4000000   0.0000000   0.1428571), wk =   0.0380952
        k(   35) = (   0.4000000   0.0000000   0.2857143), wk =   0.0380952
        k(   36) = (   0.4000000   0.0000000   0.4285714), wk =   0.0380952
        k(   37) = (   0.4000000   0.1666667   0.0000000), wk =   0.0380952
        k(   38) = (   0.4000000   0.1666667   0.1428571), wk =   0.0761905
        k(   39) = (   0.4000000   0.1666667   0.2857143), wk =   0.0761905
        k(   40) = (   0.4000000   0.1666667   0.4285714), wk =   0.0761905
        k(   41) = (   0.4000000   0.3333333   0.0000000), wk =   0.0380952
        k(   42) = (   0.4000000   0.3333333   0.1428571), wk =   0.0761905
        k(   43) = (   0.4000000   0.3333333   0.2857143), wk =   0.0761905
        k(   44) = (   0.4000000   0.3333333   0.4285714), wk =   0.0761905
        k(   45) = (   0.4000000  -0.5000000   0.0000000), wk =   0.0190476
        k(   46) = (   0.4000000  -0.5000000   0.1428571), wk =   0.0380952
        k(   47) = (   0.4000000  -0.5000000   0.2857143), wk =   0.0380952
        k(   48) = (   0.4000000  -0.5000000   0.4285714), wk =   0.0380952

     Largest allocated arrays     est. size (Mb)     dimensions
     Largest temporary arrays     est. size (Mb)     dimensions

     Initial potential from superposition of free atoms

     starting charge   77.94326, renormalised to  122.00000
     Starting wfc are  120 randomized atomic wfcs

     Self-consistent Calculation

     iteration #  1     ecut=    40.00 Ry     beta=0.70
     CG style diagonalization
     ethr =  1.00E-02,  avg # of iterations = 18.1

     total energy              =     250.37939759 Ry
     Harris-Foulkes estimate   =   -2121.17922103 Ry
     estimated scf accuracy    <    2795.74655980 Ry

     iteration #  2     ecut=    40.00 Ry     beta=0.70
     CG style diagonalization
     c_bands:  4 eigenvalues not converged
     ethr =  1.00E-02,  avg # of iterations = 19.4

[...]

     End of self-consistent calculation

          k = 0.0000 0.0000 0.0000 (  2601 PWs)   bands (ev):

   -59.0384 -58.9876 -21.3119 -21.3119 -21.3119 -21.2756 -21.2756 -21.2756
    -3.3315  -1.5189  -1.5189   1.5230   1.5230   1.5230  12.4119  12.4119
    13.7074  15.6907  15.6907  15.6907  17.8927  17.8927  17.8927  20.0996
    20.0996  20.0996  20.1240  20.1240  20.1240  24.6661  24.6661  25.3226
    25.3226  26.1280  26.1280  26.1280  26.3568  26.3568  26.3568  26.9818
    26.9818  26.9818  32.1675  32.2421  33.9432  33.9432  33.9432  35.8779
    37.3411  37.3411  37.3411  39.6678  39.6678  40.1508  42.1801  42.1801
    42.1801  42.3039  42.3039  45.0851  45.0851  45.0851  45.2612  45.2612
    45.2612  47.8840  49.0366  49.0367  49.0368  50.4512  50.4515  50.5020
    50.5026

[...]

     the Fermi energy is    44.2985 ev

!    total energy              =   -1208.88083931 Ry
     Harris-Foulkes estimate   =   -1208.88084320 Ry
     estimated scf accuracy    <       0.00000494 Ry

     The total energy is the sum of the following terms:

     one-electron contribution =     112.22877728 Ry
     hartree contribution      =     112.71508662 Ry
     xc contribution           =    -135.48595185 Ry
     ewald contribution        =   -1298.09158780 Ry
     smearing contrib. (-TS)   =      -0.24716357 Ry

     convergence has been achieved in  13 iterations

     Forces acting on atoms (Ry/au):

     atom    1 type  1   force =     0.00000000    0.00000000    0.00000000
     atom    2 type  1   force =     0.00000000    0.00000000    0.00000000
     atom    3 type  1   force =     0.00000000    0.00000000    0.00000000
     atom    4 type  1   force =     0.00000000    0.00000000    0.00000000
     atom    5 type  1   force =     0.00000000    0.00000000    0.00000000
     atom    6 type  1   force =     0.00000000    0.00000000    0.00000000
     atom    7 type  2   force =     0.00000000    0.00000000    0.00000000
     atom    8 type  2   force =     0.00000000    0.00000000    0.00000000

     Total force =     0.000000     Total SCF correction =     0.000000

     entering subroutine stress ...

          total   stress  (Ry/bohr**3)                   (kbar)     P= 5121.13
   0.03481271   0.00000000   0.00000000       5121.13      0.00      0.00
   0.00000000   0.03481271   0.00000000          0.00   5121.13      0.00
   0.00000000   0.00000000   0.03481271          0.00      0.00   5121.13

     BFGS Geometry Optimization

     number of scf cycles    =   1
     number of bfgs steps    =   0

     enthalpy new            =   -1208.8808393141 Ry

     new trust radius        =       0.5000000000 bohr
     new conv_thr            =       0.0001000000 Ry

     new unit-cell volume =    828.02266 a.u.^3 (   122.70030 Ang^3 )

CELL_PARAMETERS (alat=  8.53457320)
   1.100269143   0.000000000   0.000000000
   0.000000000   1.100269143   0.000000000
   0.000000000   0.000000000   1.100269143

ATOMIC_POSITIONS (crystal)
[...]

     number of scf cycles    =   3
     number of bfgs steps    =   2

     enthalpy old            =   -1212.8595642284 Ry
     enthalpy new            =   -1210.3697198804 Ry

     CASE: enthalpy_new > enthalpy_old

     new trust radius        =       0.4015916648 bohr

     trust_radius < trust_radius_min

     resetting bfgs history

     Message from routine bfgs:
     history already reset at previous step: stopping
     new conv_thr            =       0.0000010000 Ry

     new unit-cell volume =   1040.70256 a.u.^3 (   154.21621 Ang^3 )

[...]

ATOMIC_POSITIONS (crystal)
Cr       0.000000000   0.500000000   0.250000000
Cr       0.000000000   0.500000000   0.750000000
Cr       0.500000000   0.750000000   0.000000000
Cr       0.500000000   0.250000000   0.000000000
Cr       0.750000000   0.000000000   0.500000000
Cr       0.250000000   0.000000000   0.500000000
Si       0.500000000   0.500000000   0.500000000
Si       0.000000000   0.000000000   0.000000000

     Writing output data file Prototype-La-cP8-Cr3Si.save
     Check: negative starting charge=   -0.044338
     NEW-OLD atomic charge density approx. for the potential
     NEW k-points:
        k(    1) = (   0.0000000   0.0000000   0.0000000), wk =   0.0095238
        k(    2) = (   0.0000000   0.0000000   0.1203118), wk =   0.0190476
        k(    3) = (   0.0000000   0.0000000   0.2406236), wk =   0.0190476
        k(    4) = (   0.0000000   0.0000000   0.3609354), wk =   0.0190476
        k(    5) = (   0.0000000   0.1403638   0.0000000), wk =   0.0190476
        k(    6) = (   0.0000000   0.1403638   0.1203118), wk =   0.0380952
        k(    7) = (   0.0000000   0.1403638   0.2406236), wk =   0.0380952
        k(    8) = (   0.0000000   0.1403638   0.3609354), wk =   0.0380952
        k(    9) = (   0.0000000   0.2807275   0.0000000), wk =   0.0190476
        k(   10) = (   0.0000000   0.2807275   0.1203118), wk =   0.0380952
        k(   11) = (   0.0000000   0.2807275   0.2406236), wk =   0.0380952
        k(   12) = (   0.0000000   0.2807275   0.3609354), wk =   0.0380952
        k(   13) = (   0.0000000  -0.4210913   0.0000000), wk =   0.0095238
        k(   14) = (   0.0000000  -0.4210913   0.1203118), wk =   0.0190476
        k(   15) = (   0.0000000  -0.4210913   0.2406236), wk =   0.0190476
        k(   16) = (   0.0000000  -0.4210913   0.3609354), wk =   0.0190476
        k(   17) = (   0.1684365   0.0000000   0.0000000), wk =   0.0190476
        k(   18) = (   0.1684365   0.0000000   0.1203118), wk =   0.0380952
        k(   19) = (   0.1684365   0.0000000   0.2406236), wk =   0.0380952
        k(   20) = (   0.1684365   0.0000000   0.3609354), wk =   0.0380952
        k(   21) = (   0.1684365   0.1403638   0.0000000), wk =   0.0380952
        k(   22) = (   0.1684365   0.1403638   0.1203118), wk =   0.0761905
        k(   23) = (   0.1684365   0.1403638   0.2406236), wk =   0.0761905
        k(   24) = (   0.1684365   0.1403638   0.3609354), wk =   0.0761905
        k(   25) = (   0.1684365   0.2807275   0.0000000), wk =   0.0380952
        k(   26) = (   0.1684365   0.2807275   0.1203118), wk =   0.0761905
        k(   27) = (   0.1684365   0.2807275   0.2406236), wk =   0.0761905
        k(   28) = (   0.1684365   0.2807275   0.3609354), wk =   0.0761905
        k(   29) = (   0.1684365  -0.4210913   0.0000000), wk =   0.0190476
        k(   30) = (   0.1684365  -0.4210913   0.1203118), wk =   0.0380952
        k(   31) = (   0.1684365  -0.4210913   0.2406236), wk =   0.0380952
        k(   32) = (   0.1684365  -0.4210913   0.3609354), wk =   0.0380952
        k(   33) = (   0.3368730   0.0000000   0.0000000), wk =   0.0190476
        k(   34) = (   0.3368730   0.0000000   0.1203118), wk =   0.0380952
        k(   35) = (   0.3368730   0.0000000   0.2406236), wk =   0.0380952
        k(   36) = (   0.3368730   0.0000000   0.3609354), wk =   0.0380952
        k(   37) = (   0.3368730   0.1403638   0.0000000), wk =   0.0380952
        k(   38) = (   0.3368730   0.1403638   0.1203118), wk =   0.0761905
        k(   39) = (   0.3368730   0.1403638   0.2406236), wk =   0.0761905
        k(   40) = (   0.3368730   0.1403638   0.3609354), wk =   0.0761905
        k(   41) = (   0.3368730   0.2807275   0.0000000), wk =   0.0380952
        k(   42) = (   0.3368730   0.2807275   0.1203118), wk =   0.0761905
        k(   43) = (   0.3368730   0.2807275   0.2406236), wk =   0.0761905
        k(   44) = (   0.3368730   0.2807275   0.3609354), wk =   0.0761905
        k(   45) = (   0.3368730  -0.4210913   0.0000000), wk =   0.0190476
        k(   46) = (   0.3368730  -0.4210913   0.1203118), wk =   0.0380952
        k(   47) = (   0.3368730  -0.4210913   0.2406236), wk =   0.0380952
        k(   48) = (   0.3368730  -0.4210913   0.3609354), wk =   0.0380952
     Check: negative starting charge=   -0.020922

     negative rho (up, down):  0.337E+01 0.000E+00
     extrapolated charge   91.74008, renormalised to  122.00000

[...]

     The maximum number of steps has been reached.

     End of BFGS Geometry Optimization
Begin final coordinates
     new unit-cell volume =   1040.70256 a.u.^3 (   154.21621 Ang^3 )

CELL_PARAMETERS (alat=  8.53457320)
   1.187390946   0.000000000   0.000000000
   0.000000000   1.187390946   0.000000000
   0.000000000   0.000000000   1.187390946

ATOMIC_POSITIONS (crystal)
Cr       0.000000000   0.500000000   0.250000000
Cr       0.000000000   0.500000000   0.750000000
Cr       0.500000000   0.750000000   0.000000000
Cr       0.500000000   0.250000000   0.000000000
Cr       0.750000000   0.000000000   0.500000000
Cr       0.250000000   0.000000000   0.500000000
Si       0.500000000   0.500000000   0.500000000
Si       0.000000000   0.000000000   0.000000000
End final coordinates

     A final scf calculation at the relaxed structure.
     The G-vectors are recalculated for the final unit cell
     Results may differ from those at the preceding step.

     bravais-lattice index     =            0
     lattice parameter (alat)  =       8.5346  a.u.
     unit-cell volume          =    1040.7026 (a.u.)^3
     number of atoms/cell      =            8
     number of atomic types    =            2
     number of electrons       =       122.00
     number of Kohn-Sham states=           73
     kinetic-energy cutoff     =      40.0000  Ry
     charge density cutoff     =     160.0000  Ry
     convergence threshold     =      1.0E-06
     mixing beta               =       0.7000
     number of iterations used =            8  plain     mixing
     Exchange-correlation      = SLA-PZ-NOGX-NOGC ( 1 1 0 0 0)
     EXX-fraction              =        0.00

     celldm(1)=   8.534573  celldm(2)=   0.000000  celldm(3)=   0.000000
     celldm(4)=   0.000000  celldm(5)=   0.000000  celldm(6)=   0.000000

     crystal axes: (cart. coord. in units of alat)
               a(1) = (   1.187391   0.000000   0.000000 )
               a(2) = (   0.000000   1.187391   0.000000 )
               a(3) = (   0.000000   0.000000   1.187391 )

     reciprocal axes: (cart. coord. in units 2 pi/alat)
               b(1) = (  0.842183  0.000000  0.000000 )
               b(2) = (  0.000000  0.842183  0.000000 )
               b(3) = (  0.000000  0.000000  0.842183 )

     PseudoPot. # 1 for Pr read from file:
     /home/cwx6513/pp.La/Pr.UPF
     MD5 check sum: 70e2b4b153859e92c8c91247dfc63203
     Pseudo is Norm-conserving, Zval = 13.0
     Generated in analytical, separable form
     Using radial grid of 1255 points,  6 beta functions with:
                l(1) =   0
                l(2) =   0
                l(3) =   1
                l(4) =   1
                l(5) =   2
                l(6) =   3

     PseudoPot. # 2 for Er read from file:
     /home/cwx6513/pp.La/Er.UPF
     MD5 check sum: e152ae21b84514339d8526f066caf99b
     Pseudo is Norm-conserving, Zval = 22.0
     Generated in analytical, separable form
     Using radial grid of 1267 points,  6 beta functions with:
                l(1) =   0
                l(2) =   0
                l(3) =   1
                l(4) =   1
                l(5) =   2
                l(6) =   3

     atomic species   valence    mass     pseudopotential
        Cr            13.00    51.99610     Pr( 1.00)
        Si            22.00    28.08550     Er( 1.00)

     48 Sym. Ops., with inversion, found (24 have fractional translation)

   Cartesian axes

     site n.     atom                  positions (alat units)
         1           Cr  tau(   1) = (   0.0000000   0.5936955   0.2968477  )
         2           Cr  tau(   2) = (   0.0000000   0.5936955   0.8905432  )
         3           Cr  tau(   3) = (   0.5936955   0.8905432   0.0000000  )
         4           Cr  tau(   4) = (   0.5936955   0.2968477   0.0000000  )
         5           Cr  tau(   5) = (   0.8905432   0.0000000   0.5936955  )
         6           Cr  tau(   6) = (   0.2968477   0.0000000   0.5936955  )
         7           Si  tau(   7) = (   0.5936955   0.5936955   0.5936955  )
         8           Si  tau(   8) = (   0.0000000   0.0000000   0.0000000  )

     number of k points=    48  gaussian smearing, width (Ry)=  0.1000
                       cart. coord. in units 2pi/alat
        k(    1) = (   0.0000000   0.0000000   0.0000000), wk =   0.0095238
        k(    2) = (   0.0000000   0.0000000   0.1203118), wk =   0.0190476
        k(    3) = (   0.0000000   0.0000000   0.2406236), wk =   0.0190476
        k(    4) = (   0.0000000   0.0000000   0.3609354), wk =   0.0190476
        k(    5) = (   0.0000000   0.1403638   0.0000000), wk =   0.0190476
        k(    6) = (   0.0000000   0.1403638   0.1203118), wk =   0.0380952
        k(    7) = (   0.0000000   0.1403638   0.2406236), wk =   0.0380952
        k(    8) = (   0.0000000   0.1403638   0.3609354), wk =   0.0380952
        k(    9) = (   0.0000000   0.2807275   0.0000000), wk =   0.0190476
        k(   10) = (   0.0000000   0.2807275   0.1203118), wk =   0.0380952
        k(   11) = (   0.0000000   0.2807275   0.2406236), wk =   0.0380952
        k(   12) = (   0.0000000   0.2807275   0.3609354), wk =   0.0380952
        k(   13) = (   0.0000000  -0.4210913   0.0000000), wk =   0.0095238
        k(   14) = (   0.0000000  -0.4210913   0.1203118), wk =   0.0190476
        k(   15) = (   0.0000000  -0.4210913   0.2406236), wk =   0.0190476
        k(   16) = (   0.0000000  -0.4210913   0.3609354), wk =   0.0190476
        k(   17) = (   0.1684365   0.0000000   0.0000000), wk =   0.0190476
        k(   18) = (   0.1684365   0.0000000   0.1203118), wk =   0.0380952
        k(   19) = (   0.1684365   0.0000000   0.2406236), wk =   0.0380952
        k(   20) = (   0.1684365   0.0000000   0.3609354), wk =   0.0380952
        k(   21) = (   0.1684365   0.1403638   0.0000000), wk =   0.0380952
        k(   22) = (   0.1684365   0.1403638   0.1203118), wk =   0.0761905
        k(   23) = (   0.1684365   0.1403638   0.2406236), wk =   0.0761905
        k(   24) = (   0.1684365   0.1403638   0.3609354), wk =   0.0761905
        k(   25) = (   0.1684365   0.2807275   0.0000000), wk =   0.0380952
        k(   26) = (   0.1684365   0.2807275   0.1203118), wk =   0.0761905
        k(   27) = (   0.1684365   0.2807275   0.2406236), wk =   0.0761905
        k(   28) = (   0.1684365   0.2807275   0.3609354), wk =   0.0761905
        k(   29) = (   0.1684365  -0.4210913   0.0000000), wk =   0.0190476
        k(   30) = (   0.1684365  -0.4210913   0.1203118), wk =   0.0380952
        k(   31) = (   0.1684365  -0.4210913   0.2406236), wk =   0.0380952
        k(   32) = (   0.1684365  -0.4210913   0.3609354), wk =   0.0380952
        k(   33) = (   0.3368730   0.0000000   0.0000000), wk =   0.0190476
        k(   34) = (   0.3368730   0.0000000   0.1203118), wk =   0.0380952
        k(   35) = (   0.3368730   0.0000000   0.2406236), wk =   0.0380952
        k(   36) = (   0.3368730   0.0000000   0.3609354), wk =   0.0380952
        k(   37) = (   0.3368730   0.1403638   0.0000000), wk =   0.0380952
        k(   38) = (   0.3368730   0.1403638   0.1203118), wk =   0.0761905
        k(   39) = (   0.3368730   0.1403638   0.2406236), wk =   0.0761905
        k(   40) = (   0.3368730   0.1403638   0.3609354), wk =   0.0761905
        k(   41) = (   0.3368730   0.2807275   0.0000000), wk =   0.0380952
        k(   42) = (   0.3368730   0.2807275   0.1203118), wk =   0.0761905
        k(   43) = (   0.3368730   0.2807275   0.2406236), wk =   0.0761905
        k(   44) = (   0.3368730   0.2807275   0.3609354), wk =   0.0761905
        k(   45) = (   0.3368730  -0.4210913   0.0000000), wk =   0.0190476
        k(   46) = (   0.3368730  -0.4210913   0.1203118), wk =   0.0380952
        k(   47) = (   0.3368730  -0.4210913   0.2406236), wk =   0.0380952
        k(   48) = (   0.3368730  -0.4210913   0.3609354), wk =   0.0380952

     Largest allocated arrays     est. size (Mb)     dimensions
     Largest temporary arrays     est. size (Mb)     dimensions

     Initial potential from superposition of free atoms
     Check: negative starting charge=   -0.001091

     starting charge   77.94326, renormalised to  122.00000

     negative rho (up, down):  0.171E-02 0.000E+00
     Starting wfc are  120 randomized atomic wfcs

     Writing output data file Prototype-La-cP8-Cr3Si.save

     Self-consistent Calculation

[...]

     negative rho (up, down):  0.108E-03 0.000E+00

[...]

     iteration # 14     ecut=    40.00 Ry     beta=0.70
     CG style diagonalization
     c_bands:  1 eigenvalues not converged
     c_bands:  1 eigenvalues not converged
     c_bands:  2 eigenvalues not converged
     c_bands:  1 eigenvalues not converged
     c_bands:  1 eigenvalues not converged
     c_bands:  1 eigenvalues not converged
     c_bands:  1 eigenvalues not converged
     ethr =  3.07E-06,  avg # of iterations =  5.8

[...]

     total energy              =   -1215.81533697 Ry
     Harris-Foulkes estimate   =   -1215.81536769 Ry
     estimated scf accuracy    <       0.00005423 Ry

     iteration # 17     ecut=    40.00 Ry     beta=0.70
     CG style diagonalization
     ethr =  3.61E-09,  avg # of iterations =  4.6

     End of self-consistent calculation

[...]

          k = 0.3369-0.4211 0.3609 (  4458 PWs)   bands (ev):

   -75.5108 -75.5106 -37.4752 -37.4751 -37.4687 -37.4687 -37.4642 -37.4640
   -17.4748 -17.4428 -17.3366 -17.3351 -17.2335 -17.1980   1.3522   1.5175
     1.6398   1.6544   1.9593   1.9635   2.2739   2.3476   2.6693   2.7022
     2.8034   2.8280   2.9545   2.9604   3.0517   3.0520   3.0584   3.1264
     9.3149   9.3154   9.3388   9.3404   9.3793   9.4008   9.4456   9.4459
     9.4521   9.4523  17.8111  17.8112  21.2001  21.2582  21.6259  21.6391
    21.7333  21.7717  23.1601  23.1703  23.3612  23.4353  23.4618  23.5246
    24.8001  24.8179  25.0921  25.1125  25.4366  25.6450  25.9450  25.9848
    26.7394  26.8199  27.8650  27.9603  28.0862  28.0937  28.3197  28.3316
    28.9765

     the Fermi energy is    25.5134 ev

!    total energy              =   -1215.81534864 Ry
     Harris-Foulkes estimate   =   -1215.81534870 Ry
     estimated scf accuracy    <       0.00000008 Ry

     The total energy is the sum of the following terms:

     one-electron contribution =    -169.02753461 Ry
     hartree contribution      =     173.87223493 Ry
     xc contribution           =    -127.05925009 Ry
     ewald contribution        =   -1093.23015489 Ry
     smearing contrib. (-TS)   =      -0.37064399 Ry

     convergence has been achieved in  17 iterations

     Forces acting on atoms (Ry/au):

     atom    1 type  1   force =     0.00000000    0.00000000    0.00000000
     atom    2 type  1   force =     0.00000000    0.00000000    0.00000000
     atom    3 type  1   force =     0.00000000    0.00000000    0.00000000
     atom    4 type  1   force =     0.00000000    0.00000000    0.00000000
     atom    5 type  1   force =     0.00000000    0.00000000    0.00000000
     atom    6 type  1   force =     0.00000000    0.00000000    0.00000000
     atom    7 type  2   force =     0.00000000    0.00000000    0.00000000
     atom    8 type  2   force =     0.00000000    0.00000000    0.00000000

     Total force =     0.000000     Total SCF correction =     0.000000

     entering subroutine stress ...

          total   stress  (Ry/bohr**3)                   (kbar)     P=  386.87
   0.00262989   0.00000000   0.00000000        386.87      0.00      0.00
   0.00000000   0.00262989   0.00000000          0.00    386.87      0.00
   0.00000000   0.00000000   0.00262989          0.00      0.00    386.87

     Writing output data file Prototype-La-cP8-Cr3Si.save

     General routines

     Parallel routines

   This run was terminated on:  16:50:32  22Mar2018

   JOB DONE.