     Program PWSCF v.5.0.2 starts on 22Mar2018 at 16:17:24

     Current dimensions of program PWSCF are:
     Max number of different atomic species (ntypx) = 10
     Max number of k-points (npk) =  40000
     Max angular momentum in pseudopotentials (lmaxx) =  3
     Waiting for input...
     Reading input from standard input

     Subspace diagonalization in iterative solution of the eigenvalue problem:
     a serial algorithm will be used

     bravais-lattice index     =            0
     lattice parameter (alat)  =      12.0168  a.u.
     unit-cell volume          =    1187.3413 (a.u.)^3
     number of atoms/cell      =            8
     number of atomic types    =            2
     number of electrons       =       122.00
     number of Kohn-Sham states=           73
     kinetic-energy cutoff     =      40.0000  Ry
     charge density cutoff     =     160.0000  Ry
     convergence threshold     =      1.0E-04
     mixing beta               =       0.7000
     number of iterations used =            8  plain     mixing
     Exchange-correlation      = SLA-PZ-NOGX-NOGC ( 1 1 0 0 0)
     EXX-fraction              =        0.00
     nstep                     =           50

     celldm(1)=  12.016801  celldm(2)=   0.000000  celldm(3)=   0.000000
     celldm(4)=   0.000000  celldm(5)=   0.000000  celldm(6)=   0.000000

     crystal axes: (cart. coord. in units of alat)
               a(1) = (   1.000000   0.000000   0.000000 )
               a(2) = (  -0.500000   0.866025   0.000000 )
               a(3) = (   0.000000   0.000000   0.790093 )

     reciprocal axes: (cart. coord. in units 2 pi/alat)
               b(1) = (  1.000000  0.577350  0.000000 )
               b(2) = (  0.000000  1.154701  0.000000 )
               b(3) = (  0.000000  0.000000  1.265674 )

     PseudoPot. # 1 for Pr read from file:
     /home/cwx6513/pp.La/Pr.UPF
     MD5 check sum: 70e2b4b153859e92c8c91247dfc63203
     Pseudo is Norm-conserving, Zval = 13.0
     Generated in analytical, separable form
     Using radial grid of 1255 points,  6 beta functions with:
                l(1) =   0
                l(2) =   0
                l(3) =   1
                l(4) =   1
                l(5) =   2
                l(6) =   3

     PseudoPot. # 2 for Er read from file:
     /home/cwx6513/pp.La/Er.UPF
     MD5 check sum: e152ae21b84514339d8526f066caf99b
     Pseudo is Norm-conserving, Zval = 22.0
     Generated in analytical, separable form
     Using radial grid of 1267 points,  6 beta functions with:
                l(1) =   0
                l(2) =   0
                l(3) =   1
                l(4) =   1
                l(5) =   2
                l(6) =   3

     atomic species   valence    mass     pseudopotential
        Mg            13.00    24.30500     Pr( 1.00)
        Cd            22.00   112.41100     Er( 1.00)

     24 Sym. Ops., with inversion, found (12 have fractional translation)

   Cartesian axes

     site n.     atom                  positions (alat units)
         1           Mg  tau(   1) = (   0.2478935   0.7204716   0.1975233  )
         2           Mg  tau(   2) = (   0.7478935   0.1455538   0.5925699  )
         3           Mg  tau(   3) = (   0.2521065   0.1455538   0.5925699  )
         4           Mg  tau(   4) = (  -0.2478935   0.7204716   0.1975233  )
         5           Mg  tau(   5) = (   0.0000000   0.2911075   0.1975233  )
         6           Mg  tau(   6) = (   0.5000000   0.5749179   0.5925699  )
         7           Cd  tau(   7) = (   0.5000005   0.2886748   0.1975233  )
         8           Cd  tau(   8) = (  -0.0000005   0.5773506   0.5925699  )

     number of k points=    64  gaussian smearing, width (Ry)=  0.1000
                       cart. coord. in units 2pi/alat
        k(    1) = (   0.0000000   0.0000000   0.0000000), wk =   0.0095238
        k(    2) = (   0.0000000   0.0000000   0.1808105), wk =   0.0190476
        k(    3) = (   0.0000000   0.0000000   0.3616210), wk =   0.0190476
        k(    4) = (   0.0000000   0.0000000   0.5424315), wk =   0.0190476
        k(    5) = (   0.0000000   0.1924501   0.0000000), wk =   0.0190476
        k(    6) = (   0.0000000   0.1924501   0.1808105), wk =   0.0380952
        k(    7) = (   0.0000000   0.1924501   0.3616210), wk =   0.0380952
        k(    8) = (   0.0000000   0.1924501   0.5424315), wk =   0.0380952
        k(    9) = (   0.0000000   0.3849002   0.0000000), wk =   0.0190476
        k(   10) = (   0.0000000   0.3849002   0.1808105), wk =   0.0380952
        k(   11) = (   0.0000000   0.3849002   0.3616210), wk =   0.0380952
        k(   12) = (   0.0000000   0.3849002   0.5424315), wk =   0.0380952
        k(   13) = (   0.0000000  -0.5773503   0.0000000), wk =   0.0095238
        k(   14) = (   0.0000000  -0.5773503   0.1808105), wk =   0.0190476
        k(   15) = (   0.0000000  -0.5773503   0.3616210), wk =   0.0190476
        k(   16) = (   0.0000000  -0.5773503   0.5424315), wk =   0.0190476
        k(   17) = (   0.2000000   0.1154701   0.0000000), wk =   0.0190476
        k(   18) = (   0.2000000   0.1154701   0.1808105), wk =   0.0380952
        k(   19) = (   0.2000000   0.1154701   0.3616210), wk =   0.0380952
        k(   20) = (   0.2000000   0.1154701   0.5424315), wk =   0.0380952
        k(   21) = (   0.2000000   0.3079201   0.0000000), wk =   0.0190476
        k(   22) = (   0.2000000   0.3079201   0.1808105), wk =   0.0380952
        k(   23) = (   0.2000000   0.3079201   0.3616210), wk =   0.0380952
        k(   24) = (   0.2000000   0.3079201   0.5424315), wk =   0.0380952
        k(   25) = (   0.2000000   0.5003702   0.0000000), wk =   0.0190476
        k(   26) = (   0.2000000   0.5003702   0.1808105), wk =   0.0380952
        k(   27) = (   0.2000000   0.5003702   0.3616210), wk =   0.0380952
        k(   28) = (   0.2000000   0.5003702   0.5424315), wk =   0.0380952
        k(   29) = (   0.2000000  -0.4618802   0.0000000), wk =   0.0190476
        k(   30) = (   0.2000000  -0.4618802   0.1808105), wk =   0.0380952
        k(   31) = (   0.2000000  -0.4618802   0.3616210), wk =   0.0380952
        k(   32) = (   0.2000000  -0.4618802   0.5424315), wk =   0.0380952
        k(   33) = (   0.2000000  -0.2694301   0.0000000), wk =   0.0190476
        k(   34) = (   0.2000000  -0.2694301   0.1808105), wk =   0.0380952
        k(   35) = (   0.2000000  -0.2694301   0.3616210), wk =   0.0380952
        k(   36) = (   0.2000000  -0.2694301   0.5424315), wk =   0.0380952
        k(   37) = (   0.2000000  -0.0769800   0.0000000), wk =   0.0190476
        k(   38) = (   0.2000000  -0.0769800   0.1808105), wk =   0.0380952
        k(   39) = (   0.2000000  -0.0769800   0.3616210), wk =   0.0380952
        k(   40) = (   0.2000000  -0.0769800   0.5424315), wk =   0.0380952
        k(   41) = (   0.4000000   0.2309401   0.0000000), wk =   0.0190476
        k(   42) = (   0.4000000   0.2309401   0.1808105), wk =   0.0380952
        k(   43) = (   0.4000000   0.2309401   0.3616210), wk =   0.0380952
        k(   44) = (   0.4000000   0.2309401   0.5424315), wk =   0.0380952
        k(   45) = (   0.4000000   0.4233902   0.0000000), wk =   0.0190476
        k(   46) = (   0.4000000   0.4233902   0.1808105), wk =   0.0380952
        k(   47) = (   0.4000000   0.4233902   0.3616210), wk =   0.0380952
        k(   48) = (   0.4000000   0.4233902   0.5424315), wk =   0.0380952
        k(   49) = (   0.4000000   0.6158403   0.0000000), wk =   0.0190476
        k(   50) = (   0.4000000   0.6158403   0.1808105), wk =   0.0380952
        k(   51) = (   0.4000000   0.6158403   0.3616210), wk =   0.0380952
        k(   52) = (   0.4000000   0.6158403   0.5424315), wk =   0.0380952
        k(   53) = (   0.4000000  -0.3464102   0.0000000), wk =   0.0190476
        k(   54) = (   0.4000000  -0.3464102   0.1808105), wk =   0.0380952
        k(   55) = (   0.4000000  -0.3464102   0.3616210), wk =   0.0380952
        k(   56) = (   0.4000000  -0.3464102   0.5424315), wk =   0.0380952
        k(   57) = (   0.4000000  -0.1539601   0.0000000), wk =   0.0190476
        k(   58) = (   0.4000000  -0.1539601   0.1808105), wk =   0.0380952
        k(   59) = (   0.4000000  -0.1539601   0.3616210), wk =   0.0380952
        k(   60) = (   0.4000000  -0.1539601   0.5424315), wk =   0.0380952
        k(   61) = (   0.4000000   0.0384900   0.0000000), wk =   0.0190476
        k(   62) = (   0.4000000   0.0384900   0.1808105), wk =   0.0380952
        k(   63) = (   0.4000000   0.0384900   0.3616210), wk =   0.0380952
        k(   64) = (   0.4000000   0.0384900   0.5424315), wk =   0.0380952

     Largest allocated arrays     est. size (Mb)     dimensions
     Largest temporary arrays     est. size (Mb)     dimensions

     Initial potential from superposition of free atoms
     Check: negative starting charge=   -0.002192

     starting charge   77.94326, renormalised to  122.00000

     negative rho (up, down):  0.343E-02 0.000E+00
     Starting wfc are  120 randomized atomic wfcs

     Self-consistent Calculation

     iteration #  1     ecut=    40.00 Ry     beta=0.70
     CG style diagonalization
     c_bands:  1 eigenvalues not converged
     c_bands:  1 eigenvalues not converged
     c_bands:  1 eigenvalues not converged
     c_bands:  1 eigenvalues not converged
     c_bands:  1 eigenvalues not converged
     c_bands:  1 eigenvalues not converged
     c_bands:  1 eigenvalues not converged
     c_bands:  1 eigenvalues not converged
     c_bands:  1 eigenvalues not converged
     c_bands:  1 eigenvalues not converged
     c_bands:  1 eigenvalues not converged
     c_bands:  1 eigenvalues not converged
     ethr =  1.00E-02,  avg # of iterations = 22.9

     negative rho (up, down):  0.102E-02 0.000E+00

     total energy              =     565.09474666 Ry
     Harris-Foulkes estimate   =   -2539.72002617 Ry
     estimated scf accuracy    <    3632.94982681 Ry

     iteration #  2     ecut=    40.00 Ry     beta=0.70
     CG style diagonalization
     ethr =  1.00E-02,  avg # of iterations = 22.8

[...]

     End of self-consistent calculation

          k = 0.0000 0.0000 0.0000 (  5047 PWs)   bands (ev):

   -78.7813 -78.7756 -40.7293 -40.7230 -40.7038 -40.7038 -40.6946 -40.6946
   -21.1367 -20.7957 -20.7956 -20.7458 -20.6049 -20.6048  -2.1092  -1.9544
    -1.6071  -1.4311  -1.4310  -1.2419  -1.2418  -1.2182  -1.2182  -0.7116
    -0.3157  -0.3156   0.0264   0.0400   0.0401   0.0479   0.0480   0.0488
     6.1677   6.1677   6.2005   6.2282   6.2393   6.2393   6.2644   6.2644
     6.3294   6.3294  12.9227  13.5402  16.9809  18.1151  18.7482  18.7482
    18.9388  19.0671  19.0672  19.6355  19.8646  19.8648  20.0423  20.0424
    20.9674  21.8495  21.8495  21.8794  21.8795  22.2426  23.1208  23.6790
    23.6790  24.2646  24.2646  24.8325  25.0560  25.0561  25.0590  25.0598
    25.3122

[...]

     the Fermi energy is    22.1181 ev

!    total energy              =   -1216.28362976 Ry
     Harris-Foulkes estimate   =   -1216.28370141 Ry
     estimated scf accuracy    <       0.00008028 Ry

     The total energy is the sum of the following terms:

     one-electron contribution =    -237.03342918 Ry
[...]
        k(   22) = (   0.2020926   0.3111418   0.1772314), wk =   0.0380952
        k(   23) = (   0.2020926   0.3111418   0.3544628), wk =   0.0380952
        k(   24) = (   0.2020926   0.3111418   0.5316942), wk =   0.0380952
        k(   25) = (   0.2020926   0.5056055   0.0000000), wk =   0.0190476
        k(   26) = (   0.2020926   0.5056055   0.1772314), wk =   0.0380952
        k(   27) = (   0.2020926   0.5056055   0.3544628), wk =   0.0380952
        k(   28) = (   0.2020926   0.5056055   0.5316942), wk =   0.0380952
        k(   29) = (   0.2020926  -0.4667128   0.0000000), wk =   0.0190476
        k(   30) = (   0.2020926  -0.4667128   0.1772314), wk =   0.0380952
        k(   31) = (   0.2020926  -0.4667128   0.3544628), wk =   0.0380952
        k(   32) = (   0.2020926  -0.4667128   0.5316942), wk =   0.0380952
        k(   33) = (   0.2020926  -0.2722491   0.0000000), wk =   0.0190476
        k(   34) = (   0.2020926  -0.2722491   0.1772314), wk =   0.0380952
        k(   35) = (   0.2020926  -0.2722491   0.3544628), wk =   0.0380952
        k(   36) = (   0.2020926  -0.2722491   0.5316942), wk =   0.0380952
        k(   37) = (   0.2020926  -0.0777855   0.0000000), wk =   0.0190476
        k(   38) = (   0.2020926  -0.0777855   0.1772314), wk =   0.0380952
        k(   39) = (   0.2020926  -0.0777855   0.3544628), wk =   0.0380952
        k(   40) = (   0.2020926  -0.0777855   0.5316942), wk =   0.0380952
        k(   41) = (   0.4041851   0.2333564   0.0000000), wk =   0.0190476
        k(   42) = (   0.4041851   0.2333564   0.1772314), wk =   0.0380952
        k(   43) = (   0.4041851   0.2333564   0.3544628), wk =   0.0380952
        k(   44) = (   0.4041851   0.2333564   0.5316942), wk =   0.0380952
        k(   45) = (   0.4041851   0.4278200   0.0000000), wk =   0.0190476
        k(   46) = (   0.4041851   0.4278200   0.1772314), wk =   0.0380952
        k(   47) = (   0.4041851   0.4278200   0.3544628), wk =   0.0380952
        k(   48) = (   0.4041851   0.4278200   0.5316942), wk =   0.0380952
        k(   49) = (   0.4041851   0.6222837   0.0000000), wk =   0.0190476
        k(   50) = (   0.4041851   0.6222837   0.1772314), wk =   0.0380952
        k(   51) = (   0.4041851   0.6222837   0.3544628), wk =   0.0380952
        k(   52) = (   0.4041851   0.6222837   0.5316942), wk =   0.0380952
        k(   53) = (   0.4041851  -0.3500346   0.0000000), wk =   0.0190476
        k(   54) = (   0.4041851  -0.3500346   0.1772314), wk =   0.0380952
        k(   55) = (   0.4041851  -0.3500346   0.3544628), wk =   0.0380952
        k(   56) = (   0.4041851  -0.3500346   0.5316942), wk =   0.0380952
        k(   57) = (   0.4041851  -0.1555709   0.0000000), wk =   0.0190476
        k(   58) = (   0.4041851  -0.1555709   0.1772314), wk =   0.0380952
        k(   59) = (   0.4041851  -0.1555709   0.3544628), wk =   0.0380952
        k(   60) = (   0.4041851  -0.1555709   0.5316942), wk =   0.0380952
        k(   61) = (   0.4041851   0.0388927   0.0000000), wk =   0.0190476
        k(   62) = (   0.4041851   0.0388927   0.1772314), wk =   0.0380952
        k(   63) = (   0.4041851   0.0388927   0.3544628), wk =   0.0380952
        k(   64) = (   0.4041851   0.0388927   0.5316942), wk =   0.0380952
     Check: negative starting charge=   -0.002069

     negative rho (up, down):  0.701E-03 0.000E+00
     extrapolated charge  122.18440, renormalised to  122.00000

[...]

     Total force =     0.018176     Total SCF correction =     0.013766
     SCF correction compared to forces is large: reduce conv_thr to get better values

[...]

     The maximum number of steps has been reached.

     End of BFGS Geometry Optimization
Begin final coordinates
     new unit-cell volume =   1186.36388 a.u.^3 (   175.80099 Ang^3 )

CELL_PARAMETERS (alat= 12.01680127)
   0.989645541   0.000000000   0.000000000
  -0.494822771   0.857058179   0.000000000
   0.000000000   0.000000000   0.806048739

ATOMIC_POSITIONS (crystal)
Mg       0.671585343   0.835792672   0.250000000
Mg       0.835792672   0.164207328   0.750000000
Mg       0.328414657   0.164207328   0.750000000
Mg       0.164207328   0.835792672   0.250000000
Mg       0.164207328   0.328414657   0.250000000
Mg       0.835792672   0.671585343   0.750000000
Cd       0.666667000   0.333333000   0.250000000
Cd       0.333333000   0.666667000   0.750000000
End final coordinates

     A final scf calculation at the relaxed structure.
     The G-vectors are recalculated for the final unit cell
     Results may differ from those at the preceding step.

     bravais-lattice index     =            0
     lattice parameter (alat)  =      12.0168  a.u.
     unit-cell volume          =    1186.3639 (a.u.)^3
     number of atoms/cell      =            8
     number of atomic types    =            2
     number of electrons       =       122.00
     number of Kohn-Sham states=           73
     kinetic-energy cutoff     =      40.0000  Ry
     charge density cutoff     =     160.0000  Ry
     convergence threshold     =      1.6E-05
     mixing beta               =       0.7000
     number of iterations used =            8  plain     mixing
     Exchange-correlation      = SLA-PZ-NOGX-NOGC ( 1 1 0 0 0)
     EXX-fraction              =        0.00

     celldm(1)=  12.016801  celldm(2)=   0.000000  celldm(3)=   0.000000
     celldm(4)=   0.000000  celldm(5)=   0.000000  celldm(6)=   0.000000

     crystal axes: (cart. coord. in units of alat)
               a(1) = (   0.989646   0.000000   0.000000 )
               a(2) = (  -0.494823   0.857058   0.000000 )
               a(3) = (   0.000000   0.000000   0.806049 )

     reciprocal axes: (cart. coord. in units 2 pi/alat)
               b(1) = (  1.010463  0.583391  0.000000 )
               b(2) = (  0.000000  1.166782  0.000000 )
               b(3) = (  0.000000  0.000000  1.240620 )

     PseudoPot. # 1 for Pr read from file:
     /home/cwx6513/pp.La/Pr.UPF
     MD5 check sum: 70e2b4b153859e92c8c91247dfc63203
     Pseudo is Norm-conserving, Zval = 13.0
     Generated in analytical, separable form
     Using radial grid of 1255 points,  6 beta functions with:
                l(1) =   0
                l(2) =   0
                l(3) =   1
                l(4) =   1
                l(5) =   2
                l(6) =   3

     PseudoPot. # 2 for Er read from file:
     /home/cwx6513/pp.La/Er.UPF
     MD5 check sum: e152ae21b84514339d8526f066caf99b
     Pseudo is Norm-conserving, Zval = 22.0
     Generated in analytical, separable form
     Using radial grid of 1267 points,  6 beta functions with:
                l(1) =   0
                l(2) =   0
                l(3) =   1
                l(4) =   1
                l(5) =   2
                l(6) =   3

     atomic species   valence    mass     pseudopotential
        Mg            13.00    24.30500     Pr( 1.00)
        Cd            22.00   112.41100     Er( 1.00)

     24 Sym. Ops., with inversion, found (12 have fractional translation)

   Cartesian axes

     site n.     atom                  positions (alat units)
         1           Mg  tau(   1) = (   0.2510622   0.7163229   0.2015122  )
         2           Mg  tau(   2) = (   0.7458850   0.1407352   0.6045366  )
         3           Mg  tau(   3) = (   0.2437606   0.1407352   0.6045366  )
         4           Mg  tau(   4) = (  -0.2510622   0.7163229   0.2015122  )
         5           Mg  tau(   5) = (   0.0000000   0.2814705   0.2015122  )
         6           Mg  tau(   6) = (   0.4948228   0.5755877   0.6045366  )
         7           Cd  tau(   7) = (   0.4948233   0.2856858   0.2015122  )
         8           Cd  tau(   8) = (  -0.0000005   0.5713724   0.6045366  )

     number of k points=    64  gaussian smearing, width (Ry)=  0.1000
                       cart. coord. in units 2pi/alat
        k(    1) = (   0.0000000   0.0000000   0.0000000), wk =   0.0095238
        k(    2) = (   0.0000000   0.0000000   0.1772314), wk =   0.0190476
        k(    3) = (   0.0000000   0.0000000   0.3544628), wk =   0.0190476
        k(    4) = (   0.0000000   0.0000000   0.5316942), wk =   0.0190476
        k(    5) = (   0.0000000   0.1944637   0.0000000), wk =   0.0190476
        k(    6) = (   0.0000000   0.1944637   0.1772314), wk =   0.0380952
        k(    7) = (   0.0000000   0.1944637   0.3544628), wk =   0.0380952
        k(    8) = (   0.0000000   0.1944637   0.5316942), wk =   0.0380952
        k(    9) = (   0.0000000   0.3889273   0.0000000), wk =   0.0190476
        k(   10) = (   0.0000000   0.3889273   0.1772314), wk =   0.0380952
        k(   11) = (   0.0000000   0.3889273   0.3544628), wk =   0.0380952
        k(   12) = (   0.0000000   0.3889273   0.5316942), wk =   0.0380952
        k(   13) = (   0.0000000  -0.5833910   0.0000000), wk =   0.0095238
        k(   14) = (   0.0000000  -0.5833910   0.1772314), wk =   0.0190476
        k(   15) = (   0.0000000  -0.5833910   0.3544628), wk =   0.0190476
        k(   16) = (   0.0000000  -0.5833910   0.5316942), wk =   0.0190476
        k(   17) = (   0.2020926   0.1166782   0.0000000), wk =   0.0190476
        k(   18) = (   0.2020926   0.1166782   0.1772314), wk =   0.0380952
        k(   19) = (   0.2020926   0.1166782   0.3544628), wk =   0.0380952
        k(   20) = (   0.2020926   0.1166782   0.5316942), wk =   0.0380952
        k(   21) = (   0.2020926   0.3111418   0.0000000), wk =   0.0190476
        k(   22) = (   0.2020926   0.3111418   0.1772314), wk =   0.0380952
        k(   23) = (   0.2020926   0.3111418   0.3544628), wk =   0.0380952
        k(   24) = (   0.2020926   0.3111418   0.5316942), wk =   0.0380952
        k(   25) = (   0.2020926   0.5056055   0.0000000), wk =   0.0190476
        k(   26) = (   0.2020926   0.5056055   0.1772314), wk =   0.0380952
        k(   27) = (   0.2020926   0.5056055   0.3544628), wk =   0.0380952
        k(   28) = (   0.2020926   0.5056055   0.5316942), wk =   0.0380952
        k(   29) = (   0.2020926  -0.4667128   0.0000000), wk =   0.0190476
        k(   30) = (   0.2020926  -0.4667128   0.1772314), wk =   0.0380952
        k(   31) = (   0.2020926  -0.4667128   0.3544628), wk =   0.0380952
        k(   32) = (   0.2020926  -0.4667128   0.5316942), wk =   0.0380952
        k(   33) = (   0.2020926  -0.2722491   0.0000000), wk =   0.0190476
        k(   34) = (   0.2020926  -0.2722491   0.1772314), wk =   0.0380952
        k(   35) = (   0.2020926  -0.2722491   0.3544628), wk =   0.0380952
        k(   36) = (   0.2020926  -0.2722491   0.5316942), wk =   0.0380952
        k(   37) = (   0.2020926  -0.0777855   0.0000000), wk =   0.0190476
        k(   38) = (   0.2020926  -0.0777855   0.1772314), wk =   0.0380952
        k(   39) = (   0.2020926  -0.0777855   0.3544628), wk =   0.0380952
        k(   40) = (   0.2020926  -0.0777855   0.5316942), wk =   0.0380952
        k(   41) = (   0.4041851   0.2333564   0.0000000), wk =   0.0190476
        k(   42) = (   0.4041851   0.2333564   0.1772314), wk =   0.0380952
        k(   43) = (   0.4041851   0.2333564   0.3544628), wk =   0.0380952
        k(   44) = (   0.4041851   0.2333564   0.5316942), wk =   0.0380952
        k(   45) = (   0.4041851   0.4278200   0.0000000), wk =   0.0190476
        k(   46) = (   0.4041851   0.4278200   0.1772314), wk =   0.0380952
        k(   47) = (   0.4041851   0.4278200   0.3544628), wk =   0.0380952
        k(   48) = (   0.4041851   0.4278200   0.5316942), wk =   0.0380952
        k(   49) = (   0.4041851   0.6222837   0.0000000), wk =   0.0190476
        k(   50) = (   0.4041851   0.6222837   0.1772314), wk =   0.0380952
        k(   51) = (   0.4041851   0.6222837   0.3544628), wk =   0.0380952
        k(   52) = (   0.4041851   0.6222837   0.5316942), wk =   0.0380952
        k(   53) = (   0.4041851  -0.3500346   0.0000000), wk =   0.0190476
        k(   54) = (   0.4041851  -0.3500346   0.1772314), wk =   0.0380952
        k(   55) = (   0.4041851  -0.3500346   0.3544628), wk =   0.0380952
        k(   56) = (   0.4041851  -0.3500346   0.5316942), wk =   0.0380952
        k(   57) = (   0.4041851  -0.1555709   0.0000000), wk =   0.0190476
        k(   58) = (   0.4041851  -0.1555709   0.1772314), wk =   0.0380952
        k(   59) = (   0.4041851  -0.1555709   0.3544628), wk =   0.0380952
        k(   60) = (   0.4041851  -0.1555709   0.5316942), wk =   0.0380952
        k(   61) = (   0.4041851   0.0388927   0.0000000), wk =   0.0190476
        k(   62) = (   0.4041851   0.0388927   0.1772314), wk =   0.0380952
        k(   63) = (   0.4041851   0.0388927   0.3544628), wk =   0.0380952
        k(   64) = (   0.4041851   0.0388927   0.5316942), wk =   0.0380952

     Largest allocated arrays     est. size (Mb)     dimensions
     Largest temporary arrays     est. size (Mb)     dimensions

     Initial potential from superposition of free atoms
     Check: negative starting charge=   -0.000746

     starting charge   77.94326, renormalised to  122.00000

     negative rho (up, down):  0.117E-02 0.000E+00
     Starting wfc are  120 randomized atomic wfcs

     Writing output data file Prototype-La-hP8-Mg3Cd.save

     Self-consistent Calculation

[...]

     negative rho (up, down):  0.351E-04 0.000E+00

[...]

     iteration # 13     ecut=    40.00 Ry     beta=0.70
     CG style diagonalization
     c_bands:  1 eigenvalues not converged
     c_bands:  1 eigenvalues not converged
     c_bands:  1 eigenvalues not converged
     c_bands:  1 eigenvalues not converged
     c_bands:  1 eigenvalues not converged
     c_bands:  1 eigenvalues not converged
     c_bands:  1 eigenvalues not converged
     c_bands:  1 eigenvalues not converged
     c_bands:  1 eigenvalues not converged
     c_bands:  1 eigenvalues not converged
     ethr =  8.47E-07,  avg # of iterations =  3.9

     total energy              =   -1216.30663728 Ry
     Harris-Foulkes estimate   =   -1216.30669385 Ry
     estimated scf accuracy    <       0.00013530 Ry

     iteration # 14     ecut=    40.00 Ry     beta=0.70
     CG style diagonalization
     ethr =  1.11E-07,  avg # of iterations =  3.8

     End of self-consistent calculation

[...]

          k = 0.4042 0.0389 0.5317 (  5067 PWs)   bands (ev):

   -78.7514 -78.7488 -40.6862 -40.6791 -40.6732 -40.6710 -40.6667 -40.6611
   -20.9222 -20.8444 -20.7523 -20.7179 -20.6793 -20.6520  -1.8221  -1.7767
    -1.7173  -1.6835  -1.5112  -1.4618  -0.9325  -0.7840  -0.6379  -0.6246
    -0.4563  -0.3347  -0.2725  -0.2369  -0.1755  -0.0586   0.0132   0.0325
     6.2692   6.2755   6.2884   6.2975   6.3094   6.3147   6.3275   6.3281
     6.3625   6.3719  14.0148  14.0438  17.7960  17.9462  18.4578  18.5873
    18.9128  19.0373  19.3838  19.4851  19.8283  20.0442  20.2551  20.4195
    20.6341  20.6771  21.3007  21.4169  21.8747  22.0806  22.1658  23.1554
    23.3950  23.6306  24.1493  24.2012  24.3504  24.4424  24.7591  24.9529
    25.6648

     the Fermi energy is    22.1243 ev

!    total energy              =   -1216.30666336 Ry
     Harris-Foulkes estimate   =   -1216.30667109 Ry
     estimated scf accuracy    <       0.00000867 Ry

     The total energy is the sum of the following terms:

     one-electron contribution =    -232.27381888 Ry
     hartree contribution      =     190.14478584 Ry
     xc contribution           =    -125.46702518 Ry
     ewald contribution        =   -1048.27088797 Ry
     smearing contrib. (-TS)   =      -0.43971717 Ry

     convergence has been achieved in  14 iterations

     Forces acting on atoms (Ry/au):

     atom    1 type  1   force =     0.00836052    0.00482695    0.00000000
     atom    2 type  1   force =     0.00836052   -0.00482695    0.00000000
     atom    3 type  1   force =    -0.00836052   -0.00482695    0.00000000
     atom    4 type  1   force =    -0.00836052    0.00482695    0.00000000
     atom    5 type  1   force =     0.00000000   -0.00965389    0.00000000
     atom    6 type  1   force =     0.00000000    0.00965389    0.00000000
     atom    7 type  2   force =     0.00000000    0.00000000    0.00000000
     atom    8 type  2   force =     0.00000000    0.00000000    0.00000000

     Total force =     0.023647     Total SCF correction =     0.002058

     entering subroutine stress ...

          total   stress  (Ry/bohr**3)                   (kbar)     P=    1.63
  -0.00008050   0.00000000   0.00000000        -11.84      0.00      0.00
   0.00000000  -0.00008050   0.00000000          0.00    -11.84      0.00
   0.00000000   0.00000000   0.00019433          0.00      0.00     28.59

     Writing output data file Prototype-La-hP8-Mg3Cd.save

     General routines

     Parallel routines

   This run was terminated on:  16:59: 8  22Mar2018

   JOB DONE.