     Program PWSCF v.5.0.2 starts on 22Mar2018 at  0:38:12

     Current dimensions of program PWSCF are:
     Max number of different atomic species (ntypx) = 10
     Max number of k-points (npk) =  40000
     Max angular momentum in pseudopotentials (lmaxx) =  3
     Waiting for input...
     Reading input from standard input

     Subspace diagonalization in iterative solution of the eigenvalue problem:
     a serial algorithm will be used

     bravais-lattice index     =            0
     lattice parameter (alat)  =       7.0151  a.u.
     unit-cell volume          =     862.2778 (a.u.)^3
     number of atoms/cell      =           12
     number of atomic types    =            2
     number of electrons       =       152.00
     number of Kohn-Sham states=           91
     kinetic-energy cutoff     =      40.0000  Ry
     charge density cutoff     =     160.0000  Ry
     convergence threshold     =      1.0E-04
     mixing beta               =       0.7000
     number of iterations used =            8  plain     mixing
     Exchange-correlation      = SLA-PZ-NOGX-NOGC ( 1 1 0 0 0)
     EXX-fraction              =        0.00
     nstep                     =           50

     celldm(1)=   7.015105  celldm(2)=   0.000000  celldm(3)=   0.000000
     celldm(4)=   0.000000  celldm(5)=   0.000000  celldm(6)=   0.000000

     crystal axes: (cart. coord. in units of alat)
               a(1) = (   1.000000   0.000000   0.000000 )
               a(2) = (   0.000000   1.315963   0.000000 )
               a(3) = (   0.000000   0.000000   1.898020 )

     reciprocal axes: (cart. coord. in units 2 pi/alat)
               b(1) = (  1.000000  0.000000  0.000000 )
               b(2) = (  0.000000  0.759900  0.000000 )
               b(3) = (  0.000000  0.000000  0.526865 )

     PseudoPot. # 1 for Ce read from file:
     /home/jld5415/pp.La/Ce.UPF
     MD5 check sum: 44451aa79a44a00cf2bc029dc19922f6
     Pseudo is Norm-conserving, Zval = 12.0
     Generated in analytical, separable form
     Using radial grid of 1255 points,  6 beta functions with:
                l(1) =   0
                l(2) =   0
                l(3) =   1
                l(4) =   1
                l(5) =   2
                l(6) =   3

     PseudoPot. # 2 for Nd read from file:
     /home/jld5415/pp.La/Nd.UPF
     MD5 check sum: c66c5b6abe7b5840ced9b1e244e3bed6
     Pseudo is Norm-conserving, Zval = 14.0
     Generated in analytical, separable form
     Using radial grid of 1257 points,  6 beta functions with:
                l(1) =   0
                l(2) =   0
                l(3) =   1
                l(4) =   1
                l(5) =   2
                l(6) =   3

     atomic species   valence    mass     pseudopotential
        Co            12.00    58.93320     Ce( 1.00)
        Si            14.00    28.08550     Nd( 1.00)

      8 Sym. Ops., with inversion, found ( 6 have fractional translation)

   Cartesian axes

     site n.     atom                  positions (alat units)
         1           Co  tau(   1) = (   0.7500000   1.0875135   0.8270358  )
         2           Co  tau(   2) = (   0.2500000   0.2284499   1.0709846  )
         3           Co  tau(   3) = (   0.7500000   0.4295318   0.1219744  )
         4           Co  tau(   4) = (   0.2500000   0.8864316   1.7760460  )
         5           Co  tau(   5) = (   0.2500000   0.7067855   0.5358966  )
         6           Co  tau(   6) = (   0.7500000   0.6091779   1.3621238  )
         7           Co  tau(   7) = (   0.2500000   0.0488038   0.4131136  )
         8           Co  tau(   8) = (   0.7500000   1.2671596   1.4849068  )
         9           Si  tau(   9) = (   0.2500000   0.2669484   1.6960710  )
        10           Si  tau(  10) = (   0.7500000   1.0490149   0.2019494  )
        11           Si  tau(  11) = (   0.2500000   0.9249301   1.1509596  )
        12           Si  tau(  12) = (   0.7500000   0.3910333   0.7470608  )

     number of k points=    12  gaussian smearing, width (Ry)=  0.1000
                       cart. coord. in units 2pi/alat
        k(    1) = (   0.0000000   0.0000000   0.0000000), wk =   0.0833333
        k(    2) = (   0.0000000   0.0000000   0.1317162), wk =   0.1666667
        k(    3) = (   0.0000000   0.0000000  -0.2634324), wk =   0.0833333
        k(    4) = (   0.0000000   0.2532999   0.0000000), wk =   0.1666667
        k(    5) = (   0.0000000   0.2532999   0.1317162), wk =   0.3333333
        k(    6) = (   0.0000000   0.2532999  -0.2634324), wk =   0.1666667
        k(    7) = (  -0.5000000   0.0000000   0.0000000), wk =   0.0833333
        k(    8) = (  -0.5000000   0.0000000   0.1317162), wk =   0.1666667
        k(    9) = (  -0.5000000   0.0000000  -0.2634324), wk =   0.0833333
        k(   10) = (  -0.5000000   0.2532999   0.0000000), wk =   0.1666667
        k(   11) = (  -0.5000000   0.2532999   0.1317162), wk =   0.3333333
        k(   12) = (  -0.5000000   0.2532999  -0.2634324), wk =   0.1666667

     Largest allocated arrays     est. size (Mb)     dimensions
     Largest temporary arrays     est. size (Mb)     dimensions

     Initial potential from superposition of free atoms

     Starting from uniform charge
     Starting wfc are    0 randomized atomic wfcs

     Self-consistent Calculation

     iteration #  1     ecut=    40.00 Ry     beta=0.70
     CG style diagonalization
     ethr =  1.00E-02,  avg # of iterations = 11.7

     total energy              =   -1006.82641505 Ry
     Harris-Foulkes estimate   =   -1083.54865684 Ry
     estimated scf accuracy    <     105.80971898 Ry

[...]

     iteration #  6     ecut=    40.00 Ry     beta=0.70
     CG style diagonalization
     c_bands:  3 eigenvalues not converged
     c_bands:  2 eigenvalues not converged
     c_bands:  1 eigenvalues not converged
     ethr =  2.77E-05,  avg # of iterations =  5.2

[...]

     End of self-consistent calculation

          k = 0.0000 0.0000 0.0000 (  3675 PWs)   bands (ev):

    -7.0151  -6.2671  -6.0633  -5.8279   2.6943   3.2069   3.5792   4.8974
     5.1329   5.1330   5.4577   5.7462  11.2563  12.4653  12.7153  13.0470
    13.5800  13.6121  13.7585  14.0476  14.4474  14.4570  14.8837  16.3479
    17.8508  18.7380  18.9658  19.0602  20.3267  21.2928  21.3778  21.4999
    22.1699  22.6259  22.8313  23.0126  23.2349  23.5636  23.8907  24.3212
    24.3618  25.1115  25.4436  25.5200  27.9602  28.2171  28.4920  28.5271
    32.8819  33.5460  34.6799  35.0035  35.0353  35.6347  35.6547  35.6731
    36.6099  37.5361  38.0019  38.5081  38.6460  39.1426  40.7523  41.4863
    41.5422  41.5791  42.3110  42.6337  42.9368  43.1079  43.1698  43.3054
    43.5068  44.7819  45.1403  45.2655  45.8168  46.2340  46.4215  46.8808
    47.3167  47.3916  47.5239  47.5342  48.7099  48.9327  48.9688  49.1513
    49.2951  49.5573  49.7709

[...]

          k =-0.5000 0.0000 0.0000 (  3722 PWs)   bands (ev):

[...]

     the Fermi energy is    44.6786 ev

!    total energy              =   -1047.42587221 Ry
     Harris-Foulkes estimate   =   -1047.42592661 Ry
     estimated scf accuracy    <       0.00006544 Ry

     The total energy is the sum of the following terms:

     one-electron contribution =     413.57320576 Ry
     hartree contribution      =      28.01141318 Ry
     xc contribution           =    -151.59052322 Ry
     ewald contribution        =   -1337.05702175 Ry
     smearing contrib. (-TS)   =      -0.36294618 Ry

     convergence has been achieved in   8 iterations

     Forces acting on atoms (Ry/au):

     atom    1 type  1   force =     0.00000000   -0.02227943   -0.08222502
     atom    2 type  1   force =     0.00000000    0.02227943    0.08222502
     atom    3 type  1   force =     0.00000000   -0.02227943    0.08222502
     atom    4 type  1   force =     0.00000000    0.02227943   -0.08222502
     atom    5 type  1   force =     0.00000000    0.11858161   -0.22398569
     atom    6 type  1   force =     0.00000000   -0.11858161    0.22398569
     atom    7 type  1   force =     0.00000000    0.11858161    0.22398569
     atom    8 type  1   force =     0.00000000   -0.11858161   -0.22398569
     atom    9 type  2   force =     0.00000000   -0.17068488    0.05425592
     atom   10 type  2   force =     0.00000000    0.17068488   -0.05425592
     atom   11 type  2   force =     0.00000000   -0.17068488   -0.05425592
     atom   12 type  2   force =     0.00000000    0.17068488    0.05425592

     Total force =     0.643632     Total SCF correction =     0.000000

     entering subroutine stress ...

          total   stress  (Ry/bohr**3)                   (kbar)     P= 6249.12
   0.04282345   0.00000000   0.00000000       6299.55      0.00      0.00
   0.00000000   0.04160563   0.00000000          0.00   6120.40      0.00
   0.00000000   0.00000000   0.04301289          0.00      0.00   6327.41

     BFGS Geometry Optimization

     number of scf cycles    =   1
     number of bfgs steps    =   0

     enthalpy new            =   -1047.4258722100 Ry

     new trust radius        =       0.5000000000 bohr
     new conv_thr            =       0.0001000000 Ry

     new unit-cell volume =   1098.58628 a.u.^3 (   162.79369 Ang^3 )

CELL_PARAMETERS (alat=  7.01510508)
   1.084761659   0.000000000   0.000000000
   0.000000000   1.424334544   0.000000000
   0.000000000   0.000000000   2.059611444

ATOMIC_POSITIONS (crystal)
Co       0.750000000   0.826209925   0.435247070
Co       0.250000000   0.173790075   0.564752930
Co       0.750000000   0.326209925   0.064752930
Co       0.250000000   0.673790075   0.935247070
Co       0.250000000   0.538102991   0.281013126
Co       0.750000000   0.461897009   0.718986874
Co       0.250000000   0.038102991   0.218986874
Co       0.750000000   0.961897009   0.781013126
Si       0.250000000   0.201390156   0.893922619
Si       0.750000000   0.798609844   0.106077381
Si       0.250000000   0.701390156   0.606077381
Si       0.750000000   0.298609844   0.393922619

     Writing output data file Prototype-La-oP12-Co2Si.save
     NEW-OLD atomic charge density approx. for the potential
     NEW k-points:
        k(    1) = (   0.0000000   0.0000000   0.0000000), wk =   0.0833333
        k(    2) = (   0.0000000   0.0000000   0.1213821), wk =   0.1666667
        k(    3) = (   0.0000000   0.0000000  -0.2427642), wk =   0.0833333
        k(    4) = (   0.0000000   0.2340274   0.0000000), wk =   0.1666667
        k(    5) = (   0.0000000   0.2340274   0.1213821), wk =   0.3333333
        k(    6) = (   0.0000000   0.2340274  -0.2427642), wk =   0.1666667
        k(    7) = (  -0.4609307   0.0000000   0.0000000), wk =   0.0833333
        k(    8) = (  -0.4609307   0.0000000   0.1213821), wk =   0.1666667
        k(    9) = (  -0.4609307   0.0000000  -0.2427642), wk =   0.0833333
        k(   10) = (  -0.4609307   0.2340274   0.0000000), wk =   0.1666667
        k(   11) = (  -0.4609307   0.2340274   0.1213821), wk =   0.3333333
        k(   12) = (  -0.4609307   0.2340274  -0.2427642), wk =   0.1666667

[...]

     enthalpy old            =   -1047.4258722100 Ry
     enthalpy new            =   -1053.9296047120 Ry

     CASE: enthalpy_new < enthalpy_old

     small trust_radius: resetting bfgs history

     new trust radius        =       2.7628504466 bohr
     new conv_thr            =       0.0001000000 Ry

[...]

          total   stress  (Ry/bohr**3)                   (kbar)     P=-1042.60
  -0.00713472   0.00000000   0.00000000      -1049.55      0.00      0.00
   0.00000000  -0.00697399   0.00000000          0.00  -1025.91      0.00
   0.00000000   0.00000000  -0.00715369          0.00      0.00  -1052.34

     number of scf cycles    =   3
     number of bfgs steps    =   2

     enthalpy old            =   -1053.9296047120 Ry
     enthalpy new            =   -1048.2448648386 Ry

     CASE: enthalpy_new > enthalpy_old

     new trust radius        =       1.2975585881 bohr

     trust_radius < trust_radius_min

     resetting bfgs history

     Message from routine bfgs:
     history already reset at previous step: stopping
     new conv_thr            =       0.0001000000 Ry

     new unit-cell volume =   1315.85793 a.u.^3 (   194.99002 Ang^3 )

[...]

ATOMIC_POSITIONS (crystal)
Co       0.750000000   0.826121316   0.434923472
Co       0.250000000   0.173878684   0.565076528
Co       0.750000000   0.326121316   0.065076528
Co       0.250000000   0.673878684   0.934923472
Co       0.250000000   0.538708657   0.280128944
Co       0.750000000   0.461291343   0.719871056
Co       0.250000000   0.038708657   0.219871056
Co       0.750000000   0.961291343   0.780128944
Si       0.250000000   0.200226071   0.894228069
Si       0.750000000   0.799773929   0.105771931
Si       0.250000000   0.700226071   0.605771931
Si       0.750000000   0.299773929   0.394228069

     Writing output data file Prototype-La-oP12-Co2Si.save
     NEW-OLD atomic charge density approx. for the potential
     NEW k-points:
        k(    1) = (   0.0000000   0.0000000   0.0000000), wk =   0.0833333
        k(    2) = (   0.0000000   0.0000000   0.1140901), wk =   0.1666667
        k(    3) = (   0.0000000   0.0000000  -0.2281803), wk =   0.0833333
        k(    4) = (   0.0000000   0.2211523   0.0000000), wk =   0.1666667
        k(    5) = (   0.0000000   0.2211523   0.1140901), wk =   0.3333333
        k(    6) = (   0.0000000   0.2211523  -0.2281803), wk =   0.1666667
        k(    7) = (  -0.4332541   0.0000000   0.0000000), wk =   0.0833333
        k(    8) = (  -0.4332541   0.0000000   0.1140901), wk =   0.1666667
        k(    9) = (  -0.4332541   0.0000000  -0.2281803), wk =   0.0833333
        k(   10) = (  -0.4332541   0.2211523   0.0000000), wk =   0.1666667
        k(   11) = (  -0.4332541   0.2211523   0.1140901), wk =   0.3333333
        k(   12) = (  -0.4332541   0.2211523  -0.2281803), wk =   0.1666667

[...]

     The maximum number of steps has been reached.

     End of BFGS Geometry Optimization
Begin final coordinates
     new unit-cell volume =   1315.85793 a.u.^3 (   194.99002 Ang^3 )

CELL_PARAMETERS (alat=  7.01510508)
   1.154057208   0.000000000   0.000000000
   0.000000000   1.507256830   0.000000000
   0.000000000   0.000000000   2.191249654

ATOMIC_POSITIONS (crystal)
Co       0.750000000   0.826121316   0.434923472
Co       0.250000000   0.173878684   0.565076528
Co       0.750000000   0.326121316   0.065076528
Co       0.250000000   0.673878684   0.934923472
Co       0.250000000   0.538708657   0.280128944
Co       0.750000000   0.461291343   0.719871056
Co       0.250000000   0.038708657   0.219871056
Co       0.750000000   0.961291343   0.780128944
Si       0.250000000   0.200226071   0.894228069
Si       0.750000000   0.799773929   0.105771931
Si       0.250000000   0.700226071   0.605771931
Si       0.750000000   0.299773929   0.394228069
End final coordinates

     A final scf calculation at the relaxed structure.
     The G-vectors are recalculated for the final unit cell
     Results may differ from those at the preceding step.

     bravais-lattice index     =            0
     lattice parameter (alat)  =       7.0151  a.u.
     unit-cell volume          =    1315.8579 (a.u.)^3
     number of atoms/cell      =           12
     number of atomic types    =            2
     number of electrons       =       152.00
     number of Kohn-Sham states=           91
     kinetic-energy cutoff     =      40.0000  Ry
     charge density cutoff     =     160.0000  Ry
     convergence threshold     =      1.0E-04
     mixing beta               =       0.7000
     number of iterations used =            8  plain     mixing
     Exchange-correlation      = SLA-PZ-NOGX-NOGC ( 1 1 0 0 0)
     EXX-fraction              =        0.00

     celldm(1)=   7.015105  celldm(2)=   0.000000  celldm(3)=   0.000000
     celldm(4)=   0.000000  celldm(5)=   0.000000  celldm(6)=   0.000000

     crystal axes: (cart. coord. in units of alat)
               a(1) = (   1.154057   0.000000   0.000000 )
               a(2) = (   0.000000   1.507257   0.000000 )
               a(3) = (   0.000000   0.000000   2.191250 )

     reciprocal axes: (cart. coord. in units 2 pi/alat)
               b(1) = (  0.866508  0.000000  0.000000 )
               b(2) = (  0.000000  0.663457  0.000000 )
               b(3) = (  0.000000  0.000000  0.456361 )

     PseudoPot. # 1 for Ce read from file:
     /home/jld5415/pp.La/Ce.UPF
     MD5 check sum: 44451aa79a44a00cf2bc029dc19922f6
     Pseudo is Norm-conserving, Zval = 12.0
     Generated in analytical, separable form
     Using radial grid of 1255 points,  6 beta functions with:
                l(1) =   0
                l(2) =   0
                l(3) =   1
                l(4) =   1
                l(5) =   2
                l(6) =   3

     PseudoPot. # 2 for Nd read from file:
     /home/jld5415/pp.La/Nd.UPF
     MD5 check sum: c66c5b6abe7b5840ced9b1e244e3bed6
     Pseudo is Norm-conserving, Zval = 14.0
     Generated in analytical, separable form
     Using radial grid of 1257 points,  6 beta functions with:
                l(1) =   0
                l(2) =   0
                l(3) =   1
                l(4) =   1
                l(5) =   2
                l(6) =   3

     atomic species   valence    mass     pseudopotential
        Co            12.00    58.93320     Ce( 1.00)
        Si            14.00    28.08550     Nd( 1.00)

      8 Sym. Ops., with inversion, found ( 6 have fractional translation)

   Cartesian axes

     site n.     atom                  positions (alat units)
         1           Co  tau(   1) = (   0.8655429   1.2451770   0.9530259  )
         2           Co  tau(   2) = (   0.2885143   0.2620798   1.2382237  )
         3           Co  tau(   3) = (   0.8655429   0.4915486   0.1425989  )
         4           Co  tau(   4) = (   0.2885143   1.0157082   2.0486507  )
         5           Co  tau(   5) = (   0.2885143   0.8119723   0.6138325  )
         6           Co  tau(   6) = (   0.8655429   0.6952845   1.5774172  )
         7           Co  tau(   7) = (   0.2885143   0.0583439   0.4817924  )
         8           Co  tau(   8) = (   0.8655429   1.4489129   1.7094573  )
         9           Si  tau(   9) = (   0.2885143   0.3017921   1.9594769  )
        10           Si  tau(  10) = (   0.8655429   1.2054647   0.2317727  )
        11           Si  tau(  11) = (   0.2885143   1.0554205   1.3273975  )
        12           Si  tau(  12) = (   0.8655429   0.4518363   0.8638521  )

     number of k points=    12  gaussian smearing, width (Ry)=  0.1000
                       cart. coord. in units 2pi/alat
        k(    1) = (   0.0000000   0.0000000   0.0000000), wk =   0.0833333
        k(    2) = (   0.0000000   0.0000000   0.1140901), wk =   0.1666667
        k(    3) = (   0.0000000   0.0000000  -0.2281803), wk =   0.0833333
        k(    4) = (   0.0000000   0.2211523   0.0000000), wk =   0.1666667
        k(    5) = (   0.0000000   0.2211523   0.1140901), wk =   0.3333333
        k(    6) = (   0.0000000   0.2211523  -0.2281803), wk =   0.1666667
        k(    7) = (  -0.4332541   0.0000000   0.0000000), wk =   0.0833333
        k(    8) = (  -0.4332541   0.0000000   0.1140901), wk =   0.1666667
        k(    9) = (  -0.4332541   0.0000000  -0.2281803), wk =   0.0833333
        k(   10) = (  -0.4332541   0.2211523   0.0000000), wk =   0.1666667
        k(   11) = (  -0.4332541   0.2211523   0.1140901), wk =   0.3333333
        k(   12) = (  -0.4332541   0.2211523  -0.2281803), wk =   0.1666667

     Largest allocated arrays     est. size (Mb)     dimensions
     Largest temporary arrays     est. size (Mb)     dimensions

     Initial potential from superposition of free atoms

     Starting from uniform charge
     Starting wfc are    0 randomized atomic wfcs

     Writing output data file Prototype-La-oP12-Co2Si.save

     Self-consistent Calculation

[...]

     iteration #  4     ecut=    40.00 Ry     beta=0.70
     CG style diagonalization
     ethr =  8.42E-03,  avg # of iterations =  4.1

[...]

     total energy              =   -1057.21566847 Ry
     Harris-Foulkes estimate   =   -1057.21571639 Ry
     estimated scf accuracy    <       0.00012775 Ry

     iteration # 10     ecut=    40.00 Ry     beta=0.70
     CG style diagonalization
     c_bands:  1 eigenvalues not converged
     ethr =  8.40E-08,  avg # of iterations =  4.7

     End of self-consistent calculation

[...]

          k = 0.0000 0.2212-0.2282 (  5592 PWs)   bands (ev):

[...]

          k =-0.4333 0.2212-0.2282 (  5616 PWs)   bands (ev):

   -19.2334 -19.2334 -19.2104 -19.2104  -9.4495  -9.4495  -9.1674  -9.1674
    -8.8812  -8.8812  -8.7371  -8.7371   1.1809   1.1809   1.3608   1.3608
     1.6495   1.6495   1.8773   1.8773   2.0109   2.0109   2.2017   2.2017
     7.0280   7.0280   7.5356   7.5356   7.8447   7.8447   8.3075   8.3075
     8.4358   8.4358   8.9746   8.9746   9.3827   9.3827   9.6379   9.6379
     9.9513   9.9513  10.0675  10.0675  10.2969  10.2969  10.4052  10.4052
    23.2796  23.2796  23.9216  23.9216  24.3975  24.3975  25.0177  25.0177
    25.1672  25.1672  25.4689  25.4689  25.7722  25.7722  26.0398  26.0398
    26.6909  26.6909  26.7311  26.7311  27.5165  27.5165  27.5989  27.5989
    28.0593  28.0593  28.2155  28.2155  28.8950  28.8950  29.2527  29.2527
    29.4767  29.4767  30.1811  30.1811  30.6215  30.6215  31.2073  31.2074
    31.2337  31.2339  32.1765

     the Fermi energy is    28.9045 ev

!    total energy              =   -1057.21571745 Ry
     Harris-Foulkes estimate   =   -1057.21572919 Ry
     estimated scf accuracy    <       0.00001281 Ry

     The total energy is the sum of the following terms:

     one-electron contribution =     188.14384316 Ry
     hartree contribution      =      57.42194763 Ry
     xc contribution           =    -140.48151220 Ry
     ewald contribution        =   -1161.71753422 Ry
     smearing contrib. (-TS)   =      -0.58246182 Ry

     convergence has been achieved in  10 iterations

     Forces acting on atoms (Ry/au):

     atom    1 type  1   force =     0.00000000    0.00199567   -0.01533580
     atom    2 type  1   force =     0.00000000   -0.00199567    0.01533580
     atom    3 type  1   force =     0.00000000    0.00199567    0.01533580
     atom    4 type  1   force =     0.00000000   -0.00199567   -0.01533580
     atom    5 type  1   force =     0.00000000    0.02791968   -0.06784723
     atom    6 type  1   force =     0.00000000   -0.02791968    0.06784723
     atom    7 type  1   force =     0.00000000    0.02791968    0.06784723
     atom    8 type  1   force =     0.00000000   -0.02791968   -0.06784723
     atom    9 type  2   force =     0.00000000   -0.06533250    0.04524623
     atom   10 type  2   force =     0.00000000    0.06533250   -0.04524623
     atom   11 type  2   force =     0.00000000   -0.06533250   -0.04524623
     atom   12 type  2   force =     0.00000000    0.06533250    0.04524623

     Total force =     0.218518     Total SCF correction =     0.000000

     entering subroutine stress ...

          total   stress  (Ry/bohr**3)                   (kbar)     P= 1220.53
   0.00863246   0.00000000   0.00000000       1269.88      0.00      0.00
   0.00000000   0.00788066   0.00000000          0.00   1159.29      0.00
   0.00000000   0.00000000   0.00837777          0.00      0.00   1232.41

     Writing output data file Prototype-La-oP12-Co2Si.save

     General routines

     Parallel routines

   This run was terminated on:   0:55:22  22Mar2018

   JOB DONE.