     Program PWSCF v.5.0.2 starts on 22Mar2018 at  0:36:53

     Current dimensions of program PWSCF are:
     Max number of different atomic species (ntypx) = 10
     Max number of k-points (npk) =  40000
     Max angular momentum in pseudopotentials (lmaxx) =  3
     Waiting for input...
     Reading input from standard input

     Subspace diagonalization in iterative solution of the eigenvalue problem:
     a serial algorithm will be used

     bravais-lattice index     =            0
     lattice parameter (alat)  =       9.9235  a.u.
     unit-cell volume          =    1361.0366 (a.u.)^3
     number of atoms/cell      =           12
     number of atomic types    =            2
     number of electrons       =       160.00
     number of Kohn-Sham states=           96
     kinetic-energy cutoff     =      40.0000  Ry
     charge density cutoff     =     160.0000  Ry
     convergence threshold     =      1.0E-04
     mixing beta               =       0.7000
     number of iterations used =            8  plain     mixing
     Exchange-correlation      = SLA-PZ-NOGX-NOGC ( 1 1 0 0 0)
     EXX-fraction              =        0.00
     nstep                     =           50

     celldm(1)=   9.923489  celldm(2)=   0.000000  celldm(3)=   0.000000
     celldm(4)=   0.000000  celldm(5)=   0.000000  celldm(6)=   0.000000

     crystal axes: (cart. coord. in units of alat)
               a(1) = (   1.000000   0.000000   0.000000 )
               a(2) = (  -0.500000   0.866025   0.000000 )
               a(3) = (   0.000000   0.000000   1.608222 )

     reciprocal axes: (cart. coord. in units 2 pi/alat)
               b(1) = (  1.000000  0.577350  0.000000 )
               b(2) = (  0.000000  1.154701  0.000000 )
               b(3) = (  0.000000  0.000000  0.621805 )

     PseudoPot. # 1 for Ce read from file:
     /home/jld5415/pp.La/Ce.UPF
     MD5 check sum: 44451aa79a44a00cf2bc029dc19922f6
     Pseudo is Norm-conserving, Zval = 12.0
     Generated in analytical, separable form
     Using radial grid of 1255 points,  6 beta functions with:
                l(1) =   0
                l(2) =   0
                l(3) =   1
                l(4) =   1
                l(5) =   2
                l(6) =   3

     PseudoPot. # 2 for Nd read from file:
     /home/jld5415/pp.La/Nd.UPF
     MD5 check sum: c66c5b6abe7b5840ced9b1e244e3bed6
     Pseudo is Norm-conserving, Zval = 14.0
     Generated in analytical, separable form
     Using radial grid of 1257 points,  6 beta functions with:
                l(1) =   0
                l(2) =   0
                l(3) =   1
                l(4) =   1
                l(5) =   2
                l(6) =   3

     atomic species   valence    mass     pseudopotential
        Mg            12.00    24.30500     Ce( 1.00)
        Zn            14.00    65.39000     Nd( 1.00)

     24 Sym. Ops., with inversion, found (12 have fractional translation)

   Cartesian axes

     site n.     atom                  positions (alat units)
         1           Mg  tau(   1) = (  -0.0000005   0.5773506   0.1003820  )
         2           Mg  tau(   2) = (   0.5000005   0.2886748   0.9044931  )
         3           Mg  tau(   3) = (   0.5000005   0.2886748   1.5078402  )
         4           Mg  tau(   4) = (  -0.0000005   0.5773506   0.7037291  )
         5           Zn  tau(   5) = (   0.0000000   0.0000000   0.0000000  )
         6           Zn  tau(   6) = (   0.0000000   0.0000000   0.8041111  )
         7           Zn  tau(   7) = (   0.0000000   0.2950739   1.2061667  )
         8           Zn  tau(   8) = (   0.7444585   0.1475370   0.4020556  )
         9           Zn  tau(   9) = (   0.2555415   0.1475370   0.4020556  )
        10           Zn  tau(  10) = (   0.2444585   0.7184884   1.2061667  )
        11           Zn  tau(  11) = (  -0.2444585   0.7184884   1.2061667  )
        12           Zn  tau(  12) = (   0.5000000   0.5709515   0.4020556  )

     number of k points=    12  gaussian smearing, width (Ry)=  0.1000
                       cart. coord. in units 2pi/alat
        k(    1) = (   0.0000000   0.0000000   0.0000000), wk =   0.0833333
        k(    2) = (   0.0000000   0.0000000   0.1554512), wk =   0.1666667
        k(    3) = (   0.0000000   0.0000000  -0.3109023), wk =   0.0833333
        k(    4) = (   0.0000000   0.3849002   0.0000000), wk =   0.1666667
        k(    5) = (   0.0000000   0.3849002   0.1554512), wk =   0.3333333
        k(    6) = (   0.0000000   0.3849002  -0.3109023), wk =   0.1666667
        k(    7) = (  -0.5000000  -0.2886751   0.0000000), wk =   0.0833333
        k(    8) = (  -0.5000000  -0.2886751   0.1554512), wk =   0.1666667
        k(    9) = (  -0.5000000  -0.2886751  -0.3109023), wk =   0.0833333
        k(   10) = (  -0.5000000   0.0962250   0.0000000), wk =   0.1666667
        k(   11) = (  -0.5000000   0.0962250   0.1554512), wk =   0.3333333
        k(   12) = (  -0.5000000   0.0962250  -0.3109023), wk =   0.1666667

     Largest allocated arrays     est. size (Mb)     dimensions
     Largest temporary arrays     est. size (Mb)     dimensions

     Initial potential from superposition of free atoms

     Starting from uniform charge
     Starting wfc are    0 randomized atomic wfcs

     Self-consistent Calculation

     iteration #  1     ecut=    40.00 Ry     beta=0.70
     CG style diagonalization
     c_bands:  1 eigenvalues not converged
     c_bands:  1 eigenvalues not converged
     c_bands:  1 eigenvalues not converged
     ethr =  1.00E-02,  avg # of iterations = 11.7

     total energy              =    -926.90937266 Ry
     Harris-Foulkes estimate   =   -1355.49164254 Ry
     estimated scf accuracy    <     527.04775792 Ry

     iteration #  2     ecut=    40.00 Ry     beta=0.70
     CG style diagonalization
     ethr =  1.00E-02,  avg # of iterations = 17.8

[...]

     End of self-consistent calculation

          k = 0.0000 0.0000 0.0000 (  5769 PWs)   bands (ev):

   -21.0550 -20.7087 -19.8419 -19.4628 -19.4628 -19.4567 -19.4567 -19.4231
    -9.4452  -9.3722  -9.1269  -8.9795  -2.9514  -2.1649  -1.3026  -0.2231
    -0.2231  -0.0308  -0.0307   0.2124   0.2124   1.0586   1.7411   1.7411
     1.8219   1.8219   2.1141   3.2416   3.3894   3.3921   3.4166   3.4167
     3.7800   3.7800   3.8879   3.8879   7.8759   7.9446   7.9447   7.9922
     8.1763   8.1764   9.0049   9.2585   9.2585   9.3291   9.3491   9.3491
    19.8460  20.8887  20.9807  22.0560  22.0560  22.7962  22.7962  23.1560
    23.1560  23.2874  23.3914  23.5727  23.5727  23.6461  23.6462  23.9274
    24.6264  24.9362  25.3047  25.3047  26.4541  26.4541  27.1830  27.2483
    27.2483  27.6256  27.6256  28.1842  28.2026  28.2026  28.4132  28.4132
    28.8926  28.8926  28.9008  28.9008  29.1536  29.4997  29.5536  29.5537
    30.0499  30.2245  30.2875  30.2875  31.1640  31.3044  31.3045  32.5909

[...]

          k =-0.5000-0.2887 0.0000 (  5800 PWs)   bands (ev):

[...]

     the Fermi energy is    28.3838 ev

!    total energy              =   -1190.40405598 Ry
     Harris-Foulkes estimate   =   -1190.40407426 Ry
     estimated scf accuracy    <       0.00002096 Ry

     The total energy is the sum of the following terms:

     one-electron contribution =     127.38081443 Ry
     hartree contribution      =      89.67446612 Ry
     xc contribution           =    -151.19549677 Ry
     ewald contribution        =   -1255.62236131 Ry
     smearing contrib. (-TS)   =      -0.64147845 Ry

     convergence has been achieved in  11 iterations

     Forces acting on atoms (Ry/au):

     atom    1 type  1   force =     0.00000000    0.00000000    0.02127486
     atom    2 type  1   force =     0.00000000    0.00000000    0.02127486
     atom    3 type  1   force =     0.00000000    0.00000000   -0.02127486
     atom    4 type  1   force =     0.00000000    0.00000000   -0.02127486
     atom    5 type  2   force =     0.00000000    0.00000000    0.00000000
     atom    6 type  2   force =     0.00000000    0.00000000    0.00000000
     atom    7 type  2   force =     0.00000000    0.04133659    0.00000000
     atom    8 type  2   force =    -0.03579854    0.02066830    0.00000000
     atom    9 type  2   force =     0.03579854    0.02066830    0.00000000
     atom   10 type  2   force =    -0.03579854   -0.02066830    0.00000000
     atom   11 type  2   force =     0.03579854   -0.02066830    0.00000000
     atom   12 type  2   force =     0.00000000   -0.04133659    0.00000000

     Total force =     0.109831     Total SCF correction =     0.000000

     entering subroutine stress ...

          total   stress  (Ry/bohr**3)                   (kbar)     P= 1114.35
   0.00759113   0.00000000   0.00000000       1116.69      0.00      0.00
   0.00000000   0.00759113   0.00000000          0.00   1116.69      0.00
   0.00000000   0.00000000   0.00754339          0.00      0.00   1109.67

     BFGS Geometry Optimization

     number of scf cycles    =   1
     number of bfgs steps    =   0

     enthalpy new            =   -1190.4040559765 Ry

     new trust radius        =       0.5000000000 bohr
     new conv_thr            =       0.0001000000 Ry

     new unit-cell volume =   1656.24058 a.u.^3 (   245.42953 Ang^3 )

CELL_PARAMETERS (alat=  9.92348860)
   1.067764947   0.000000000   0.000000000
  -0.533882474   0.924711570   0.000000000
   0.000000000   0.000000000   1.716517930

ATOMIC_POSITIONS (crystal)
Mg       0.333333000   0.666667000   0.062894009
Mg       0.666667000   0.333333000   0.562894009
Mg       0.666667000   0.333333000   0.937105991
Mg       0.333333000   0.666667000   0.437105991
Zn       0.000000000   0.000000000   0.000000000
Zn       0.000000000   0.000000000   0.500000000
Zn       0.171219753   0.342439507   0.750000000
Zn       0.828780247   0.171219753   0.250000000
Zn       0.342439507   0.171219753   0.250000000
Zn       0.657560493   0.828780247   0.750000000
Zn       0.171219753   0.828780247   0.750000000
Zn       0.828780247   0.657560493   0.250000000

     Writing output data file Prototype-La-hP12-MgZn2.save
     NEW-OLD atomic charge density approx. for the potential
     NEW k-points:
        k(    1) = (   0.0000000   0.0000000   0.0000000), wk =   0.0833333
        k(    2) = (   0.0000000   0.0000000   0.1456437), wk =   0.1666667
        k(    3) = (   0.0000000   0.0000000  -0.2912874), wk =   0.0833333
        k(    4) = (   0.0000000   0.3604728   0.0000000), wk =   0.1666667
        k(    5) = (   0.0000000   0.3604728   0.1456437), wk =   0.3333333
        k(    6) = (   0.0000000   0.3604728  -0.2912874), wk =   0.1666667
        k(    7) = (  -0.4682679  -0.2703546   0.0000000), wk =   0.0833333
        k(    8) = (  -0.4682679  -0.2703546   0.1456437), wk =   0.1666667
        k(    9) = (  -0.4682679  -0.2703546  -0.2912874), wk =   0.0833333
        k(   10) = (  -0.4682679   0.0901182   0.0000000), wk =   0.1666667
        k(   11) = (  -0.4682679   0.0901182   0.1456437), wk =   0.3333333
        k(   12) = (  -0.4682679   0.0901182  -0.2912874), wk =   0.1666667

[...]

     enthalpy old            =   -1190.4040559765 Ry
     enthalpy new            =   -1191.6708577128 Ry

     CASE: enthalpy_new < enthalpy_old

     small trust_radius: resetting bfgs history

[...]

     number of scf cycles    =   3
     number of bfgs steps    =   2

     enthalpy old            =   -1191.6708577128 Ry
     enthalpy new            =   -1191.7312559320 Ry

     CASE: enthalpy_new < enthalpy_old

     Message from routine bfgs:
     history already reset at previous step: stopping
     small trust_radius: resetting bfgs history

     new trust radius        =       0.1953229191 bohr
     new conv_thr            =       0.0000060674 Ry

     new unit-cell volume =   1745.97113 a.u.^3 (   258.72622 Ang^3 )

[...]

ATOMIC_POSITIONS (crystal)
Mg       0.333333000   0.666667000   0.063405349
Mg       0.666667000   0.333333000   0.563405349
Mg       0.666667000   0.333333000   0.936594651
Mg       0.333333000   0.666667000   0.436594651
Zn       0.000000000   0.000000000   0.000000000
Zn       0.000000000   0.000000000   0.500000000
Zn       0.171365624   0.342731248   0.750000000
Zn       0.828634376   0.171365624   0.250000000
Zn       0.342731248   0.171365624   0.250000000
Zn       0.657268752   0.828634376   0.750000000
Zn       0.171365624   0.828634376   0.750000000
Zn       0.828634376   0.657268752   0.250000000

     Writing output data file Prototype-La-hP12-MgZn2.save
     NEW-OLD atomic charge density approx. for the potential
     NEW k-points:
        k(    1) = (   0.0000000   0.0000000   0.0000000), wk =   0.0833333
        k(    2) = (   0.0000000   0.0000000   0.1432765), wk =   0.1666667
        k(    3) = (   0.0000000   0.0000000  -0.2865530), wk =   0.0833333
        k(    4) = (   0.0000000   0.3539761   0.0000000), wk =   0.1666667
        k(    5) = (   0.0000000   0.3539761   0.1432765), wk =   0.3333333
        k(    6) = (   0.0000000   0.3539761  -0.2865530), wk =   0.1666667
        k(    7) = (  -0.4598285  -0.2654821   0.0000000), wk =   0.0833333
        k(    8) = (  -0.4598285  -0.2654821   0.1432765), wk =   0.1666667
        k(    9) = (  -0.4598285  -0.2654821  -0.2865530), wk =   0.0833333
        k(   10) = (  -0.4598285   0.0884940   0.0000000), wk =   0.1666667
        k(   11) = (  -0.4598285   0.0884940   0.1432765), wk =   0.3333333
        k(   12) = (  -0.4598285   0.0884940  -0.2865530), wk =   0.1666667

[...]

     The maximum number of steps has been reached.

     End of BFGS Geometry Optimization
Begin final coordinates
     new unit-cell volume =   1745.97113 a.u.^3 (   258.72622 Ang^3 )

CELL_PARAMETERS (alat=  9.92348860)
   1.087361978   0.000000000   0.000000000
  -0.543680989   0.941683096   0.000000000
   0.000000000   0.000000000   1.744877795

ATOMIC_POSITIONS (crystal)
Mg       0.333333000   0.666667000   0.063405349
Mg       0.666667000   0.333333000   0.563405349
Mg       0.666667000   0.333333000   0.936594651
Mg       0.333333000   0.666667000   0.436594651
Zn       0.000000000   0.000000000   0.000000000
Zn       0.000000000   0.000000000   0.500000000
Zn       0.171365624   0.342731248   0.750000000
Zn       0.828634376   0.171365624   0.250000000
Zn       0.342731248   0.171365624   0.250000000
Zn       0.657268752   0.828634376   0.750000000
Zn       0.171365624   0.828634376   0.750000000
Zn       0.828634376   0.657268752   0.250000000
End final coordinates

     A final scf calculation at the relaxed structure.
     The G-vectors are recalculated for the final unit cell
     Results may differ from those at the preceding step.

     bravais-lattice index     =            0
     lattice parameter (alat)  =       9.9235  a.u.
     unit-cell volume          =    1745.9711 (a.u.)^3
     number of atoms/cell      =           12
     number of atomic types    =            2
     number of electrons       =       160.00
     number of Kohn-Sham states=           96
     kinetic-energy cutoff     =      40.0000  Ry
     charge density cutoff     =     160.0000  Ry
     convergence threshold     =      6.1E-06
     mixing beta               =       0.7000
     number of iterations used =            8  plain     mixing
     Exchange-correlation      = SLA-PZ-NOGX-NOGC ( 1 1 0 0 0)
     EXX-fraction              =        0.00

     celldm(1)=   9.923489  celldm(2)=   0.000000  celldm(3)=   0.000000
     celldm(4)=   0.000000  celldm(5)=   0.000000  celldm(6)=   0.000000

     crystal axes: (cart. coord. in units of alat)
               a(1) = (   1.087362   0.000000   0.000000 )
               a(2) = (  -0.543681   0.941683   0.000000 )
               a(3) = (   0.000000   0.000000   1.744878 )

     reciprocal axes: (cart. coord. in units 2 pi/alat)
               b(1) = (  0.919657  0.530964  0.000000 )
               b(2) = (  0.000000  1.061928  0.000000 )
               b(3) = (  0.000000  0.000000  0.573106 )

     PseudoPot. # 1 for Ce read from file:
     /home/jld5415/pp.La/Ce.UPF
     MD5 check sum: 44451aa79a44a00cf2bc029dc19922f6
     Pseudo is Norm-conserving, Zval = 12.0
     Generated in analytical, separable form
     Using radial grid of 1255 points,  6 beta functions with:
                l(1) =   0
                l(2) =   0
                l(3) =   1
                l(4) =   1
                l(5) =   2
                l(6) =   3

     PseudoPot. # 2 for Nd read from file:
     /home/jld5415/pp.La/Nd.UPF
     MD5 check sum: c66c5b6abe7b5840ced9b1e244e3bed6
     Pseudo is Norm-conserving, Zval = 14.0
     Generated in analytical, separable form
     Using radial grid of 1257 points,  6 beta functions with:
                l(1) =   0
                l(2) =   0
                l(3) =   1
                l(4) =   1
                l(5) =   2
                l(6) =   3

     atomic species   valence    mass     pseudopotential
        Mg            12.00    24.30500     Ce( 1.00)
        Zn            14.00    65.39000     Nd( 1.00)

     24 Sym. Ops., with inversion, found (12 have fractional translation)

   Cartesian axes

     site n.     atom                  positions (alat units)
         1           Mg  tau(   1) = (  -0.0000005   0.6277890   0.1106346  )
         2           Mg  tau(   2) = (   0.5436815   0.3138941   0.9830735  )
         3           Mg  tau(   3) = (   0.5436815   0.3138941   1.6342432  )
         4           Mg  tau(   4) = (  -0.0000005   0.6277890   0.7618043  )
         5           Zn  tau(   5) = (   0.0000000   0.0000000   0.0000000  )
         6           Zn  tau(   6) = (   0.0000000   0.0000000   0.8724389  )
         7           Zn  tau(   7) = (   0.0000000   0.3227442   1.3086583  )
         8           Zn  tau(   8) = (   0.8078573   0.1613721   0.4362194  )
         9           Zn  tau(   9) = (   0.2795047   0.1613721   0.4362194  )
        10           Zn  tau(  10) = (   0.2641763   0.7803110   1.3086583  )
        11           Zn  tau(  11) = (  -0.2641763   0.7803110   1.3086583  )
        12           Zn  tau(  12) = (   0.5436810   0.6189389   0.4362194  )

     number of k points=    12  gaussian smearing, width (Ry)=  0.1000
                       cart. coord. in units 2pi/alat
        k(    1) = (   0.0000000   0.0000000   0.0000000), wk =   0.0833333
        k(    2) = (   0.0000000   0.0000000   0.1432765), wk =   0.1666667
        k(    3) = (   0.0000000   0.0000000  -0.2865530), wk =   0.0833333
        k(    4) = (   0.0000000   0.3539761   0.0000000), wk =   0.1666667
        k(    5) = (   0.0000000   0.3539761   0.1432765), wk =   0.3333333
        k(    6) = (   0.0000000   0.3539761  -0.2865530), wk =   0.1666667
        k(    7) = (  -0.4598285  -0.2654821   0.0000000), wk =   0.0833333
        k(    8) = (  -0.4598285  -0.2654821   0.1432765), wk =   0.1666667
        k(    9) = (  -0.4598285  -0.2654821  -0.2865530), wk =   0.0833333
        k(   10) = (  -0.4598285   0.0884940   0.0000000), wk =   0.1666667
        k(   11) = (  -0.4598285   0.0884940   0.1432765), wk =   0.3333333
        k(   12) = (  -0.4598285   0.0884940  -0.2865530), wk =   0.1666667

     Largest allocated arrays     est. size (Mb)     dimensions
     Largest temporary arrays     est. size (Mb)     dimensions

     Initial potential from superposition of free atoms

     Starting from uniform charge
     Starting wfc are    0 randomized atomic wfcs

     Writing output data file Prototype-La-hP12-MgZn2.save

     Self-consistent Calculation

[...]

     iteration # 11     ecut=    40.00 Ry     beta=0.70
     CG style diagonalization
     c_bands:  1 eigenvalues not converged
     ethr =  1.98E-07,  avg # of iterations =  5.3

     total energy              =   -1192.25767195 Ry
     Harris-Foulkes estimate   =   -1192.25770718 Ry
     estimated scf accuracy    <       0.00010080 Ry

     iteration # 12     ecut=    40.00 Ry     beta=0.70
     CG style diagonalization
     ethr =  6.30E-08,  avg # of iterations =  4.0

     End of self-consistent calculation

[...]

          k = 0.0000 0.3540-0.2866 (  7466 PWs)   bands (ev):

[...]

          k =-0.4598 0.0885-0.2866 (  7446 PWs)   bands (ev):

   -26.5773 -26.5773 -26.3919 -26.3919 -26.1099 -26.1099 -26.0809 -26.0809
   -16.2286 -16.2286 -16.1524 -16.1524  -6.4105  -6.4105  -5.7760  -5.7760
    -5.3283  -5.3283  -5.2703  -5.2703  -5.1306  -5.1306  -4.9257  -4.9257
    -4.5955  -4.5955  -4.2948  -4.2948  -4.0904  -4.0904  -3.9490  -3.9490
    -3.6460  -3.6460  -3.5774  -3.5774   1.5792   1.5792   1.5998   1.5999
     1.7722   1.7722   2.0117   2.0117   2.2076   2.2076   2.2188   2.2188
    16.6212  16.6212  17.1157  17.1157  17.4789  17.4789  17.8700  17.8700
    17.9890  17.9890  18.0955  18.0955  18.2322  18.2323  18.4793  18.4794
    18.7255  18.7255  19.1145  19.1145  19.3825  19.3825  19.8485  19.8485
    20.1461  20.1461  20.5120  20.5120  20.7188  20.7188  21.2184  21.2184
    21.6977  21.6977  21.9426  21.9426  22.2386  22.2386  22.4663  22.4663
    22.7903  22.7903  23.5207  23.5207  23.6815  23.6815  24.0295  24.0301

     the Fermi energy is    21.4543 ev

!    total energy              =   -1192.25769563 Ry
     Harris-Foulkes estimate   =   -1192.25769739 Ry
     estimated scf accuracy    <       0.00000212 Ry

     The total energy is the sum of the following terms:

     one-electron contribution =      -4.87927495 Ry
     hartree contribution      =     115.71156842 Ry
     xc contribution           =    -146.31259926 Ry
     ewald contribution        =   -1155.96738026 Ry
     smearing contrib. (-TS)   =      -0.81000958 Ry

     convergence has been achieved in  12 iterations

     Forces acting on atoms (Ry/au):

     atom    1 type  1   force =     0.00000000    0.00000000    0.00113120
     atom    2 type  1   force =     0.00000000    0.00000000    0.00113120
     atom    3 type  1   force =     0.00000000    0.00000000   -0.00113120
     atom    4 type  1   force =     0.00000000    0.00000000   -0.00113120
     atom    5 type  2   force =     0.00000000    0.00000000    0.00000000
     atom    6 type  2   force =     0.00000000    0.00000000    0.00000000
     atom    7 type  2   force =     0.00000000    0.00071420    0.00000000
     atom    8 type  2   force =    -0.00061852    0.00035710    0.00000000
     atom    9 type  2   force =     0.00061852    0.00035710    0.00000000
     atom   10 type  2   force =    -0.00061852   -0.00035710    0.00000000
     atom   11 type  2   force =     0.00061852   -0.00035710    0.00000000
     atom   12 type  2   force =     0.00000000   -0.00071420    0.00000000

     Total force =     0.002860     Total SCF correction =     0.000000

     entering subroutine stress ...

          total   stress  (Ry/bohr**3)                   (kbar)     P=  225.77
   0.00155304   0.00000000   0.00000000        228.46      0.00      0.00
   0.00000000   0.00155304   0.00000000          0.00    228.46      0.00
   0.00000000   0.00000000   0.00149818          0.00      0.00    220.39

     Writing output data file Prototype-La-hP12-MgZn2.save

     General routines

     Parallel routines

   This run was terminated on:   0:59:48  22Mar2018

   JOB DONE.