     Program PWSCF v.5.0.2 starts on 22Mar2018 at  0:38:13

     Current dimensions of program PWSCF are:
     Max number of different atomic species (ntypx) = 10
     Max number of k-points (npk) =  40000
     Max angular momentum in pseudopotentials (lmaxx) =  3
     Waiting for input...
     Reading input from standard input

     Subspace diagonalization in iterative solution of the eigenvalue problem:
     a serial algorithm will be used

     bravais-lattice index     =            0
     lattice parameter (alat)  =       8.8008  a.u.
     unit-cell volume          =    1116.9454 (a.u.)^3
     number of atoms/cell      =           16
     number of atomic types    =            2
     number of electrons       =       200.00
     number of Kohn-Sham states=          120
     kinetic-energy cutoff     =      40.0000  Ry
     charge density cutoff     =     160.0000  Ry
     convergence threshold     =      1.0E-04
     mixing beta               =       0.7000
     number of iterations used =            8  plain     mixing
     Exchange-correlation      = SLA-PZ-NOGX-NOGC ( 1 1 0 0 0)
     EXX-fraction              =        0.00
     nstep                     =           50

     celldm(1)=   8.800765  celldm(2)=   0.000000  celldm(3)=   0.000000
     celldm(4)=   0.000000  celldm(5)=   0.000000  celldm(6)=   0.000000

     crystal axes: (cart. coord. in units of alat)
               a(1) = (   1.000000   0.000000   0.000000 )
               a(2) = (   0.000000   1.083771   0.000000 )
               a(3) = (   0.000000   0.000000   1.511935 )

     reciprocal axes: (cart. coord. in units 2 pi/alat)
               b(1) = (  1.000000  0.000000  0.000000 )
               b(2) = (  0.000000  0.922704  0.000000 )
               b(3) = (  0.000000  0.000000  0.661404 )

     PseudoPot. # 1 for Ce read from file:
     /home/jld5415/pp.La/Ce.UPF
     MD5 check sum: 44451aa79a44a00cf2bc029dc19922f6
     Pseudo is Norm-conserving, Zval = 12.0
     Generated in analytical, separable form
     Using radial grid of 1255 points,  6 beta functions with:
                l(1) =   0
                l(2) =   0
                l(3) =   1
                l(4) =   1
                l(5) =   2
                l(6) =   3

     PseudoPot. # 2 for Nd read from file:
     /home/jld5415/pp.La/Nd.UPF
     MD5 check sum: c66c5b6abe7b5840ced9b1e244e3bed6
     Pseudo is Norm-conserving, Zval = 14.0
     Generated in analytical, separable form
     Using radial grid of 1257 points,  6 beta functions with:
                l(1) =   0
                l(2) =   0
                l(3) =   1
                l(4) =   1
                l(5) =   2
                l(6) =   3

     atomic species   valence    mass     pseudopotential
        Fe            12.00    55.84500     Ce( 1.00)
        C             14.00    12.01070     Nd( 1.00)

      8 Sym. Ops., with inversion, found ( 6 have fractional translation)

   Cartesian axes

     site n.     atom                  positions (alat units)
         1           Fe  tau(   1) = (   0.3472940   0.1827628   1.3947267  )
         2           Fe  tau(   2) = (   0.1527060   0.7246484   0.8731757  )
         3           Fe  tau(   3) = (   0.8472940   0.3591227   0.6387592  )
         4           Fe  tau(   4) = (   0.3396640   0.4879235   0.3779837  )
         5           Fe  tau(   5) = (   0.1527060   0.7246484   1.3947267  )
         6           Fe  tau(   6) = (   0.3472940   0.1827628   0.8731757  )
         7           Fe  tau(   7) = (   0.1603360   1.0298091   0.3779837  )
         8           Fe  tau(   8) = (   0.6527060   0.9010083   0.6387592  )
         9           Fe  tau(   9) = (   0.8472940   0.3591227   0.1172082  )
        10           Fe  tau(  10) = (   0.6603360   0.5958476   1.1339512  )
        11           Fe  tau(  11) = (   0.6527060   0.9010083   0.1172082  )
        12           Fe  tau(  12) = (   0.8396640   0.0539620   1.1339512  )
        13           C   tau(  13) = (   0.0000000   0.0000000   0.0000000  )
        14           C   tau(  14) = (   0.5000000   0.5418856   0.0000000  )
        15           C   tau(  15) = (   0.5000000   0.5418856   0.7559674  )
        16           C   tau(  16) = (   0.0000000   0.0000000   0.7559674  )

     number of k points=    12  gaussian smearing, width (Ry)=  0.1000
                       cart. coord. in units 2pi/alat
        k(    1) = (   0.0000000   0.0000000   0.0000000), wk =   0.0833333
        k(    2) = (   0.0000000   0.0000000   0.1653510), wk =   0.1666667
        k(    3) = (   0.0000000   0.0000000  -0.3307021), wk =   0.0833333
        k(    4) = (   0.0000000   0.3075680   0.0000000), wk =   0.1666667
        k(    5) = (   0.0000000   0.3075680   0.1653510), wk =   0.3333333
        k(    6) = (   0.0000000   0.3075680  -0.3307021), wk =   0.1666667
        k(    7) = (  -0.5000000   0.0000000   0.0000000), wk =   0.0833333
        k(    8) = (  -0.5000000   0.0000000   0.1653510), wk =   0.1666667
        k(    9) = (  -0.5000000   0.0000000  -0.3307021), wk =   0.0833333
        k(   10) = (  -0.5000000   0.3075680   0.0000000), wk =   0.1666667
        k(   11) = (  -0.5000000   0.3075680   0.1653510), wk =   0.3333333
        k(   12) = (  -0.5000000   0.3075680  -0.3307021), wk =   0.1666667

     Largest allocated arrays     est. size (Mb)     dimensions
     Largest temporary arrays     est. size (Mb)     dimensions

     Initial potential from superposition of free atoms

     Starting from uniform charge
     Starting wfc are    0 randomized atomic wfcs

     Self-consistent Calculation

     iteration #  1     ecut=    40.00 Ry     beta=0.70
     CG style diagonalization
     c_bands:  5 eigenvalues not converged
     c_bands:  5 eigenvalues not converged
     c_bands:  5 eigenvalues not converged
     c_bands:  4 eigenvalues not converged
     ethr =  1.00E-02,  avg # of iterations = 15.9

     total energy              =    -930.30454797 Ry
     Harris-Foulkes estimate   =   -1570.15803957 Ry
     estimated scf accuracy    <     773.13053687 Ry

[...]

     iteration #  4     ecut=    40.00 Ry     beta=0.70
     CG style diagonalization
     ethr =  1.00E-02,  avg # of iterations =  3.4

[...]

     End of self-consistent calculation

          k = 0.0000 0.0000 0.0000 (  4785 PWs)   bands (ev):

   -12.6306 -12.2408 -11.6192 -11.2302  -0.4729  -0.4276  -0.0259   0.0627
     0.1891   0.7073   3.0595   3.9851   3.9910   5.4483   5.6956   5.7317
     5.7826   5.8197   5.9234   6.2171   6.2911   6.5677  14.0745  14.3945
    15.3059  16.0506  16.2360  16.7179  16.7469  17.0610  17.0963  17.1400
    18.1301  18.6312  18.7257  18.9586  20.8166  21.3165  22.1981  22.6557
    22.7164  22.7189  23.0684  23.3857  23.4059  23.8396  23.8438  24.5680
    24.9011  24.9212  25.5000  25.6284  25.6852  26.0196  26.0811  26.1846
    26.3724  26.7961  29.5344  30.0644  30.1311  30.4555  30.8749  31.7369
    32.2926  32.3326  32.3801  32.7813  33.5814  34.1182  34.3533  35.4546
    36.1336  36.4387  37.1347  37.7424  38.1617  38.2616  38.5840  39.0249
    39.1700  39.7548  40.4015  40.6715  40.7285  41.0921  42.4689  43.1280
    43.1352  43.1474  43.3975  43.5177  43.7442  43.7639  43.9409  44.1596
    44.3123  44.4302  44.6837  44.9654  45.0748  45.3979  45.5995  45.6629
    45.7502  45.7716  46.5926  46.7515  46.8177  47.1364  47.4389  47.5142
    48.1777  48.1945  48.3452  48.9954  49.1871  49.2687  49.3435  49.7977

[...]

          k =-0.5000 0.0000 0.0000 (  4798 PWs)   bands (ev):

[...]

     the Fermi energy is    45.2106 ev

!    total energy              =   -1334.27599598 Ry
     Harris-Foulkes estimate   =   -1334.27601201 Ry
     estimated scf accuracy    <       0.00002274 Ry

     The total energy is the sum of the following terms:

     one-electron contribution =     411.31618448 Ry
     hartree contribution      =     104.10255780 Ry
     xc contribution           =    -204.75639556 Ry
     ewald contribution        =   -1644.39002853 Ry
     smearing contrib. (-TS)   =      -0.54831417 Ry

     convergence has been achieved in  10 iterations

     Forces acting on atoms (Ry/au):

     atom    1 type  1   force =     0.90219524   -0.90865221   -1.31959837
     atom    2 type  1   force =    -0.90219524   -0.90865221    1.31959837
     atom    3 type  1   force =     0.90219524    0.90865221   -1.31959837
     atom    4 type  1   force =    -1.50536906   -0.56918006    0.00000000
     atom    5 type  1   force =    -0.90219524   -0.90865221   -1.31959837
     atom    6 type  1   force =     0.90219524   -0.90865221    1.31959837
     atom    7 type  1   force =     1.50536906   -0.56918006    0.00000000
     atom    8 type  1   force =    -0.90219524    0.90865221   -1.31959837
     atom    9 type  1   force =     0.90219524    0.90865221    1.31959837
     atom   10 type  1   force =     1.50536906    0.56918006    0.00000000
     atom   11 type  1   force =    -0.90219524    0.90865221    1.31959837
     atom   12 type  1   force =    -1.50536906    0.56918006    0.00000000
     atom   13 type  2   force =     0.00000000    0.00000000    0.00000000
     atom   14 type  2   force =     0.00000000    0.00000000    0.00000000
     atom   15 type  2   force =     0.00000000    0.00000000    0.00000000
     atom   16 type  2   force =     0.00000000    0.00000000    0.00000000

     Total force =     6.116205     Total SCF correction =     0.000000

     entering subroutine stress ...

          total   stress  (Ry/bohr**3)                   (kbar)     P=10922.12
   0.07439793   0.00000000   0.00000000      10944.31      0.00      0.00
   0.00000000   0.07450702   0.00000000          0.00  10960.36      0.00
   0.00000000   0.00000000   0.07383626          0.00      0.00  10861.69

     BFGS Geometry Optimization

     number of scf cycles    =   1
     number of bfgs steps    =   0

     enthalpy new            =   -1334.2759959756 Ry

     new trust radius        =       0.5000000000 bohr
     new conv_thr            =       0.0001000000 Ry

     new unit-cell volume =   1385.80824 a.u.^3 (   205.35559 Ang^3 )

CELL_PARAMETERS (alat=  8.80076499)
   1.074694339   0.000000000   0.000000000
   0.000000000   1.164841411   0.000000000
   0.000000000   0.000000000   1.624015254

ATOMIC_POSITIONS (crystal)
Fe       0.351410868   0.164810163   0.918495323
Fe       0.148589132   0.664810163   0.581504677
Fe       0.851410868   0.335189837   0.418495323
Fe       0.332794749   0.447812494   0.250000000
Fe       0.148589132   0.664810163   0.918495323
Fe       0.351410868   0.164810163   0.581504677
Fe       0.167205251   0.947812494   0.250000000
Fe       0.648589132   0.835189837   0.418495323
Fe       0.851410868   0.335189837   0.081504677
Fe       0.667205251   0.552187506   0.750000000
Fe       0.648589132   0.835189837   0.081504677
Fe       0.832794749   0.052187506   0.750000000
C        0.000000000   0.000000000   0.000000000
C        0.500000000   0.500000000   0.000000000
C        0.500000000   0.500000000   0.500000000
C        0.000000000   0.000000000   0.500000000

     Writing output data file Prototype-La-oP16-Fe3C.save
     NEW-OLD atomic charge density approx. for the potential
     NEW k-points:
        k(    1) = (   0.0000000   0.0000000   0.0000000), wk =   0.0833333
        k(    2) = (   0.0000000   0.0000000   0.1539394), wk =   0.1666667
        k(    3) = (   0.0000000   0.0000000  -0.3078789), wk =   0.0833333
        k(    4) = (   0.0000000   0.2861620   0.0000000), wk =   0.1666667
        k(    5) = (   0.0000000   0.2861620   0.1539394), wk =   0.3333333
        k(    6) = (   0.0000000   0.2861620  -0.3078789), wk =   0.1666667
        k(    7) = (  -0.4652486   0.0000000   0.0000000), wk =   0.0833333
        k(    8) = (  -0.4652486   0.0000000   0.1539394), wk =   0.1666667
        k(    9) = (  -0.4652486   0.0000000  -0.3078789), wk =   0.0833333
        k(   10) = (  -0.4652486   0.2861620   0.0000000), wk =   0.1666667
        k(   11) = (  -0.4652486   0.2861620   0.1539394), wk =   0.3333333
        k(   12) = (  -0.4652486   0.2861620  -0.3078789), wk =   0.1666667

[...]

          total   stress  (Ry/bohr**3)                   (kbar)     P= 5339.50
   0.03648364   0.00000000   0.00000000       5366.93      0.00      0.00
   0.00000000   0.03588111   0.00000000          0.00   5278.29      0.00
   0.00000000   0.00000000   0.03652689          0.00      0.00   5373.29

[...]

     enthalpy old            =   -1334.2759959756 Ry
     enthalpy new            =   -1349.7326241904 Ry

     CASE: enthalpy_new < enthalpy_old

     small trust_radius: resetting bfgs history

     new trust radius        =       6.7988308890 bohr
     new conv_thr            =       0.0001000000 Ry

[...]

     number of scf cycles    =   3
     number of bfgs steps    =   2

     enthalpy old            =   -1349.7326241904 Ry
     enthalpy new            =   -1330.4190275978 Ry

     CASE: enthalpy_new > enthalpy_old

     new trust radius        =       4.1439675943 bohr

     trust_radius < trust_radius_min

     resetting bfgs history

     Message from routine bfgs:
     history already reset at previous step: stopping
     new conv_thr            =       0.0001000000 Ry

     new unit-cell volume =   1595.91287 a.u.^3 (   236.48989 Ang^3 )

[...]

ATOMIC_POSITIONS (crystal)
Fe       0.352943166   0.163388630   0.917072475
Fe       0.147056834   0.663388630   0.582927525
Fe       0.852943166   0.336611370   0.417072475
Fe       0.330250461   0.446870224   0.250000000
Fe       0.147056834   0.663388630   0.917072475
Fe       0.352943166   0.163388630   0.582927525
Fe       0.169749539   0.946870224   0.250000000
Fe       0.647056834   0.836611370   0.417072475
Fe       0.852943166   0.336611370   0.082927525
Fe       0.669749539   0.553129776   0.750000000
Fe       0.647056834   0.836611370   0.082927525
Fe       0.830250461   0.053129776   0.750000000
C        0.000000000   0.000000000   0.000000000
C        0.500000000   0.500000000   0.000000000
C        0.500000000   0.500000000   0.500000000
C        0.000000000   0.000000000   0.500000000

     Writing output data file Prototype-La-oP16-Fe3C.save
     NEW-OLD atomic charge density approx. for the potential
     NEW k-points:
        k(    1) = (   0.0000000   0.0000000   0.0000000), wk =   0.0833333
        k(    2) = (   0.0000000   0.0000000   0.1467806), wk =   0.1666667
        k(    3) = (   0.0000000   0.0000000  -0.2935612), wk =   0.0833333
        k(    4) = (   0.0000000   0.2732887   0.0000000), wk =   0.1666667
        k(    5) = (   0.0000000   0.2732887   0.1467806), wk =   0.3333333
        k(    6) = (   0.0000000   0.2732887  -0.2935612), wk =   0.1666667
        k(    7) = (  -0.4436602   0.0000000   0.0000000), wk =   0.0833333
        k(    8) = (  -0.4436602   0.0000000   0.1467806), wk =   0.1666667
        k(    9) = (  -0.4436602   0.0000000  -0.2935612), wk =   0.0833333
        k(   10) = (  -0.4436602   0.2732887   0.0000000), wk =   0.1666667
        k(   11) = (  -0.4436602   0.2732887   0.1467806), wk =   0.3333333
        k(   12) = (  -0.4436602   0.2732887  -0.2935612), wk =   0.1666667

[...]

     The maximum number of steps has been reached.

     End of BFGS Geometry Optimization
Begin final coordinates
     new unit-cell volume =   1595.91287 a.u.^3 (   236.48989 Ang^3 )

CELL_PARAMETERS (alat=  8.80076499)
   1.126988582   0.000000000   0.000000000
   0.000000000   1.219711239   0.000000000
   0.000000000   0.000000000   1.703222415

ATOMIC_POSITIONS (crystal)
Fe       0.352943166   0.163388630   0.917072475
Fe       0.147056834   0.663388630   0.582927525
Fe       0.852943166   0.336611370   0.417072475
Fe       0.330250461   0.446870224   0.250000000
Fe       0.147056834   0.663388630   0.917072475
Fe       0.352943166   0.163388630   0.582927525
Fe       0.169749539   0.946870224   0.250000000
Fe       0.647056834   0.836611370   0.417072475
Fe       0.852943166   0.336611370   0.082927525
Fe       0.669749539   0.553129776   0.750000000
Fe       0.647056834   0.836611370   0.082927525
Fe       0.830250461   0.053129776   0.750000000
C        0.000000000   0.000000000   0.000000000
C        0.500000000   0.500000000   0.000000000
C        0.500000000   0.500000000   0.500000000
C        0.000000000   0.000000000   0.500000000
End final coordinates

     A final scf calculation at the relaxed structure.
     The G-vectors are recalculated for the final unit cell
     Results may differ from those at the preceding step.

     bravais-lattice index     =            0
     lattice parameter (alat)  =       8.8008  a.u.
     unit-cell volume          =    1595.9129 (a.u.)^3
     number of atoms/cell      =           16
     number of atomic types    =            2
     number of electrons       =       200.00
     number of Kohn-Sham states=          120
     kinetic-energy cutoff     =      40.0000  Ry
     charge density cutoff     =     160.0000  Ry
     convergence threshold     =      1.0E-04
     mixing beta               =       0.7000
     number of iterations used =            8  plain     mixing
     Exchange-correlation      = SLA-PZ-NOGX-NOGC ( 1 1 0 0 0)
     EXX-fraction              =        0.00

     celldm(1)=   8.800765  celldm(2)=   0.000000  celldm(3)=   0.000000
     celldm(4)=   0.000000  celldm(5)=   0.000000  celldm(6)=   0.000000

     crystal axes: (cart. coord. in units of alat)
               a(1) = (   1.126989   0.000000   0.000000 )
               a(2) = (   0.000000   1.219711   0.000000 )
               a(3) = (   0.000000   0.000000   1.703222 )

     reciprocal axes: (cart. coord. in units 2 pi/alat)
               b(1) = (  0.887320  0.000000  0.000000 )
               b(2) = (  0.000000  0.819866  0.000000 )
               b(3) = (  0.000000  0.000000  0.587122 )

     PseudoPot. # 1 for Ce read from file:
     /home/jld5415/pp.La/Ce.UPF
     MD5 check sum: 44451aa79a44a00cf2bc029dc19922f6
     Pseudo is Norm-conserving, Zval = 12.0
     Generated in analytical, separable form
     Using radial grid of 1255 points,  6 beta functions with:
                l(1) =   0
                l(2) =   0
                l(3) =   1
                l(4) =   1
                l(5) =   2
                l(6) =   3

     PseudoPot. # 2 for Nd read from file:
     /home/jld5415/pp.La/Nd.UPF
     MD5 check sum: c66c5b6abe7b5840ced9b1e244e3bed6
     Pseudo is Norm-conserving, Zval = 14.0
     Generated in analytical, separable form
     Using radial grid of 1257 points,  6 beta functions with:
                l(1) =   0
                l(2) =   0
                l(3) =   1
                l(4) =   1
                l(5) =   2
                l(6) =   3

     atomic species   valence    mass     pseudopotential
        Fe            12.00    55.84500     Ce( 1.00)
        C             14.00    12.01070     Nd( 1.00)

      8 Sym. Ops., with inversion, found ( 6 have fractional translation)

   Cartesian axes

     site n.     atom                  positions (alat units)
         1           Fe  tau(   1) = (   0.3977629   0.1992869   1.5619784  )
         2           Fe  tau(   2) = (   0.1657314   0.8091426   0.9928552  )
         3           Fe  tau(   3) = (   0.9612572   0.4105687   0.7103672  )
         4           Fe  tau(   4) = (   0.3721885   0.5450526   0.4258056  )
         5           Fe  tau(   5) = (   0.1657314   0.8091426   1.5619784  )
         6           Fe  tau(   6) = (   0.3977629   0.1992869   0.9928552  )
         7           Fe  tau(   7) = (   0.1913058   1.1549083   0.4258056  )
         8           Fe  tau(   8) = (   0.7292257   1.0204243   0.7103672  )
         9           Fe  tau(   9) = (   0.9612572   0.4105687   0.1412440  )
        10           Fe  tau(  10) = (   0.7548001   0.6746586   1.2774168  )
        11           Fe  tau(  11) = (   0.7292257   1.0204243   0.1412440  )
        12           Fe  tau(  12) = (   0.9356828   0.0648030   1.2774168  )
        13           C   tau(  13) = (   0.0000000   0.0000000   0.0000000  )
        14           C   tau(  14) = (   0.5634943   0.6098556   0.0000000  )
        15           C   tau(  15) = (   0.5634943   0.6098556   0.8516112  )
        16           C   tau(  16) = (   0.0000000   0.0000000   0.8516112  )

     number of k points=    12  gaussian smearing, width (Ry)=  0.1000
                       cart. coord. in units 2pi/alat
        k(    1) = (   0.0000000   0.0000000   0.0000000), wk =   0.0833333
        k(    2) = (   0.0000000   0.0000000   0.1467806), wk =   0.1666667
        k(    3) = (   0.0000000   0.0000000  -0.2935612), wk =   0.0833333
        k(    4) = (   0.0000000   0.2732887   0.0000000), wk =   0.1666667
        k(    5) = (   0.0000000   0.2732887   0.1467806), wk =   0.3333333
        k(    6) = (   0.0000000   0.2732887  -0.2935612), wk =   0.1666667
        k(    7) = (  -0.4436602   0.0000000   0.0000000), wk =   0.0833333
        k(    8) = (  -0.4436602   0.0000000   0.1467806), wk =   0.1666667
        k(    9) = (  -0.4436602   0.0000000  -0.2935612), wk =   0.0833333
        k(   10) = (  -0.4436602   0.2732887   0.0000000), wk =   0.1666667
        k(   11) = (  -0.4436602   0.2732887   0.1467806), wk =   0.3333333
        k(   12) = (  -0.4436602   0.2732887  -0.2935612), wk =   0.1666667

     Largest allocated arrays     est. size (Mb)     dimensions
     Largest temporary arrays     est. size (Mb)     dimensions

     Initial potential from superposition of free atoms

     Starting from uniform charge
     Starting wfc are    0 randomized atomic wfcs

     Writing output data file Prototype-La-oP16-Fe3C.save

     Self-consistent Calculation

[...]

     iteration #  9     ecut=    40.00 Ry     beta=0.70
     CG style diagonalization
     c_bands:  1 eigenvalues not converged
     c_bands:  1 eigenvalues not converged
     c_bands:  2 eigenvalues not converged
     ethr =  2.44E-06,  avg # of iterations =  4.9

     total energy              =   -1356.96226090 Ry
     Harris-Foulkes estimate   =   -1356.96255749 Ry
     estimated scf accuracy    <       0.00063708 Ry

     iteration # 10     ecut=    40.00 Ry     beta=0.70
     CG style diagonalization
     ethr =  3.19E-07,  avg # of iterations =  4.2

     End of self-consistent calculation

[...]

          k = 0.0000 0.2733-0.2936 (  6792 PWs)   bands (ev):

[...]

          k =-0.4437 0.2733-0.2936 (  6832 PWs)   bands (ev):

   -19.7736 -19.7736 -19.7732 -19.7732  -8.7256  -8.7256  -8.7216  -8.7216
    -7.6947  -7.6947  -7.5002  -7.5002  -6.7817  -6.7817  -6.7689  -6.7689
    -0.7843  -0.7843  -0.7635  -0.7635   0.8874   0.8874   0.9501   0.9501
     2.4042   2.4042   2.4126   2.4126   8.4343   8.4343   8.6284   8.6284
     9.1003   9.1003   9.2310   9.2310   9.7051   9.7051  10.0506  10.0506
    10.5191  10.5191  10.9714  10.9714  11.3156  11.3156  11.8179  11.8179
    11.8723  11.8723  12.4153  12.4153  12.8153  12.8153  13.0964  13.0964
    13.4385  13.4385  13.7845  13.7845  14.6489  14.6489  14.7917  14.7917
    22.7905  22.7905  22.9475  22.9475  23.7765  23.7765  24.4815  24.4815
    24.9114  24.9114  25.3132  25.3132  27.1830  27.1830  27.7739  27.7739
    27.9796  27.9796  28.6755  28.6755  28.7940  28.7940  29.1227  29.1227
    29.6491  29.6491  30.2280  30.2280  30.5444  30.5444  30.6341  30.6341
    30.9661  30.9661  31.3134  31.3134  32.3020  32.3020  32.3812  32.3812
    32.6855  32.6855  33.3184  33.3184  33.5625  33.5625  34.2950  34.2951
    34.4219  34.4220  34.4289  34.4290  35.0965  35.0966  35.3879  35.3883

     the Fermi energy is    31.6688 ev

!    total energy              =   -1356.96242411 Ry
     Harris-Foulkes estimate   =   -1356.96247225 Ry
     estimated scf accuracy    <       0.00005625 Ry

     The total energy is the sum of the following terms:

     one-electron contribution =     179.14047344 Ry
     hartree contribution      =     126.62517073 Ry
     xc contribution           =    -190.39608492 Ry
     ewald contribution        =   -1471.65738814 Ry
     smearing contrib. (-TS)   =      -0.67459522 Ry

     convergence has been achieved in  10 iterations

     Forces acting on atoms (Ry/au):

     atom    1 type  1   force =     0.33683131   -0.35354408   -0.47508514
     atom    2 type  1   force =    -0.33683131   -0.35354408    0.47508514
     atom    3 type  1   force =     0.33683131    0.35354408   -0.47508514
     atom    4 type  1   force =    -0.56450702   -0.23425574    0.00000000
     atom    5 type  1   force =    -0.33683131   -0.35354408   -0.47508514
     atom    6 type  1   force =     0.33683131   -0.35354408    0.47508514
     atom    7 type  1   force =     0.56450702   -0.23425574    0.00000000
     atom    8 type  1   force =    -0.33683131    0.35354408   -0.47508514
     atom    9 type  1   force =     0.33683131    0.35354408    0.47508514
     atom   10 type  1   force =     0.56450702    0.23425574    0.00000000
     atom   11 type  1   force =    -0.33683131    0.35354408    0.47508514
     atom   12 type  1   force =    -0.56450702    0.23425574    0.00000000
     atom   13 type  2   force =     0.00000000    0.00000000    0.00000000
     atom   14 type  2   force =     0.00000000    0.00000000    0.00000000
     atom   15 type  2   force =     0.00000000    0.00000000    0.00000000
     atom   16 type  2   force =     0.00000000    0.00000000    0.00000000

     Total force =     2.281976     Total SCF correction =     0.000000

     entering subroutine stress ...

          total   stress  (Ry/bohr**3)                   (kbar)     P= 3240.97
   0.02213946   0.00000000   0.00000000       3256.83      0.00      0.00
   0.00000000   0.02169829   0.00000000          0.00   3191.93      0.00
   0.00000000   0.00000000   0.02225731          0.00      0.00   3274.16

     Writing output data file Prototype-La-oP16-Fe3C.save

     General routines

     Parallel routines

   This run was terminated on:   1:16:57  22Mar2018

   JOB DONE.