     Program PWSCF v.5.0.2 starts on 22Mar2018 at  0:36:53

     Current dimensions of program PWSCF are:
     Max number of different atomic species (ntypx) = 10
     Max number of k-points (npk) =  40000
     Max angular momentum in pseudopotentials (lmaxx) =  3
     Waiting for input...
     Reading input from standard input

     Subspace diagonalization in iterative solution of the eigenvalue problem:
     a serial algorithm will be used

     bravais-lattice index     =            0
     lattice parameter (alat)  =       8.5346  a.u.
     unit-cell volume          =     621.6493 (a.u.)^3
     number of atoms/cell      =            8
     number of atomic types    =            2
     number of electrons       =       100.00
     number of Kohn-Sham states=           60
     kinetic-energy cutoff     =      40.0000  Ry
     charge density cutoff     =     160.0000  Ry
     convergence threshold     =      1.0E-04
     mixing beta               =       0.7000
     number of iterations used =            8  plain     mixing
     Exchange-correlation      = SLA-PZ-NOGX-NOGC ( 1 1 0 0 0)
     EXX-fraction              =        0.00
     nstep                     =           50

     celldm(1)=   8.534573  celldm(2)=   0.000000  celldm(3)=   0.000000
     celldm(4)=   0.000000  celldm(5)=   0.000000  celldm(6)=   0.000000

     crystal axes: (cart. coord. in units of alat)
               a(1) = (   1.000000   0.000000   0.000000 )
               a(2) = (   0.000000   1.000000   0.000000 )
               a(3) = (   0.000000   0.000000   1.000000 )

     reciprocal axes: (cart. coord. in units 2 pi/alat)
               b(1) = (  1.000000  0.000000  0.000000 )
               b(2) = (  0.000000  1.000000  0.000000 )
               b(3) = (  0.000000  0.000000  1.000000 )

     PseudoPot. # 1 for Ce read from file:
     /home/jld5415/pp.La/Ce.UPF
     MD5 check sum: 44451aa79a44a00cf2bc029dc19922f6
     Pseudo is Norm-conserving, Zval = 12.0
     Generated in analytical, separable form
     Using radial grid of 1255 points,  6 beta functions with:
                l(1) =   0
                l(2) =   0
                l(3) =   1
                l(4) =   1
                l(5) =   2
                l(6) =   3

     PseudoPot. # 2 for Nd read from file:
     /home/jld5415/pp.La/Nd.UPF
     MD5 check sum: c66c5b6abe7b5840ced9b1e244e3bed6
     Pseudo is Norm-conserving, Zval = 14.0
     Generated in analytical, separable form
     Using radial grid of 1257 points,  6 beta functions with:
                l(1) =   0
                l(2) =   0
                l(3) =   1
                l(4) =   1
                l(5) =   2
                l(6) =   3

     atomic species   valence    mass     pseudopotential
        Cr            12.00    51.99610     Ce( 1.00)
        Si            14.00    28.08550     Nd( 1.00)

     48 Sym. Ops., with inversion, found (24 have fractional translation)

   Cartesian axes

     site n.     atom                  positions (alat units)
         1           Cr  tau(   1) = (   0.0000000   0.5000000   0.2500000  )
         2           Cr  tau(   2) = (   0.0000000   0.5000000   0.7500000  )
         3           Cr  tau(   3) = (   0.5000000   0.7500000   0.0000000  )
         4           Cr  tau(   4) = (   0.5000000   0.2500000   0.0000000  )
         5           Cr  tau(   5) = (   0.7500000   0.0000000   0.5000000  )
         6           Cr  tau(   6) = (   0.2500000   0.0000000   0.5000000  )
         7           Si  tau(   7) = (   0.5000000   0.5000000   0.5000000  )
         8           Si  tau(   8) = (   0.0000000   0.0000000   0.0000000  )

     number of k points=    48  gaussian smearing, width (Ry)=  0.1000
                       cart. coord. in units 2pi/alat
        k(    1) = (   0.0000000   0.0000000   0.0000000), wk =   0.0095238
        k(    2) = (   0.0000000   0.0000000   0.1428571), wk =   0.0190476
        k(    3) = (   0.0000000   0.0000000   0.2857143), wk =   0.0190476
        k(    4) = (   0.0000000   0.0000000   0.4285714), wk =   0.0190476
        k(    5) = (   0.0000000   0.1666667   0.0000000), wk =   0.0190476
        k(    6) = (   0.0000000   0.1666667   0.1428571), wk =   0.0380952
        k(    7) = (   0.0000000   0.1666667   0.2857143), wk =   0.0380952
        k(    8) = (   0.0000000   0.1666667   0.4285714), wk =   0.0380952
        k(    9) = (   0.0000000   0.3333333   0.0000000), wk =   0.0190476
        k(   10) = (   0.0000000   0.3333333   0.1428571), wk =   0.0380952
        k(   11) = (   0.0000000   0.3333333   0.2857143), wk =   0.0380952
        k(   12) = (   0.0000000   0.3333333   0.4285714), wk =   0.0380952
        k(   13) = (   0.0000000  -0.5000000   0.0000000), wk =   0.0095238
        k(   14) = (   0.0000000  -0.5000000   0.1428571), wk =   0.0190476
        k(   15) = (   0.0000000  -0.5000000   0.2857143), wk =   0.0190476
        k(   16) = (   0.0000000  -0.5000000   0.4285714), wk =   0.0190476
        k(   17) = (   0.2000000   0.0000000   0.0000000), wk =   0.0190476
        k(   18) = (   0.2000000   0.0000000   0.1428571), wk =   0.0380952
        k(   19) = (   0.2000000   0.0000000   0.2857143), wk =   0.0380952
        k(   20) = (   0.2000000   0.0000000   0.4285714), wk =   0.0380952
        k(   21) = (   0.2000000   0.1666667   0.0000000), wk =   0.0380952
        k(   22) = (   0.2000000   0.1666667   0.1428571), wk =   0.0761905
        k(   23) = (   0.2000000   0.1666667   0.2857143), wk =   0.0761905
        k(   24) = (   0.2000000   0.1666667   0.4285714), wk =   0.0761905
        k(   25) = (   0.2000000   0.3333333   0.0000000), wk =   0.0380952
        k(   26) = (   0.2000000   0.3333333   0.1428571), wk =   0.0761905
        k(   27) = (   0.2000000   0.3333333   0.2857143), wk =   0.0761905
        k(   28) = (   0.2000000   0.3333333   0.4285714), wk =   0.0761905
        k(   29) = (   0.2000000  -0.5000000   0.0000000), wk =   0.0190476
        k(   30) = (   0.2000000  -0.5000000   0.1428571), wk =   0.0380952
        k(   31) = (   0.2000000  -0.5000000   0.2857143), wk =   0.0380952
        k(   32) = (   0.2000000  -0.5000000   0.4285714), wk =   0.0380952
        k(   33) = (   0.4000000   0.0000000   0.0000000), wk =   0.0190476
        k(   34) = (   0.4000000   0.0000000   0.1428571), wk =   0.0380952
        k(   35) = (   0.4000000   0.0000000   0.2857143), wk =   0.0380952
        k(   36) = (   0.4000000   0.0000000   0.4285714), wk =   0.0380952
        k(   37) = (   0.4000000   0.1666667   0.0000000), wk =   0.0380952
        k(   38) = (   0.4000000   0.1666667   0.1428571), wk =   0.0761905
        k(   39) = (   0.4000000   0.1666667   0.2857143), wk =   0.0761905
        k(   40) = (   0.4000000   0.1666667   0.4285714), wk =   0.0761905
        k(   41) = (   0.4000000   0.3333333   0.0000000), wk =   0.0380952
        k(   42) = (   0.4000000   0.3333333   0.1428571), wk =   0.0761905
        k(   43) = (   0.4000000   0.3333333   0.2857143), wk =   0.0761905
        k(   44) = (   0.4000000   0.3333333   0.4285714), wk =   0.0761905
        k(   45) = (   0.4000000  -0.5000000   0.0000000), wk =   0.0190476
        k(   46) = (   0.4000000  -0.5000000   0.1428571), wk =   0.0380952
        k(   47) = (   0.4000000  -0.5000000   0.2857143), wk =   0.0380952
        k(   48) = (   0.4000000  -0.5000000   0.4285714), wk =   0.0380952

     Largest allocated arrays     est. size (Mb)     dimensions
     Largest temporary arrays     est. size (Mb)     dimensions

     Initial potential from superposition of free atoms

     Starting from uniform charge
     Starting wfc are    0 randomized atomic wfcs

     Self-consistent Calculation

     iteration #  1     ecut=    40.00 Ry     beta=0.70
     CG style diagonalization
     c_bands:  1 eigenvalues not converged
     c_bands:  1 eigenvalues not converged
     c_bands:  1 eigenvalues not converged
     c_bands:  1 eigenvalues not converged
     ethr =  1.00E-02,  avg # of iterations = 11.3

     total energy              =    -654.90741633 Ry
     Harris-Foulkes estimate   =    -702.63111159 Ry
     estimated scf accuracy    <      65.64458990 Ry

     iteration #  2     ecut=    40.00 Ry     beta=0.70
     CG style diagonalization
     ethr =  1.00E-02,  avg # of iterations =  6.2

[...]

     End of self-consistent calculation

          k = 0.0000 0.0000 0.0000 (  2601 PWs)   bands (ev):

    -8.9356  -8.4218  -1.1447   0.1214   0.1214   3.3706   3.3706   3.3706
    10.7322  10.7322  10.7322  11.3614  11.3614  11.3614  12.0942  12.0942
    14.1280  18.2330  18.2330  18.2330  18.4154  18.4154  18.4154  21.1594
    21.1594  21.1594  22.2028  22.2028  22.2028  27.5409  27.5409  27.5409
    33.9595  34.0405  34.0405  34.0405  34.5892  34.5892  34.7145  38.3453
    38.3453  38.3453  38.4330  38.4330  38.6845  38.7431  38.7431  38.7431
    39.6744  39.6744  40.0322  40.0322  40.0322  43.9245  43.9247  43.9246
    44.0580  44.3764  44.3769  44.3812

[...]

     the Fermi energy is    41.0354 ev

!    total energy              =    -677.97228059 Ry
     Harris-Foulkes estimate   =    -677.97227832 Ry
     estimated scf accuracy    <       0.00001007 Ry

     The total energy is the sum of the following terms:

     one-electron contribution =     246.53573567 Ry
     hartree contribution      =      19.46153962 Ry
     xc contribution           =     -97.54085435 Ry
     ewald contribution        =    -846.18455522 Ry
     smearing contrib. (-TS)   =      -0.24414631 Ry

     convergence has been achieved in   6 iterations

     Forces acting on atoms (Ry/au):

     atom    1 type  1   force =     0.00000000    0.00000000    0.00000000
     atom    2 type  1   force =     0.00000000    0.00000000    0.00000000
     atom    3 type  1   force =     0.00000000    0.00000000    0.00000000
     atom    4 type  1   force =     0.00000000    0.00000000    0.00000000
     atom    5 type  1   force =     0.00000000    0.00000000    0.00000000
     atom    6 type  1   force =     0.00000000    0.00000000    0.00000000
     atom    7 type  2   force =     0.00000000    0.00000000    0.00000000
     atom    8 type  2   force =     0.00000000    0.00000000    0.00000000

     Total force =     0.000000     Total SCF correction =     0.000000

     entering subroutine stress ...

          total   stress  (Ry/bohr**3)                   (kbar)     P= 4824.58
   0.03279680   0.00000000   0.00000000       4824.58      0.00      0.00
   0.00000000   0.03279680   0.00000000          0.00   4824.58      0.00
   0.00000000   0.00000000   0.03279680          0.00      0.00   4824.58

     BFGS Geometry Optimization

     number of scf cycles    =   1
     number of bfgs steps    =   0

     enthalpy new            =    -677.9722805915 Ry

     new trust radius        =       0.5000000000 bohr
     new conv_thr            =       0.0001000000 Ry

     new unit-cell volume =    828.02266 a.u.^3 (   122.70030 Ang^3 )

CELL_PARAMETERS (alat=  8.53457320)
   1.100269143   0.000000000   0.000000000
   0.000000000   1.100269143   0.000000000
   0.000000000   0.000000000   1.100269143

ATOMIC_POSITIONS (crystal)
[...]
        k(   44) = (   0.3635474   0.3029562   0.3895151), wk =   0.0761905
        k(   45) = (   0.3635474  -0.4544343   0.0000000), wk =   0.0190476
        k(   46) = (   0.3635474  -0.4544343   0.1298384), wk =   0.0380952
        k(   47) = (   0.3635474  -0.4544343   0.2596767), wk =   0.0380952
        k(   48) = (   0.3635474  -0.4544343   0.3895151), wk =   0.0380952

[...]

     enthalpy old            =    -677.9722805915 Ry
     enthalpy new            =    -681.8921138315 Ry

     CASE: enthalpy_new < enthalpy_old

     small trust_radius: resetting bfgs history

     new trust radius        =       1.3612221673 bohr
     new conv_thr            =       0.0000010000 Ry

[...]

     number of scf cycles    =   3
     number of bfgs steps    =   2

     enthalpy old            =    -681.8921138315 Ry
     enthalpy new            =    -681.0593732182 Ry

     CASE: enthalpy_new > enthalpy_old

     new trust radius        =       0.6582271863 bohr

     trust_radius < trust_radius_min

     resetting bfgs history

     Message from routine bfgs:
     history already reset at previous step: stopping
     new conv_thr            =       0.0000010000 Ry

     new unit-cell volume =   1037.66105 a.u.^3 (   153.76550 Ang^3 )

[...]

ATOMIC_POSITIONS (crystal)
Cr       0.000000000   0.500000000   0.250000000
Cr       0.000000000   0.500000000   0.750000000
Cr       0.500000000   0.750000000   0.000000000
Cr       0.500000000   0.250000000   0.000000000
Cr       0.750000000   0.000000000   0.500000000
Cr       0.250000000   0.000000000   0.500000000
Si       0.500000000   0.500000000   0.500000000
Si       0.000000000   0.000000000   0.000000000

     Writing output data file Prototype-La-cP8-Cr3Si.save
     NEW-OLD atomic charge density approx. for the potential
     NEW k-points:
        k(    1) = (   0.0000000   0.0000000   0.0000000), wk =   0.0095238
        k(    2) = (   0.0000000   0.0000000   0.1204292), wk =   0.0190476
        k(    3) = (   0.0000000   0.0000000   0.2408585), wk =   0.0190476
        k(    4) = (   0.0000000   0.0000000   0.3612877), wk =   0.0190476
        k(    5) = (   0.0000000   0.1405008   0.0000000), wk =   0.0190476
        k(    6) = (   0.0000000   0.1405008   0.1204292), wk =   0.0380952
        k(    7) = (   0.0000000   0.1405008   0.2408585), wk =   0.0380952
        k(    8) = (   0.0000000   0.1405008   0.3612877), wk =   0.0380952
        k(    9) = (   0.0000000   0.2810015   0.0000000), wk =   0.0190476
        k(   10) = (   0.0000000   0.2810015   0.1204292), wk =   0.0380952
        k(   11) = (   0.0000000   0.2810015   0.2408585), wk =   0.0380952
        k(   12) = (   0.0000000   0.2810015   0.3612877), wk =   0.0380952
        k(   13) = (   0.0000000  -0.4215023   0.0000000), wk =   0.0095238
        k(   14) = (   0.0000000  -0.4215023   0.1204292), wk =   0.0190476
        k(   15) = (   0.0000000  -0.4215023   0.2408585), wk =   0.0190476
        k(   16) = (   0.0000000  -0.4215023   0.3612877), wk =   0.0190476
        k(   17) = (   0.1686009   0.0000000   0.0000000), wk =   0.0190476
        k(   18) = (   0.1686009   0.0000000   0.1204292), wk =   0.0380952
        k(   19) = (   0.1686009   0.0000000   0.2408585), wk =   0.0380952
        k(   20) = (   0.1686009   0.0000000   0.3612877), wk =   0.0380952
        k(   21) = (   0.1686009   0.1405008   0.0000000), wk =   0.0380952
        k(   22) = (   0.1686009   0.1405008   0.1204292), wk =   0.0761905
        k(   23) = (   0.1686009   0.1405008   0.2408585), wk =   0.0761905
        k(   24) = (   0.1686009   0.1405008   0.3612877), wk =   0.0761905
        k(   25) = (   0.1686009   0.2810015   0.0000000), wk =   0.0380952
        k(   26) = (   0.1686009   0.2810015   0.1204292), wk =   0.0761905
        k(   27) = (   0.1686009   0.2810015   0.2408585), wk =   0.0761905
        k(   28) = (   0.1686009   0.2810015   0.3612877), wk =   0.0761905
        k(   29) = (   0.1686009  -0.4215023   0.0000000), wk =   0.0190476
        k(   30) = (   0.1686009  -0.4215023   0.1204292), wk =   0.0380952
        k(   31) = (   0.1686009  -0.4215023   0.2408585), wk =   0.0380952
        k(   32) = (   0.1686009  -0.4215023   0.3612877), wk =   0.0380952
        k(   33) = (   0.3372019   0.0000000   0.0000000), wk =   0.0190476
        k(   34) = (   0.3372019   0.0000000   0.1204292), wk =   0.0380952
        k(   35) = (   0.3372019   0.0000000   0.2408585), wk =   0.0380952
        k(   36) = (   0.3372019   0.0000000   0.3612877), wk =   0.0380952
        k(   37) = (   0.3372019   0.1405008   0.0000000), wk =   0.0380952
        k(   38) = (   0.3372019   0.1405008   0.1204292), wk =   0.0761905
        k(   39) = (   0.3372019   0.1405008   0.2408585), wk =   0.0761905
        k(   40) = (   0.3372019   0.1405008   0.3612877), wk =   0.0761905
        k(   41) = (   0.3372019   0.2810015   0.0000000), wk =   0.0380952
        k(   42) = (   0.3372019   0.2810015   0.1204292), wk =   0.0761905
        k(   43) = (   0.3372019   0.2810015   0.2408585), wk =   0.0761905
        k(   44) = (   0.3372019   0.2810015   0.3612877), wk =   0.0761905
        k(   45) = (   0.3372019  -0.4215023   0.0000000), wk =   0.0190476
        k(   46) = (   0.3372019  -0.4215023   0.1204292), wk =   0.0380952
        k(   47) = (   0.3372019  -0.4215023   0.2408585), wk =   0.0380952
        k(   48) = (   0.3372019  -0.4215023   0.3612877), wk =   0.0380952

[...]

     The maximum number of steps has been reached.

     End of BFGS Geometry Optimization
Begin final coordinates
     new unit-cell volume =   1037.66105 a.u.^3 (   153.76550 Ang^3 )

CELL_PARAMETERS (alat=  8.53457320)
   1.186233081   0.000000000   0.000000000
   0.000000000   1.186233081   0.000000000
   0.000000000   0.000000000   1.186233081

ATOMIC_POSITIONS (crystal)
Cr       0.000000000   0.500000000   0.250000000
Cr       0.000000000   0.500000000   0.750000000
Cr       0.500000000   0.750000000   0.000000000
Cr       0.500000000   0.250000000   0.000000000
Cr       0.750000000   0.000000000   0.500000000
Cr       0.250000000   0.000000000   0.500000000
Si       0.500000000   0.500000000   0.500000000
Si       0.000000000   0.000000000   0.000000000
End final coordinates

     A final scf calculation at the relaxed structure.
     The G-vectors are recalculated for the final unit cell
     Results may differ from those at the preceding step.

     bravais-lattice index     =            0
     lattice parameter (alat)  =       8.5346  a.u.
     unit-cell volume          =    1037.6611 (a.u.)^3
     number of atoms/cell      =            8
     number of atomic types    =            2
     number of electrons       =       100.00
     number of Kohn-Sham states=           60
     kinetic-energy cutoff     =      40.0000  Ry
     charge density cutoff     =     160.0000  Ry
     convergence threshold     =      1.0E-06
     mixing beta               =       0.7000
     number of iterations used =            8  plain     mixing
     Exchange-correlation      = SLA-PZ-NOGX-NOGC ( 1 1 0 0 0)
     EXX-fraction              =        0.00

     celldm(1)=   8.534573  celldm(2)=   0.000000  celldm(3)=   0.000000
     celldm(4)=   0.000000  celldm(5)=   0.000000  celldm(6)=   0.000000

     crystal axes: (cart. coord. in units of alat)
               a(1) = (   1.186233   0.000000   0.000000 )
               a(2) = (   0.000000   1.186233   0.000000 )
               a(3) = (   0.000000   0.000000   1.186233 )

     reciprocal axes: (cart. coord. in units 2 pi/alat)
               b(1) = (  0.843005  0.000000  0.000000 )
               b(2) = (  0.000000  0.843005  0.000000 )
               b(3) = (  0.000000  0.000000  0.843005 )

     PseudoPot. # 1 for Ce read from file:
     /home/jld5415/pp.La/Ce.UPF
     MD5 check sum: 44451aa79a44a00cf2bc029dc19922f6
     Pseudo is Norm-conserving, Zval = 12.0
     Generated in analytical, separable form
     Using radial grid of 1255 points,  6 beta functions with:
                l(1) =   0
                l(2) =   0
                l(3) =   1
                l(4) =   1
                l(5) =   2
                l(6) =   3

     PseudoPot. # 2 for Nd read from file:
     /home/jld5415/pp.La/Nd.UPF
     MD5 check sum: c66c5b6abe7b5840ced9b1e244e3bed6
     Pseudo is Norm-conserving, Zval = 14.0
     Generated in analytical, separable form
     Using radial grid of 1257 points,  6 beta functions with:
                l(1) =   0
                l(2) =   0
                l(3) =   1
                l(4) =   1
                l(5) =   2
                l(6) =   3

     atomic species   valence    mass     pseudopotential
        Cr            12.00    51.99610     Ce( 1.00)
        Si            14.00    28.08550     Nd( 1.00)

     48 Sym. Ops., with inversion, found (24 have fractional translation)

   Cartesian axes

     site n.     atom                  positions (alat units)
         1           Cr  tau(   1) = (   0.0000000   0.5931165   0.2965583  )
         2           Cr  tau(   2) = (   0.0000000   0.5931165   0.8896748  )
         3           Cr  tau(   3) = (   0.5931165   0.8896748   0.0000000  )
         4           Cr  tau(   4) = (   0.5931165   0.2965583   0.0000000  )
         5           Cr  tau(   5) = (   0.8896748   0.0000000   0.5931165  )
         6           Cr  tau(   6) = (   0.2965583   0.0000000   0.5931165  )
         7           Si  tau(   7) = (   0.5931165   0.5931165   0.5931165  )
         8           Si  tau(   8) = (   0.0000000   0.0000000   0.0000000  )

     number of k points=    48  gaussian smearing, width (Ry)=  0.1000
                       cart. coord. in units 2pi/alat
        k(    1) = (   0.0000000   0.0000000   0.0000000), wk =   0.0095238
        k(    2) = (   0.0000000   0.0000000   0.1204292), wk =   0.0190476
        k(    3) = (   0.0000000   0.0000000   0.2408585), wk =   0.0190476
        k(    4) = (   0.0000000   0.0000000   0.3612877), wk =   0.0190476
        k(    5) = (   0.0000000   0.1405008   0.0000000), wk =   0.0190476
        k(    6) = (   0.0000000   0.1405008   0.1204292), wk =   0.0380952
        k(    7) = (   0.0000000   0.1405008   0.2408585), wk =   0.0380952
        k(    8) = (   0.0000000   0.1405008   0.3612877), wk =   0.0380952
        k(    9) = (   0.0000000   0.2810015   0.0000000), wk =   0.0190476
        k(   10) = (   0.0000000   0.2810015   0.1204292), wk =   0.0380952
        k(   11) = (   0.0000000   0.2810015   0.2408585), wk =   0.0380952
        k(   12) = (   0.0000000   0.2810015   0.3612877), wk =   0.0380952
        k(   13) = (   0.0000000  -0.4215023   0.0000000), wk =   0.0095238
        k(   14) = (   0.0000000  -0.4215023   0.1204292), wk =   0.0190476
        k(   15) = (   0.0000000  -0.4215023   0.2408585), wk =   0.0190476
        k(   16) = (   0.0000000  -0.4215023   0.3612877), wk =   0.0190476
        k(   17) = (   0.1686009   0.0000000   0.0000000), wk =   0.0190476
        k(   18) = (   0.1686009   0.0000000   0.1204292), wk =   0.0380952
        k(   19) = (   0.1686009   0.0000000   0.2408585), wk =   0.0380952
        k(   20) = (   0.1686009   0.0000000   0.3612877), wk =   0.0380952
        k(   21) = (   0.1686009   0.1405008   0.0000000), wk =   0.0380952
        k(   22) = (   0.1686009   0.1405008   0.1204292), wk =   0.0761905
        k(   23) = (   0.1686009   0.1405008   0.2408585), wk =   0.0761905
        k(   24) = (   0.1686009   0.1405008   0.3612877), wk =   0.0761905
        k(   25) = (   0.1686009   0.2810015   0.0000000), wk =   0.0380952
        k(   26) = (   0.1686009   0.2810015   0.1204292), wk =   0.0761905
        k(   27) = (   0.1686009   0.2810015   0.2408585), wk =   0.0761905
        k(   28) = (   0.1686009   0.2810015   0.3612877), wk =   0.0761905
        k(   29) = (   0.1686009  -0.4215023   0.0000000), wk =   0.0190476
        k(   30) = (   0.1686009  -0.4215023   0.1204292), wk =   0.0380952
        k(   31) = (   0.1686009  -0.4215023   0.2408585), wk =   0.0380952
        k(   32) = (   0.1686009  -0.4215023   0.3612877), wk =   0.0380952
        k(   33) = (   0.3372019   0.0000000   0.0000000), wk =   0.0190476
        k(   34) = (   0.3372019   0.0000000   0.1204292), wk =   0.0380952
        k(   35) = (   0.3372019   0.0000000   0.2408585), wk =   0.0380952
        k(   36) = (   0.3372019   0.0000000   0.3612877), wk =   0.0380952
        k(   37) = (   0.3372019   0.1405008   0.0000000), wk =   0.0380952
        k(   38) = (   0.3372019   0.1405008   0.1204292), wk =   0.0761905
        k(   39) = (   0.3372019   0.1405008   0.2408585), wk =   0.0761905
        k(   40) = (   0.3372019   0.1405008   0.3612877), wk =   0.0761905
        k(   41) = (   0.3372019   0.2810015   0.0000000), wk =   0.0380952
        k(   42) = (   0.3372019   0.2810015   0.1204292), wk =   0.0761905
        k(   43) = (   0.3372019   0.2810015   0.2408585), wk =   0.0761905
        k(   44) = (   0.3372019   0.2810015   0.3612877), wk =   0.0761905
        k(   45) = (   0.3372019  -0.4215023   0.0000000), wk =   0.0190476
        k(   46) = (   0.3372019  -0.4215023   0.1204292), wk =   0.0380952
        k(   47) = (   0.3372019  -0.4215023   0.2408585), wk =   0.0380952
        k(   48) = (   0.3372019  -0.4215023   0.3612877), wk =   0.0380952

     Largest allocated arrays     est. size (Mb)     dimensions
     Largest temporary arrays     est. size (Mb)     dimensions

     Initial potential from superposition of free atoms

     Starting from uniform charge
     Starting wfc are    0 randomized atomic wfcs

     Writing output data file Prototype-La-cP8-Cr3Si.save

     Self-consistent Calculation

[...]

     negative rho (up, down):  0.213E-04 0.000E+00

[...]

     iteration #  9     ecut=    40.00 Ry     beta=0.70
     CG style diagonalization
     c_bands:  2 eigenvalues not converged
     c_bands:  1 eigenvalues not converged
     ethr =  9.73E-08,  avg # of iterations =  4.0

     total energy              =    -683.73664095 Ry
     Harris-Foulkes estimate   =    -683.73664578 Ry
     estimated scf accuracy    <       0.00001226 Ry

     iteration # 10     ecut=    40.00 Ry     beta=0.70
     CG style diagonalization
     ethr =  1.23E-08,  avg # of iterations =  4.5

     End of self-consistent calculation

[...]

          k = 0.3372-0.4215 0.3613 (  4442 PWs)   bands (ev):

   -23.5684 -23.5683 -13.8918 -13.8501 -13.6948 -13.6935 -13.5462 -13.4986
    -2.2274  -2.2232  -2.1979  -2.1966  -2.1620  -2.1581   2.9527   3.1059
     3.2091   3.2628   3.6698   3.6825   4.0285   4.1143   4.4153   4.4646
     4.6287   4.6596   4.8453   4.8512   4.9159   4.9270   4.9340   4.9942
    19.9654  20.0038  20.2340  20.2646  20.5069  20.6644  20.9247  20.9362
    21.0604  21.0827  21.9213  21.9591  22.1997  22.2209  22.8053  22.9328
    23.9077  23.9135  24.7567  24.7686  25.5304  25.5511  26.3280  26.3846
    26.5837  26.9755  27.9240  27.9833

     the Fermi energy is    24.0023 ev

!    total energy              =    -683.73664564 Ry
     Harris-Foulkes estimate   =    -683.73664579 Ry
     estimated scf accuracy    <       0.00000021 Ry

     The total energy is the sum of the following terms:

     one-electron contribution =      74.58629351 Ry
     hartree contribution      =      45.03750662 Ry
     xc contribution           =     -89.59194077 Ry
     ewald contribution        =    -713.33751250 Ry
     smearing contrib. (-TS)   =      -0.43099250 Ry

     convergence has been achieved in  10 iterations

     Forces acting on atoms (Ry/au):

     atom    1 type  1   force =     0.00000000    0.00000000    0.00000000
     atom    2 type  1   force =     0.00000000    0.00000000    0.00000000
     atom    3 type  1   force =     0.00000000    0.00000000    0.00000000
     atom    4 type  1   force =     0.00000000    0.00000000    0.00000000
     atom    5 type  1   force =     0.00000000    0.00000000    0.00000000
     atom    6 type  1   force =     0.00000000    0.00000000    0.00000000
     atom    7 type  2   force =     0.00000000    0.00000000    0.00000000
     atom    8 type  2   force =     0.00000000    0.00000000    0.00000000

     Total force =     0.000000     Total SCF correction =     0.000000

     entering subroutine stress ...

          total   stress  (Ry/bohr**3)                   (kbar)     P=  551.80
   0.00375108   0.00000000   0.00000000        551.80      0.00      0.00
   0.00000000   0.00375108   0.00000000          0.00    551.80      0.00
   0.00000000   0.00000000   0.00375108          0.00      0.00    551.80

     Writing output data file Prototype-La-cP8-Cr3Si.save

     General routines

     Parallel routines

   This run was terminated on:   0:54:47  22Mar2018

   JOB DONE.