     Program PWSCF v.5.0.2 starts on 22Mar2018 at  0:38:12

     Current dimensions of program PWSCF are:
     Max number of different atomic species (ntypx) = 10
     Max number of k-points (npk) =  40000
     Max angular momentum in pseudopotentials (lmaxx) =  3
     Waiting for input...
     Reading input from standard input

     Subspace diagonalization in iterative solution of the eigenvalue problem:
     a serial algorithm will be used

     bravais-lattice index     =            0
     lattice parameter (alat)  =      12.8532  a.u.
     unit-cell volume          =    1390.2597 (a.u.)^3
     number of atoms/cell      =            6
     number of atomic types    =            2
     number of electrons       =        80.00
     number of Kohn-Sham states=           48
     kinetic-energy cutoff     =      40.0000  Ry
     charge density cutoff     =     160.0000  Ry
     convergence threshold     =      1.0E-04
     mixing beta               =       0.7000
     number of iterations used =            8  plain     mixing
     Exchange-correlation      = SLA-PZ-NOGX-NOGC ( 1 1 0 0 0)
     EXX-fraction              =        0.00
     nstep                     =           50

     celldm(1)=  12.853229  celldm(2)=   0.000000  celldm(3)=   0.000000
     celldm(4)=   0.000000  celldm(5)=   0.000000  celldm(6)=   0.000000

     crystal axes: (cart. coord. in units of alat)
               a(1) = (   1.000000   0.000000   0.000000 )
               a(2) = (  -0.036574   0.999331   0.000000 )
               a(3) = (  -0.266883  -0.706777   0.655164 )

     reciprocal axes: (cart. coord. in units 2 pi/alat)
               b(1) = (  1.000000  0.036598  0.446834 )
               b(2) = (  0.000000  1.000669  1.079502 )
               b(3) = (  0.000000  0.000000  1.526336 )

     PseudoPot. # 1 for Ce read from file:
     /home/jld5415/pp.La/Ce.UPF
     MD5 check sum: 44451aa79a44a00cf2bc029dc19922f6
     Pseudo is Norm-conserving, Zval = 12.0
     Generated in analytical, separable form
     Using radial grid of 1255 points,  6 beta functions with:
                l(1) =   0
                l(2) =   0
                l(3) =   1
                l(4) =   1
                l(5) =   2
                l(6) =   3

     PseudoPot. # 2 for Nd read from file:
     /home/jld5415/pp.La/Nd.UPF
     MD5 check sum: c66c5b6abe7b5840ced9b1e244e3bed6
     Pseudo is Norm-conserving, Zval = 14.0
     Generated in analytical, separable form
     Using radial grid of 1257 points,  6 beta functions with:
                l(1) =   0
                l(2) =   0
                l(3) =   1
                l(4) =   1
                l(5) =   2
                l(6) =   3

     atomic species   valence    mass     pseudopotential
        K             12.00    39.09830     Ce( 1.00)
        Hg            14.00   200.59000     Nd( 1.00)

      2 Sym. Ops., with inversion, found

   Cartesian axes

     site n.     atom                  positions (alat units)
         1           K   tau(   1) = (  -0.0340766   0.4201429   0.4913727  )
         2           K   tau(   2) = (   0.7306201  -0.1275892   0.1637909  )
         3           Hg  tau(   3) = (   0.2308977  -0.0548727   0.3630373  )
         4           Hg  tau(   4) = (   0.4656458   0.3474265   0.2921263  )
         5           Hg  tau(   5) = (   0.5181090  -0.3317640   0.6197082  )
         6           Hg  tau(   6) = (   0.1784345   0.6243178   0.0354555  )

     number of k points=   253  gaussian smearing, width (Ry)=  0.1000

     Number of k-points >= 100: set verbosity='high' to print them.

     Largest allocated arrays     est. size (Mb)     dimensions
     Largest temporary arrays     est. size (Mb)     dimensions

     Initial potential from superposition of free atoms

     Starting from uniform charge
     Starting wfc are    0 randomized atomic wfcs

     Self-consistent Calculation

     iteration #  1     ecut=    40.00 Ry     beta=0.70
     CG style diagonalization
     c_bands:  1 eigenvalues not converged
     c_bands:  2 eigenvalues not converged
     c_bands:  3 eigenvalues not converged
     c_bands:  3 eigenvalues not converged
     c_bands:  4 eigenvalues not converged
     c_bands:  2 eigenvalues not converged
     c_bands:  3 eigenvalues not converged
     c_bands:  2 eigenvalues not converged
     c_bands:  4 eigenvalues not converged
     c_bands:  3 eigenvalues not converged
     c_bands:  1 eigenvalues not converged
     c_bands:  3 eigenvalues not converged
     c_bands:  3 eigenvalues not converged
     c_bands:  3 eigenvalues not converged
     c_bands:  2 eigenvalues not converged
     c_bands:  1 eigenvalues not converged
     c_bands:  3 eigenvalues not converged
     c_bands:  4 eigenvalues not converged
     c_bands:  3 eigenvalues not converged
     c_bands:  1 eigenvalues not converged
     c_bands:  2 eigenvalues not converged
     c_bands:  1 eigenvalues not converged
     c_bands:  4 eigenvalues not converged
     c_bands:  2 eigenvalues not converged
     c_bands:  4 eigenvalues not converged
     c_bands:  1 eigenvalues not converged
     c_bands:  3 eigenvalues not converged
     c_bands:  3 eigenvalues not converged
     c_bands:  3 eigenvalues not converged
     c_bands:  1 eigenvalues not converged
     c_bands:  1 eigenvalues not converged
     c_bands:  2 eigenvalues not converged
     c_bands:  3 eigenvalues not converged
     c_bands:  4 eigenvalues not converged
     c_bands:  3 eigenvalues not converged
     c_bands:  3 eigenvalues not converged
     c_bands:  2 eigenvalues not converged
     c_bands:  3 eigenvalues not converged
     c_bands:  3 eigenvalues not converged
     c_bands:  3 eigenvalues not converged
     c_bands:  3 eigenvalues not converged
     c_bands:  1 eigenvalues not converged
     c_bands:  2 eigenvalues not converged
     c_bands:  2 eigenvalues not converged
     c_bands:  3 eigenvalues not converged
     c_bands:  3 eigenvalues not converged
     c_bands:  3 eigenvalues not converged
     c_bands:  3 eigenvalues not converged
     c_bands:  2 eigenvalues not converged
     c_bands:  1 eigenvalues not converged
     c_bands:  2 eigenvalues not converged
     c_bands:  2 eigenvalues not converged
     c_bands:  2 eigenvalues not converged
     c_bands:  3 eigenvalues not converged
     c_bands:  2 eigenvalues not converged
     c_bands:  3 eigenvalues not converged
     c_bands:  3 eigenvalues not converged
     c_bands:  1 eigenvalues not converged
     c_bands:  2 eigenvalues not converged
     c_bands:  3 eigenvalues not converged
[...]
     c_bands:  2 eigenvalues not converged
     c_bands:  2 eigenvalues not converged
     c_bands:  3 eigenvalues not converged
     c_bands:  3 eigenvalues not converged
     c_bands:  3 eigenvalues not converged
     c_bands:  4 eigenvalues not converged
     c_bands:  2 eigenvalues not converged
     c_bands:  1 eigenvalues not converged
     c_bands:  3 eigenvalues not converged
     c_bands:  1 eigenvalues not converged
     c_bands:  3 eigenvalues not converged
     c_bands:  3 eigenvalues not converged
     c_bands:  3 eigenvalues not converged
     c_bands:  2 eigenvalues not converged
     c_bands:  1 eigenvalues not converged
     ethr =  1.00E-02,  avg # of iterations = 11.8

     total energy              =    -480.19647618 Ry
     Harris-Foulkes estimate   =    -737.87308998 Ry
     estimated scf accuracy    <     328.72470013 Ry

[...]

     iteration #  4     ecut=    40.00 Ry     beta=0.70
     CG style diagonalization
     ethr =  1.00E-02,  avg # of iterations =  4.2

[...]

     End of self-consistent calculation

     Number of k-points >= 100: set verbosity='high' to print the bands.

     the Fermi energy is    12.1771 ev

!    total energy              =    -595.95931852 Ry
     Harris-Foulkes estimate   =    -595.95934728 Ry
     estimated scf accuracy    <       0.00003150 Ry

     The total energy is the sum of the following terms:

     one-electron contribution =    -120.24139347 Ry
     hartree contribution      =      88.55211408 Ry
     xc contribution           =     -70.20829146 Ry
     ewald contribution        =    -493.43753167 Ry
     smearing contrib. (-TS)   =      -0.62421599 Ry

     convergence has been achieved in  13 iterations

     Forces acting on atoms (Ry/au):

     atom    1 type  1   force =     0.00572152    0.00578235    0.00007276
     atom    2 type  1   force =    -0.00572152   -0.00578235   -0.00007276
     atom    3 type  2   force =     0.01039957   -0.01443086    0.01123961
     atom    4 type  2   force =    -0.01039957    0.01443086   -0.01123961
     atom    5 type  2   force =    -0.01362703    0.00960728   -0.01064229
     atom    6 type  2   force =     0.01362703   -0.00960728    0.01064229

     Total force =     0.042430     Total SCF correction =     0.000000

     entering subroutine stress ...

          total   stress  (Ry/bohr**3)                   (kbar)     P= -229.29
  -0.00156235  -0.00003652   0.00001594       -229.83     -5.37      2.34
  -0.00003652  -0.00156610  -0.00001516         -5.37   -230.38     -2.23
   0.00001594  -0.00001516  -0.00154769          2.34     -2.23   -227.67

     BFGS Geometry Optimization

     number of scf cycles    =   1
     number of bfgs steps    =   0

     enthalpy new            =    -595.9593185151 Ry

     new trust radius        =       0.2920632267 bohr
     new conv_thr            =       0.0001000000 Ry

     new unit-cell volume =   1233.98277 a.u.^3 (   182.85738 Ang^3 )

CELL_PARAMETERS (alat= 12.85322937)
   0.960941161  -0.000912981   0.000398463
  -0.036057358   0.960237957  -0.000393410
  -0.255552488  -0.679109784   0.629975566

ATOMIC_POSITIONS (crystal)
K        0.201326137   0.951318287   0.750008640
K        0.798673863   0.048681713   0.249991360
Hg       0.392265749   0.336810485   0.555451717
Hg       0.607734251   0.663189515   0.444548283
Hg       0.781471180   0.336844149   0.944619215
Hg       0.218528820   0.663155851   0.055380785

     Writing output data file Prototype-La-oI12-KHg2.save
     NEW-OLD atomic charge density approx. for the potential
     NEW k-points: (use verbosity='high' to print them)

[...]

     enthalpy old            =    -595.9593185151 Ry
     enthalpy new            =    -596.1688711628 Ry

     CASE: enthalpy_new < enthalpy_old

     small trust_radius: resetting bfgs history

[...]

     number of scf cycles    =   3
     number of bfgs steps    =   2

     enthalpy old            =    -596.1688711628 Ry
     enthalpy new            =    -596.2511407861 Ry

     CASE: enthalpy_new < enthalpy_old

     Message from routine bfgs:
     history already reset at previous step: stopping
     small trust_radius: resetting bfgs history

     new trust radius        =       0.1084475769 bohr
     new conv_thr            =       0.0000092515 Ry

     new unit-cell volume =   1086.26546 a.u.^3 (   160.96793 Ang^3 )

[...]

ATOMIC_POSITIONS (crystal)
K        0.200605292   0.951031932   0.749568758
K        0.799394708   0.048968068   0.250431242
Hg       0.392755461   0.336778775   0.555971936
Hg       0.607244539   0.663221225   0.444028064
Hg       0.782499336   0.337783934   0.944700559
Hg       0.217500664   0.662216066   0.055299441

     Writing output data file Prototype-La-oI12-KHg2.save
     NEW-OLD atomic charge density approx. for the potential
     NEW k-points: (use verbosity='high' to print them)

[...]

     The maximum number of steps has been reached.

     End of BFGS Geometry Optimization
Begin final coordinates
     new unit-cell volume =   1086.26546 a.u.^3 (   160.96793 Ang^3 )

CELL_PARAMETERS (alat= 12.85322937)
   0.920201442  -0.002274795  -0.000484625
  -0.035928453   0.919415114   0.000517350
  -0.244295619  -0.649263145   0.604485563

ATOMIC_POSITIONS (crystal)
K        0.200605292   0.951031932   0.749568758
K        0.799394708   0.048968068   0.250431242
Hg       0.392755461   0.336778775   0.555971936
Hg       0.607244539   0.663221225   0.444028064
Hg       0.782499336   0.337783934   0.944700559
Hg       0.217500664   0.662216066   0.055299441
End final coordinates

     A final scf calculation at the relaxed structure.
     The G-vectors are recalculated for the final unit cell
     Results may differ from those at the preceding step.

     bravais-lattice index     =            0
     lattice parameter (alat)  =      12.8532  a.u.
     unit-cell volume          =    1086.2655 (a.u.)^3
     number of atoms/cell      =            6
     number of atomic types    =            2
     number of electrons       =        80.00
     number of Kohn-Sham states=           48
     kinetic-energy cutoff     =      40.0000  Ry
     charge density cutoff     =     160.0000  Ry
     convergence threshold     =      9.3E-06
     mixing beta               =       0.7000
     number of iterations used =            8  plain     mixing
     Exchange-correlation      = SLA-PZ-NOGX-NOGC ( 1 1 0 0 0)
     EXX-fraction              =        0.00

     celldm(1)=  12.853229  celldm(2)=   0.000000  celldm(3)=   0.000000
     celldm(4)=   0.000000  celldm(5)=   0.000000  celldm(6)=   0.000000

     crystal axes: (cart. coord. in units of alat)
               a(1) = (   0.920201  -0.002275  -0.000485 )
               a(2) = (  -0.035928   0.919415   0.000517 )
               a(3) = (  -0.244296  -0.649263   0.604486 )

     reciprocal axes: (cart. coord. in units 2 pi/alat)
               b(1) = (  1.087078  0.042208  0.484664 )
               b(2) = (  0.003303  1.087119  1.168983 )
               b(3) = (  0.000869 -0.000897  1.653687 )

     PseudoPot. # 1 for Ce read from file:
     /home/jld5415/pp.La/Ce.UPF
     MD5 check sum: 44451aa79a44a00cf2bc029dc19922f6
     Pseudo is Norm-conserving, Zval = 12.0
     Generated in analytical, separable form
     Using radial grid of 1255 points,  6 beta functions with:
                l(1) =   0
                l(2) =   0
                l(3) =   1
                l(4) =   1
                l(5) =   2
                l(6) =   3

     PseudoPot. # 2 for Nd read from file:
     /home/jld5415/pp.La/Nd.UPF
     MD5 check sum: c66c5b6abe7b5840ced9b1e244e3bed6
     Pseudo is Norm-conserving, Zval = 14.0
     Generated in analytical, separable form
     Using radial grid of 1257 points,  6 beta functions with:
                l(1) =   0
                l(2) =   0
                l(3) =   1
                l(4) =   1
                l(5) =   2
                l(6) =   3

     atomic species   valence    mass     pseudopotential
        K             12.00    39.09830     Ce( 1.00)
        Hg            14.00   200.59000     Nd( 1.00)

      2 Sym. Ops., with inversion, found

   Cartesian axes

     site n.     atom                  positions (alat units)
         1           K   tau(   1) = (  -0.0326882   0.3872694   0.4534983  )
         2           K   tau(   2) = (   0.6726656  -0.1193923   0.1510200  )
         3           Hg  tau(   3) = (   0.2134927  -0.0522260   0.3360609  )
         4           Hg  tau(   4) = (   0.4264847   0.3201032   0.2684574  )
         5           Hg  tau(   5) = (   0.4771348  -0.3045756   0.5708534  )
         6           Hg  tau(   6) = (   0.1628426   0.5724528   0.0336649  )

     number of k points=   253  gaussian smearing, width (Ry)=  0.1000

     Number of k-points >= 100: set verbosity='high' to print them.

     Largest allocated arrays     est. size (Mb)     dimensions
     Largest temporary arrays     est. size (Mb)     dimensions

     Initial potential from superposition of free atoms

     Starting from uniform charge
     Starting wfc are    0 randomized atomic wfcs

     Writing output data file Prototype-La-oI12-KHg2.save

     Self-consistent Calculation

[...]

     iteration #  5     ecut=    40.00 Ry     beta=0.70
     CG style diagonalization
     ethr =  6.72E-03,  avg # of iterations =  3.9

[...]

     total energy              =    -596.19332736 Ry
     Harris-Foulkes estimate   =    -596.19333103 Ry
     estimated scf accuracy    <       0.00001152 Ry

     iteration # 14     ecut=    40.00 Ry     beta=0.70
     CG style diagonalization
     c_bands:  1 eigenvalues not converged
     c_bands:  1 eigenvalues not converged
     c_bands:  1 eigenvalues not converged
     c_bands:  1 eigenvalues not converged
     c_bands:  1 eigenvalues not converged
     c_bands:  1 eigenvalues not converged
     ethr =  1.44E-08,  avg # of iterations =  3.8

     End of self-consistent calculation

     Number of k-points >= 100: set verbosity='high' to print the bands.

     the Fermi energy is    16.5612 ev

!    total energy              =    -596.19332823 Ry
     Harris-Foulkes estimate   =    -596.19332970 Ry
     estimated scf accuracy    <       0.00000131 Ry

     The total energy is the sum of the following terms:

     one-electron contribution =     -61.46371003 Ry
     hartree contribution      =      72.78575530 Ry
     xc contribution           =     -71.68439334 Ry
     ewald contribution        =    -535.35005982 Ry
     smearing contrib. (-TS)   =      -0.48092034 Ry

     convergence has been achieved in  14 iterations

     Forces acting on atoms (Ry/au):

     atom    1 type  1   force =    -0.00212221   -0.00400877    0.00082181
     atom    2 type  1   force =     0.00212221    0.00400877   -0.00082181
     atom    3 type  2   force =     0.00068599    0.00903325   -0.00368295
     atom    4 type  2   force =    -0.00068599   -0.00903325    0.00368295
     atom    5 type  2   force =     0.00729046   -0.00103930    0.00387599
     atom    6 type  2   force =    -0.00729046    0.00103930   -0.00387599

     Total force =     0.019294     Total SCF correction =     0.000000

     entering subroutine stress ...

          total   stress  (Ry/bohr**3)                   (kbar)     P=  -86.20
  -0.00060724  -0.00002287  -0.00004163        -89.33     -3.36     -6.12
  -0.00002287  -0.00061667   0.00004357         -3.36    -90.71      6.41
  -0.00004163   0.00004357  -0.00053395         -6.12      6.41    -78.55

     Writing output data file Prototype-La-oI12-KHg2.save

     General routines

     Parallel routines

   This run was terminated on:   3:22:50  22Mar2018

   JOB DONE.