     Program PWSCF v.5.0.2 starts on 22Mar2018 at  0:39:39

     Current dimensions of program PWSCF are:
     Max number of different atomic species (ntypx) = 10
     Max number of k-points (npk) =  40000
     Max angular momentum in pseudopotentials (lmaxx) =  3
     Waiting for input...
     Reading input from standard input

     Subspace diagonalization in iterative solution of the eigenvalue problem:
     a serial algorithm will be used

     bravais-lattice index     =            0
     lattice parameter (alat)  =      12.0168  a.u.
     unit-cell volume          =    1187.3413 (a.u.)^3
     number of atoms/cell      =            8
     number of atomic types    =            2
     number of electrons       =       118.00
     number of Kohn-Sham states=           71
     kinetic-energy cutoff     =      40.0000  Ry
     charge density cutoff     =     160.0000  Ry
     convergence threshold     =      1.0E-04
     mixing beta               =       0.7000
     number of iterations used =            8  plain     mixing
     Exchange-correlation      = SLA-PZ-NOGX-NOGC ( 1 1 0 0 0)
     EXX-fraction              =        0.00
     nstep                     =           50

     celldm(1)=  12.016801  celldm(2)=   0.000000  celldm(3)=   0.000000
     celldm(4)=   0.000000  celldm(5)=   0.000000  celldm(6)=   0.000000

     crystal axes: (cart. coord. in units of alat)
               a(1) = (   1.000000   0.000000   0.000000 )
               a(2) = (  -0.500000   0.866025   0.000000 )
               a(3) = (   0.000000   0.000000   0.790093 )

     reciprocal axes: (cart. coord. in units 2 pi/alat)
               b(1) = (  1.000000  0.577350  0.000000 )
               b(2) = (  0.000000  1.154701  0.000000 )
               b(3) = (  0.000000  0.000000  1.265674 )

     PseudoPot. # 1 for Ce read from file:
     /home/jld5415/pp.La/Ce.UPF
     MD5 check sum: 44451aa79a44a00cf2bc029dc19922f6
     Pseudo is Norm-conserving, Zval = 12.0
     Generated in analytical, separable form
     Using radial grid of 1255 points,  6 beta functions with:
                l(1) =   0
                l(2) =   0
                l(3) =   1
                l(4) =   1
                l(5) =   2
                l(6) =   3

     PseudoPot. # 2 for Tm read from file:
     /home/jld5415/pp.La/Tm.UPF
     MD5 check sum: 245516e0878b5372ceeb9443ded2c4e1
     Pseudo is Norm-conserving, Zval = 23.0
     Generated in analytical, separable form
     Using radial grid of 1269 points,  6 beta functions with:
                l(1) =   0
                l(2) =   0
                l(3) =   1
                l(4) =   1
                l(5) =   2
                l(6) =   3

     atomic species   valence    mass     pseudopotential
        Mg            12.00    24.30500     Ce( 1.00)
        Cd            23.00   112.41100     Tm( 1.00)

     24 Sym. Ops., with inversion, found (12 have fractional translation)

   Cartesian axes

     site n.     atom                  positions (alat units)
         1           Mg  tau(   1) = (   0.2478935   0.7204716   0.1975233  )
         2           Mg  tau(   2) = (   0.7478935   0.1455538   0.5925699  )
         3           Mg  tau(   3) = (   0.2521065   0.1455538   0.5925699  )
         4           Mg  tau(   4) = (  -0.2478935   0.7204716   0.1975233  )
         5           Mg  tau(   5) = (   0.0000000   0.2911075   0.1975233  )
         6           Mg  tau(   6) = (   0.5000000   0.5749179   0.5925699  )
         7           Cd  tau(   7) = (   0.5000005   0.2886748   0.1975233  )
         8           Cd  tau(   8) = (  -0.0000005   0.5773506   0.5925699  )

     number of k points=    64  gaussian smearing, width (Ry)=  0.1000
                       cart. coord. in units 2pi/alat
        k(    1) = (   0.0000000   0.0000000   0.0000000), wk =   0.0095238
        k(    2) = (   0.0000000   0.0000000   0.1808105), wk =   0.0190476
        k(    3) = (   0.0000000   0.0000000   0.3616210), wk =   0.0190476
        k(    4) = (   0.0000000   0.0000000   0.5424315), wk =   0.0190476
        k(    5) = (   0.0000000   0.1924501   0.0000000), wk =   0.0190476
        k(    6) = (   0.0000000   0.1924501   0.1808105), wk =   0.0380952
        k(    7) = (   0.0000000   0.1924501   0.3616210), wk =   0.0380952
        k(    8) = (   0.0000000   0.1924501   0.5424315), wk =   0.0380952
        k(    9) = (   0.0000000   0.3849002   0.0000000), wk =   0.0190476
        k(   10) = (   0.0000000   0.3849002   0.1808105), wk =   0.0380952
        k(   11) = (   0.0000000   0.3849002   0.3616210), wk =   0.0380952
        k(   12) = (   0.0000000   0.3849002   0.5424315), wk =   0.0380952
        k(   13) = (   0.0000000  -0.5773503   0.0000000), wk =   0.0095238
        k(   14) = (   0.0000000  -0.5773503   0.1808105), wk =   0.0190476
        k(   15) = (   0.0000000  -0.5773503   0.3616210), wk =   0.0190476
        k(   16) = (   0.0000000  -0.5773503   0.5424315), wk =   0.0190476
        k(   17) = (   0.2000000   0.1154701   0.0000000), wk =   0.0190476
        k(   18) = (   0.2000000   0.1154701   0.1808105), wk =   0.0380952
        k(   19) = (   0.2000000   0.1154701   0.3616210), wk =   0.0380952
        k(   20) = (   0.2000000   0.1154701   0.5424315), wk =   0.0380952
        k(   21) = (   0.2000000   0.3079201   0.0000000), wk =   0.0190476
        k(   22) = (   0.2000000   0.3079201   0.1808105), wk =   0.0380952
        k(   23) = (   0.2000000   0.3079201   0.3616210), wk =   0.0380952
        k(   24) = (   0.2000000   0.3079201   0.5424315), wk =   0.0380952
        k(   25) = (   0.2000000   0.5003702   0.0000000), wk =   0.0190476
        k(   26) = (   0.2000000   0.5003702   0.1808105), wk =   0.0380952
        k(   27) = (   0.2000000   0.5003702   0.3616210), wk =   0.0380952
        k(   28) = (   0.2000000   0.5003702   0.5424315), wk =   0.0380952
        k(   29) = (   0.2000000  -0.4618802   0.0000000), wk =   0.0190476
        k(   30) = (   0.2000000  -0.4618802   0.1808105), wk =   0.0380952
        k(   31) = (   0.2000000  -0.4618802   0.3616210), wk =   0.0380952
        k(   32) = (   0.2000000  -0.4618802   0.5424315), wk =   0.0380952
        k(   33) = (   0.2000000  -0.2694301   0.0000000), wk =   0.0190476
        k(   34) = (   0.2000000  -0.2694301   0.1808105), wk =   0.0380952
        k(   35) = (   0.2000000  -0.2694301   0.3616210), wk =   0.0380952
        k(   36) = (   0.2000000  -0.2694301   0.5424315), wk =   0.0380952
        k(   37) = (   0.2000000  -0.0769800   0.0000000), wk =   0.0190476
        k(   38) = (   0.2000000  -0.0769800   0.1808105), wk =   0.0380952
        k(   39) = (   0.2000000  -0.0769800   0.3616210), wk =   0.0380952
        k(   40) = (   0.2000000  -0.0769800   0.5424315), wk =   0.0380952
        k(   41) = (   0.4000000   0.2309401   0.0000000), wk =   0.0190476
        k(   42) = (   0.4000000   0.2309401   0.1808105), wk =   0.0380952
        k(   43) = (   0.4000000   0.2309401   0.3616210), wk =   0.0380952
        k(   44) = (   0.4000000   0.2309401   0.5424315), wk =   0.0380952
        k(   45) = (   0.4000000   0.4233902   0.0000000), wk =   0.0190476
        k(   46) = (   0.4000000   0.4233902   0.1808105), wk =   0.0380952
        k(   47) = (   0.4000000   0.4233902   0.3616210), wk =   0.0380952
        k(   48) = (   0.4000000   0.4233902   0.5424315), wk =   0.0380952
        k(   49) = (   0.4000000   0.6158403   0.0000000), wk =   0.0190476
        k(   50) = (   0.4000000   0.6158403   0.1808105), wk =   0.0380952
        k(   51) = (   0.4000000   0.6158403   0.3616210), wk =   0.0380952
        k(   52) = (   0.4000000   0.6158403   0.5424315), wk =   0.0380952
        k(   53) = (   0.4000000  -0.3464102   0.0000000), wk =   0.0190476
        k(   54) = (   0.4000000  -0.3464102   0.1808105), wk =   0.0380952
        k(   55) = (   0.4000000  -0.3464102   0.3616210), wk =   0.0380952
        k(   56) = (   0.4000000  -0.3464102   0.5424315), wk =   0.0380952
        k(   57) = (   0.4000000  -0.1539601   0.0000000), wk =   0.0190476
        k(   58) = (   0.4000000  -0.1539601   0.1808105), wk =   0.0380952
        k(   59) = (   0.4000000  -0.1539601   0.3616210), wk =   0.0380952
        k(   60) = (   0.4000000  -0.1539601   0.5424315), wk =   0.0380952
        k(   61) = (   0.4000000   0.0384900   0.0000000), wk =   0.0190476
        k(   62) = (   0.4000000   0.0384900   0.1808105), wk =   0.0380952
        k(   63) = (   0.4000000   0.0384900   0.3616210), wk =   0.0380952
        k(   64) = (   0.4000000   0.0384900   0.5424315), wk =   0.0380952

     Largest allocated arrays     est. size (Mb)     dimensions
     Largest temporary arrays     est. size (Mb)     dimensions

     Initial potential from superposition of free atoms

     Starting from uniform charge
     Starting wfc are    0 randomized atomic wfcs

     Self-consistent Calculation

     iteration #  1     ecut=    40.00 Ry     beta=0.70
     CG style diagonalization
     ethr =  1.00E-02,  avg # of iterations = 18.3

     total energy              =     -18.75276872 Ry
     Harris-Foulkes estimate   =   -1816.15662519 Ry
     estimated scf accuracy    <    2100.91991121 Ry

     iteration #  2     ecut=    40.00 Ry     beta=0.70
     CG style diagonalization
     c_bands:  4 eigenvalues not converged
     ethr =  1.00E-02,  avg # of iterations = 19.6

[...]

     End of self-consistent calculation

          k = 0.0000 0.0000 0.0000 (  5047 PWs)   bands (ev):

   -89.0148 -89.0076 -47.6698 -47.6639 -47.6477 -47.6477 -47.6388 -47.6388
   -15.9682 -15.4347 -15.4346 -15.3614 -15.1384 -15.1383   0.4481   0.8789
     0.9169   1.0528   1.0528   1.1969   1.1969   1.3861   1.3861   1.4467
     1.4467   1.6213   1.6214   1.6774   1.9182   1.9390   1.9391   2.3629
     2.3630   2.6632   3.4551   3.4552   3.5572   3.6581   3.6582   3.6735
     3.6736   3.7080  11.6823  11.9473  16.8628  18.6134  19.0968  19.0968
    19.3355  19.4220  19.4221  19.6006  19.9581  19.9581  20.3649  20.3651
    21.8585  22.1794  22.1795  22.8595  22.8596  23.2745  23.5618  24.2912
    24.2912  24.8916  25.1714  25.2240  25.2243  26.0828  26.1041

[...]

     the Fermi energy is    22.2507 ev

!    total energy              =   -1198.26710321 Ry
     Harris-Foulkes estimate   =   -1198.26715276 Ry
     estimated scf accuracy    <       0.00005704 Ry

     The total energy is the sum of the following terms:

     one-electron contribution =    -294.57796018 Ry
     hartree contribution      =     214.38442214 Ry
     xc contribution           =    -121.71258757 Ry
     ewald contribution        =    -995.92090728 Ry
     smearing contrib. (-TS)   =      -0.44007033 Ry

     convergence has been achieved in  11 iterations

     Forces acting on atoms (Ry/au):

     atom    1 type  1   force =     0.02283824    0.01318566    0.00000000
     atom    2 type  1   force =     0.02283824   -0.01318566    0.00000000
     atom    3 type  1   force =    -0.02283824   -0.01318566    0.00000000
     atom    4 type  1   force =    -0.02283824    0.01318566    0.00000000
     atom    5 type  1   force =     0.00000000   -0.02637133    0.00000000
[...]
        k(   10) = (   0.0000000   0.3816993   0.1747066), wk =   0.0380952
        k(   11) = (   0.0000000   0.3816993   0.3494132), wk =   0.0380952
        k(   12) = (   0.0000000   0.3816993   0.5241198), wk =   0.0380952
        k(   13) = (   0.0000000  -0.5725490   0.0000000), wk =   0.0095238
        k(   14) = (   0.0000000  -0.5725490   0.1747066), wk =   0.0190476
        k(   15) = (   0.0000000  -0.5725490   0.3494132), wk =   0.0190476
        k(   16) = (   0.0000000  -0.5725490   0.5241198), wk =   0.0190476
        k(   17) = (   0.1983368   0.1145098   0.0000000), wk =   0.0190476
        k(   18) = (   0.1983368   0.1145098   0.1747066), wk =   0.0380952
        k(   19) = (   0.1983368   0.1145098   0.3494132), wk =   0.0380952
        k(   20) = (   0.1983368   0.1145098   0.5241198), wk =   0.0380952
        k(   21) = (   0.1983368   0.3053595   0.0000000), wk =   0.0190476
        k(   22) = (   0.1983368   0.3053595   0.1747066), wk =   0.0380952
        k(   23) = (   0.1983368   0.3053595   0.3494132), wk =   0.0380952
        k(   24) = (   0.1983368   0.3053595   0.5241198), wk =   0.0380952
        k(   25) = (   0.1983368   0.4962091   0.0000000), wk =   0.0190476
        k(   26) = (   0.1983368   0.4962091   0.1747066), wk =   0.0380952
        k(   27) = (   0.1983368   0.4962091   0.3494132), wk =   0.0380952
        k(   28) = (   0.1983368   0.4962091   0.5241198), wk =   0.0380952
        k(   29) = (   0.1983368  -0.4580392   0.0000000), wk =   0.0190476
        k(   30) = (   0.1983368  -0.4580392   0.1747066), wk =   0.0380952
        k(   31) = (   0.1983368  -0.4580392   0.3494132), wk =   0.0380952
        k(   32) = (   0.1983368  -0.4580392   0.5241198), wk =   0.0380952
        k(   33) = (   0.1983368  -0.2671895   0.0000000), wk =   0.0190476
        k(   34) = (   0.1983368  -0.2671895   0.1747066), wk =   0.0380952
        k(   35) = (   0.1983368  -0.2671895   0.3494132), wk =   0.0380952
        k(   36) = (   0.1983368  -0.2671895   0.5241198), wk =   0.0380952
        k(   37) = (   0.1983368  -0.0763399   0.0000000), wk =   0.0190476
        k(   38) = (   0.1983368  -0.0763399   0.1747066), wk =   0.0380952
        k(   39) = (   0.1983368  -0.0763399   0.3494132), wk =   0.0380952
        k(   40) = (   0.1983368  -0.0763399   0.5241198), wk =   0.0380952
        k(   41) = (   0.3966736   0.2290196   0.0000000), wk =   0.0190476
        k(   42) = (   0.3966736   0.2290196   0.1747066), wk =   0.0380952
        k(   43) = (   0.3966736   0.2290196   0.3494132), wk =   0.0380952
        k(   44) = (   0.3966736   0.2290196   0.5241198), wk =   0.0380952
        k(   45) = (   0.3966736   0.4198693   0.0000000), wk =   0.0190476
        k(   46) = (   0.3966736   0.4198693   0.1747066), wk =   0.0380952
        k(   47) = (   0.3966736   0.4198693   0.3494132), wk =   0.0380952
        k(   48) = (   0.3966736   0.4198693   0.5241198), wk =   0.0380952
        k(   49) = (   0.3966736   0.6107190   0.0000000), wk =   0.0190476
        k(   50) = (   0.3966736   0.6107190   0.1747066), wk =   0.0380952
        k(   51) = (   0.3966736   0.6107190   0.3494132), wk =   0.0380952
        k(   52) = (   0.3966736   0.6107190   0.5241198), wk =   0.0380952
        k(   53) = (   0.3966736  -0.3435294   0.0000000), wk =   0.0190476
        k(   54) = (   0.3966736  -0.3435294   0.1747066), wk =   0.0380952
        k(   55) = (   0.3966736  -0.3435294   0.3494132), wk =   0.0380952
        k(   56) = (   0.3966736  -0.3435294   0.5241198), wk =   0.0380952
        k(   57) = (   0.3966736  -0.1526797   0.0000000), wk =   0.0190476
        k(   58) = (   0.3966736  -0.1526797   0.1747066), wk =   0.0380952
        k(   59) = (   0.3966736  -0.1526797   0.3494132), wk =   0.0380952
        k(   60) = (   0.3966736  -0.1526797   0.5241198), wk =   0.0380952
        k(   61) = (   0.3966736   0.0381699   0.0000000), wk =   0.0190476
        k(   62) = (   0.3966736   0.0381699   0.1747066), wk =   0.0380952
        k(   63) = (   0.3966736   0.0381699   0.3494132), wk =   0.0380952
        k(   64) = (   0.3966736   0.0381699   0.5241198), wk =   0.0380952

[...]

     The maximum number of steps has been reached.

     End of BFGS Geometry Optimization
Begin final coordinates
     new unit-cell volume =   1249.52038 a.u.^3 (   185.15981 Ang^3 )

CELL_PARAMETERS (alat= 12.01680127)
   1.008385749   0.000000000   0.000000000
  -0.504192875   0.873287675   0.000000000
   0.000000000   0.000000000   0.817697512

ATOMIC_POSITIONS (crystal)
Mg       0.668958170   0.834479085   0.250000000
Mg       0.834479085   0.165520915   0.750000000
Mg       0.331041830   0.165520915   0.750000000
Mg       0.165520915   0.834479085   0.250000000
Mg       0.165520915   0.331041830   0.250000000
Mg       0.834479085   0.668958170   0.750000000
Cd       0.666667000   0.333333000   0.250000000
Cd       0.333333000   0.666667000   0.750000000
End final coordinates

     A final scf calculation at the relaxed structure.
     The G-vectors are recalculated for the final unit cell
     Results may differ from those at the preceding step.

     bravais-lattice index     =            0
     lattice parameter (alat)  =      12.0168  a.u.
     unit-cell volume          =    1249.5204 (a.u.)^3
     number of atoms/cell      =            8
     number of atomic types    =            2
     number of electrons       =       118.00
     number of Kohn-Sham states=           71
     kinetic-energy cutoff     =      40.0000  Ry
     charge density cutoff     =     160.0000  Ry
     convergence threshold     =      2.3E-06
     mixing beta               =       0.7000
     number of iterations used =            8  plain     mixing
     Exchange-correlation      = SLA-PZ-NOGX-NOGC ( 1 1 0 0 0)
     EXX-fraction              =        0.00

     celldm(1)=  12.016801  celldm(2)=   0.000000  celldm(3)=   0.000000
     celldm(4)=   0.000000  celldm(5)=   0.000000  celldm(6)=   0.000000

     crystal axes: (cart. coord. in units of alat)
               a(1) = (   1.008386   0.000000   0.000000 )
               a(2) = (  -0.504193   0.873288   0.000000 )
               a(3) = (   0.000000   0.000000   0.817698 )

     reciprocal axes: (cart. coord. in units 2 pi/alat)
               b(1) = (  0.991684  0.572549  0.000000 )
               b(2) = (  0.000000  1.145098  0.000000 )
               b(3) = (  0.000000  0.000000  1.222946 )

     PseudoPot. # 1 for Ce read from file:
     /home/jld5415/pp.La/Ce.UPF
     MD5 check sum: 44451aa79a44a00cf2bc029dc19922f6
     Pseudo is Norm-conserving, Zval = 12.0
     Generated in analytical, separable form
     Using radial grid of 1255 points,  6 beta functions with:
                l(1) =   0
                l(2) =   0
                l(3) =   1
                l(4) =   1
                l(5) =   2
                l(6) =   3

     PseudoPot. # 2 for Tm read from file:
     /home/jld5415/pp.La/Tm.UPF
     MD5 check sum: 245516e0878b5372ceeb9443ded2c4e1
     Pseudo is Norm-conserving, Zval = 23.0
     Generated in analytical, separable form
     Using radial grid of 1269 points,  6 beta functions with:
                l(1) =   0
                l(2) =   0
                l(3) =   1
                l(4) =   1
                l(5) =   2
                l(6) =   3

     atomic species   valence    mass     pseudopotential
        Mg            12.00    24.30500     Ce( 1.00)
        Cd            23.00   112.41100     Tm( 1.00)

     24 Sym. Ops., with inversion, found (12 have fractional translation)

   Cartesian axes

     site n.     atom                  positions (alat units)
         1           Mg  tau(   1) = (   0.2538295   0.7287403   0.2044244  )
         2           Mg  tau(   2) = (   0.7580224   0.1445474   0.6132731  )
         3           Mg  tau(   3) = (   0.2503634   0.1445474   0.6132731  )
         4           Mg  tau(   4) = (  -0.2538295   0.7287403   0.2044244  )
         5           Mg  tau(   5) = (   0.0000000   0.2890948   0.2044244  )
         6           Mg  tau(   6) = (   0.5041929   0.5841929   0.6132731  )
         7           Cd  tau(   7) = (   0.5041934   0.2910956   0.2044244  )
         8           Cd  tau(   8) = (  -0.0000005   0.5821921   0.6132731  )

     number of k points=    64  gaussian smearing, width (Ry)=  0.1000
                       cart. coord. in units 2pi/alat
        k(    1) = (   0.0000000   0.0000000   0.0000000), wk =   0.0095238
        k(    2) = (   0.0000000   0.0000000   0.1747066), wk =   0.0190476
        k(    3) = (   0.0000000   0.0000000   0.3494132), wk =   0.0190476
        k(    4) = (   0.0000000   0.0000000   0.5241198), wk =   0.0190476
        k(    5) = (   0.0000000   0.1908497   0.0000000), wk =   0.0190476
        k(    6) = (   0.0000000   0.1908497   0.1747066), wk =   0.0380952
        k(    7) = (   0.0000000   0.1908497   0.3494132), wk =   0.0380952
        k(    8) = (   0.0000000   0.1908497   0.5241198), wk =   0.0380952
        k(    9) = (   0.0000000   0.3816993   0.0000000), wk =   0.0190476
        k(   10) = (   0.0000000   0.3816993   0.1747066), wk =   0.0380952
        k(   11) = (   0.0000000   0.3816993   0.3494132), wk =   0.0380952
        k(   12) = (   0.0000000   0.3816993   0.5241198), wk =   0.0380952
        k(   13) = (   0.0000000  -0.5725490   0.0000000), wk =   0.0095238
        k(   14) = (   0.0000000  -0.5725490   0.1747066), wk =   0.0190476
        k(   15) = (   0.0000000  -0.5725490   0.3494132), wk =   0.0190476
        k(   16) = (   0.0000000  -0.5725490   0.5241198), wk =   0.0190476
        k(   17) = (   0.1983368   0.1145098   0.0000000), wk =   0.0190476
        k(   18) = (   0.1983368   0.1145098   0.1747066), wk =   0.0380952
        k(   19) = (   0.1983368   0.1145098   0.3494132), wk =   0.0380952
        k(   20) = (   0.1983368   0.1145098   0.5241198), wk =   0.0380952
        k(   21) = (   0.1983368   0.3053595   0.0000000), wk =   0.0190476
        k(   22) = (   0.1983368   0.3053595   0.1747066), wk =   0.0380952
        k(   23) = (   0.1983368   0.3053595   0.3494132), wk =   0.0380952
        k(   24) = (   0.1983368   0.3053595   0.5241198), wk =   0.0380952
        k(   25) = (   0.1983368   0.4962091   0.0000000), wk =   0.0190476
        k(   26) = (   0.1983368   0.4962091   0.1747066), wk =   0.0380952
        k(   27) = (   0.1983368   0.4962091   0.3494132), wk =   0.0380952
        k(   28) = (   0.1983368   0.4962091   0.5241198), wk =   0.0380952
        k(   29) = (   0.1983368  -0.4580392   0.0000000), wk =   0.0190476
        k(   30) = (   0.1983368  -0.4580392   0.1747066), wk =   0.0380952
        k(   31) = (   0.1983368  -0.4580392   0.3494132), wk =   0.0380952
        k(   32) = (   0.1983368  -0.4580392   0.5241198), wk =   0.0380952
        k(   33) = (   0.1983368  -0.2671895   0.0000000), wk =   0.0190476
        k(   34) = (   0.1983368  -0.2671895   0.1747066), wk =   0.0380952
        k(   35) = (   0.1983368  -0.2671895   0.3494132), wk =   0.0380952
        k(   36) = (   0.1983368  -0.2671895   0.5241198), wk =   0.0380952
        k(   37) = (   0.1983368  -0.0763399   0.0000000), wk =   0.0190476
        k(   38) = (   0.1983368  -0.0763399   0.1747066), wk =   0.0380952
        k(   39) = (   0.1983368  -0.0763399   0.3494132), wk =   0.0380952
        k(   40) = (   0.1983368  -0.0763399   0.5241198), wk =   0.0380952
        k(   41) = (   0.3966736   0.2290196   0.0000000), wk =   0.0190476
        k(   42) = (   0.3966736   0.2290196   0.1747066), wk =   0.0380952
        k(   43) = (   0.3966736   0.2290196   0.3494132), wk =   0.0380952
        k(   44) = (   0.3966736   0.2290196   0.5241198), wk =   0.0380952
        k(   45) = (   0.3966736   0.4198693   0.0000000), wk =   0.0190476
        k(   46) = (   0.3966736   0.4198693   0.1747066), wk =   0.0380952
        k(   47) = (   0.3966736   0.4198693   0.3494132), wk =   0.0380952
        k(   48) = (   0.3966736   0.4198693   0.5241198), wk =   0.0380952
        k(   49) = (   0.3966736   0.6107190   0.0000000), wk =   0.0190476
        k(   50) = (   0.3966736   0.6107190   0.1747066), wk =   0.0380952
        k(   51) = (   0.3966736   0.6107190   0.3494132), wk =   0.0380952
        k(   52) = (   0.3966736   0.6107190   0.5241198), wk =   0.0380952
        k(   53) = (   0.3966736  -0.3435294   0.0000000), wk =   0.0190476
        k(   54) = (   0.3966736  -0.3435294   0.1747066), wk =   0.0380952
        k(   55) = (   0.3966736  -0.3435294   0.3494132), wk =   0.0380952
        k(   56) = (   0.3966736  -0.3435294   0.5241198), wk =   0.0380952
        k(   57) = (   0.3966736  -0.1526797   0.0000000), wk =   0.0190476
        k(   58) = (   0.3966736  -0.1526797   0.1747066), wk =   0.0380952
        k(   59) = (   0.3966736  -0.1526797   0.3494132), wk =   0.0380952
        k(   60) = (   0.3966736  -0.1526797   0.5241198), wk =   0.0380952
        k(   61) = (   0.3966736   0.0381699   0.0000000), wk =   0.0190476
        k(   62) = (   0.3966736   0.0381699   0.1747066), wk =   0.0380952
        k(   63) = (   0.3966736   0.0381699   0.3494132), wk =   0.0380952
        k(   64) = (   0.3966736   0.0381699   0.5241198), wk =   0.0380952

     Largest allocated arrays     est. size (Mb)     dimensions
     Largest temporary arrays     est. size (Mb)     dimensions

     Initial potential from superposition of free atoms

     Starting from uniform charge
     Starting wfc are    0 randomized atomic wfcs

     Writing output data file Prototype-La-hP8-Mg3Cd.save

     Self-consistent Calculation

[...]

     iteration #  5     ecut=    40.00 Ry     beta=0.70
     CG style diagonalization
     ethr =  1.00E-02,  avg # of iterations =  4.2

[...]

     total energy              =   -1198.44673889 Ry
     Harris-Foulkes estimate   =   -1198.44676607 Ry
     estimated scf accuracy    <       0.00006118 Ry

     iteration # 12     ecut=    40.00 Ry     beta=0.70
     CG style diagonalization
     c_bands:  1 eigenvalues not converged
     ethr =  5.19E-08,  avg # of iterations =  3.6

     End of self-consistent calculation

[...]

          k = 0.3967 0.0382 0.5241 (  5340 PWs)   bands (ev):

   -90.1464 -90.1394 -48.7748 -48.7723 -48.7678 -48.7658 -48.7615 -48.7587
   -16.8551 -16.7587 -16.6461 -16.5988 -16.5496 -16.5143  -0.1864  -0.1293
    -0.1156  -0.0706   0.1543   0.1847   0.2408   0.2585   0.2855   0.2924
     0.3266   0.3593   0.5693   0.5952   0.7309   0.8033   1.1348   1.3900
     1.5696   1.6545   1.7997   1.9021   2.0517   2.0729   2.1348   2.2167
     2.3149   2.3473  11.4315  11.4833  16.7399  16.8493  17.2880  17.4984
    17.8550  17.8932  18.8166  18.9776  19.2875  19.5943  19.7466  19.9515
    20.0165  20.1766  20.7619  20.9161  21.2571  21.3515  21.7422  22.6062
    22.8445  23.1179  23.5392  23.6336  23.6924  23.9099  24.1954

     the Fermi energy is    21.0084 ev

!    total energy              =   -1198.44674905 Ry
     Harris-Foulkes estimate   =   -1198.44675025 Ry
     estimated scf accuracy    <       0.00000168 Ry

     The total energy is the sum of the following terms:

     one-electron contribution =    -315.09270294 Ry
     hartree contribution      =     219.27298926 Ry
     xc contribution           =    -121.18410363 Ry
     ewald contribution        =    -980.98333339 Ry
     smearing contrib. (-TS)   =      -0.45959835 Ry

     convergence has been achieved in  12 iterations

     Forces acting on atoms (Ry/au):

     atom    1 type  1   force =     0.00340114    0.00196365    0.00000000
     atom    2 type  1   force =     0.00340114   -0.00196365    0.00000000
     atom    3 type  1   force =    -0.00340114   -0.00196365    0.00000000
     atom    4 type  1   force =    -0.00340114    0.00196365    0.00000000
     atom    5 type  1   force =     0.00000000   -0.00392730    0.00000000
     atom    6 type  1   force =     0.00000000    0.00392730    0.00000000
     atom    7 type  2   force =     0.00000000    0.00000000    0.00000000
     atom    8 type  2   force =     0.00000000    0.00000000    0.00000000

     Total force =     0.009620     Total SCF correction =     0.000000

     entering subroutine stress ...

          total   stress  (Ry/bohr**3)                   (kbar)     P=   40.81
   0.00018692   0.00000000   0.00000000         27.50      0.00      0.00
   0.00000000   0.00018692   0.00000000          0.00     27.50      0.00
   0.00000000   0.00000000   0.00045849          0.00      0.00     67.45

     Writing output data file Prototype-La-hP8-Mg3Cd.save

     General routines

     Parallel routines

   This run was terminated on:   1:25:10  22Mar2018

   JOB DONE.