     Program PWSCF v.5.0.2 starts on 23Mar2018 at  0: 6: 9

     Current dimensions of program PWSCF are:
     Max number of different atomic species (ntypx) = 10
     Max number of k-points (npk) =  40000
     Max angular momentum in pseudopotentials (lmaxx) =  3
     Waiting for input...
     Reading input from standard input
               file Na.pbe-spn-kjpaw_psl.0.2.UPF: wavefunction(s)  2P 3P renormalized
               file Cl.pbe-n-kjpaw_psl.0.1.UPF: wavefunction(s)  3S 3P renormalized

     bravais-lattice index     =            0
     lattice parameter (alat)  =       9.8229  a.u.
     unit-cell volume          =     303.3665 (a.u.)^3
     number of atoms/cell      =            2
     number of atomic types    =            2
     number of electrons       =        16.00
     number of Kohn-Sham states=            8
     kinetic-energy cutoff     =      60.0000  Ry
     charge density cutoff     =     240.0000  Ry
     convergence threshold     =      1.0E-08
     mixing beta               =       0.7000
     number of iterations used =            8  plain     mixing
     Exchange-correlation      =  SLA  PW   PBX  PBC ( 1 4 3 4 0)
     EXX-fraction              =        0.00
     nstep                     =           50

     celldm(1)=   9.822928  celldm(2)=   0.000000  celldm(3)=   0.000000
     celldm(4)=   0.000000  celldm(5)=   0.000000  celldm(6)=   0.000000

     crystal axes: (cart. coord. in units of alat)
               a(1) = (   1.000000   0.000000   0.000000 )
               a(2) = (   0.275654   0.690328   0.000000 )
               a(3) = (  -0.179812   0.872200   0.463649 )

     reciprocal axes: (cart. coord. in units 2 pi/alat)
               b(1) = (  1.000000 -0.399309  1.138984 )
               b(2) = (  0.000000  1.448586 -2.725029 )
               b(3) = (  0.000000  0.000000  2.156806 )

     PseudoPot. # 1 for Na read from file:
     /projects/e20438/bin/espresso/pseudo/Na.pbe-spn-kjpaw_psl.0.2.UPF
     MD5 check sum: af6cebf537ceac8ff9d4cdfd6fc7ff14
     Pseudo is Projector augmented-wave, Zval =  9.0
     Generated using "atomic" code by A. Dal Corso  v.5.0.2 svn rev. 9415
     Shape of augmentation charge: PSQ
     Using radial grid of 1121 points,  4 beta functions with:
                l(1) =   0
                l(2) =   0
                l(3) =   1
                l(4) =   1
     Q(r) pseudized with 0 coefficients

     PseudoPot. # 2 for Cl read from file:
     /projects/e20438/bin/espresso/pseudo/Cl.pbe-n-kjpaw_psl.0.1.UPF
     MD5 check sum: 39501d8aaca1fada178cfed307344fc1
     Pseudo is Projector augmented-wave + core cor, Zval =  7.0
     Generated using "atomic" code by A. Dal Corso  v.5.0.2 svn rev. 9415
     Shape of augmentation charge: PSQ
     Using radial grid of 1157 points,  4 beta functions with:
                l(1) =   0
                l(2) =   0
                l(3) =   1
                l(4) =   1
     Q(r) pseudized with 0 coefficients

     atomic species   valence    mass     pseudopotential
        Na             9.00    22.98977     Na( 1.00)
        Cl             7.00    35.45270     Cl( 1.00)

     No symmetry found

   Cartesian axes

     site n.     atom                  positions (alat units)
         1           Na  tau(   1) = (   0.3797841   0.7796930   0.4015525  )
         2           Cl  tau(   2) = (   0.8797773   0.9802415   0.3228450  )

     number of k points=    62
                       cart. coord. in units 2pi/alat
        k(    1) = (   0.0000000   0.0000000   0.0000000), wk =   0.0166667
        k(    2) = (   0.0000000   0.0000000   0.3594676), wk =   0.0333333
        k(    3) = (   0.0000000   0.0000000   0.7189352), wk =   0.0333333
        k(    4) = (   0.0000000   0.0000000  -1.0784028), wk =   0.0166667
        k(    5) = (   0.0000000   0.2897171  -0.5450057), wk =   0.0333333
        k(    6) = (   0.0000000   0.2897171  -0.1855381), wk =   0.0333333
        k(    7) = (   0.0000000   0.2897171   0.1739295), wk =   0.0333333
        k(    8) = (   0.0000000   0.2897171  -1.6234085), wk =   0.0333333
        k(    9) = (   0.0000000   0.2897171  -1.2639409), wk =   0.0333333
        k(   10) = (   0.0000000   0.2897171  -0.9044733), wk =   0.0333333
        k(   11) = (   0.0000000   0.5794343  -1.0900115), wk =   0.0333333
        k(   12) = (   0.0000000   0.5794343  -0.7305439), wk =   0.0333333
        k(   13) = (   0.0000000   0.5794343  -0.3710763), wk =   0.0333333
        k(   14) = (   0.0000000   0.5794343  -2.1684143), wk =   0.0333333
        k(   15) = (   0.0000000   0.5794343  -1.8089467), wk =   0.0333333
        k(   16) = (   0.0000000   0.5794343  -1.4494791), wk =   0.0333333
        k(   17) = (   0.2500000  -0.0998272   0.2847461), wk =   0.0333333
        k(   18) = (   0.2500000  -0.0998272   0.6442137), wk =   0.0333333
        k(   19) = (   0.2500000  -0.0998272   1.0036813), wk =   0.0333333
        k(   20) = (   0.2500000  -0.0998272  -0.7936567), wk =   0.0333333
        k(   21) = (   0.2500000  -0.0998272  -0.4341891), wk =   0.0333333
        k(   22) = (   0.2500000  -0.0998272  -0.0747215), wk =   0.0333333
        k(   23) = (   0.2500000   0.1898900  -0.2602596), wk =   0.0333333
        k(   24) = (   0.2500000   0.1898900   0.0992080), wk =   0.0333333
        k(   25) = (   0.2500000   0.1898900   0.4586756), wk =   0.0333333
        k(   26) = (   0.2500000   0.1898900  -1.3386624), wk =   0.0333333
        k(   27) = (   0.2500000   0.1898900  -0.9791948), wk =   0.0333333
        k(   28) = (   0.2500000   0.1898900  -0.6197272), wk =   0.0333333
        k(   29) = (   0.2500000   0.4796071  -0.8052654), wk =   0.0333333
        k(   30) = (   0.2500000   0.4796071  -0.4457978), wk =   0.0333333
        k(   31) = (   0.2500000   0.4796071  -0.0863302), wk =   0.0333333
        k(   32) = (   0.2500000   0.4796071  -1.8836682), wk =   0.0333333
        k(   33) = (   0.2500000   0.4796071  -1.5242006), wk =   0.0333333
        k(   34) = (   0.2500000   0.4796071  -1.1647330), wk =   0.0333333
        k(   35) = (   0.2500000  -0.6792615   1.3747576), wk =   0.0333333
        k(   36) = (   0.2500000  -0.6792615   1.7342252), wk =   0.0333333
        k(   37) = (   0.2500000  -0.6792615   2.0936928), wk =   0.0333333
        k(   38) = (   0.2500000  -0.6792615   0.2963548), wk =   0.0333333
        k(   39) = (   0.2500000  -0.6792615   0.6558224), wk =   0.0333333
        k(   40) = (   0.2500000  -0.6792615   1.0152900), wk =   0.0333333
        k(   41) = (   0.2500000  -0.3895443   0.8297518), wk =   0.0333333
        k(   42) = (   0.2500000  -0.3895443   1.1892194), wk =   0.0333333
        k(   43) = (   0.2500000  -0.3895443   1.5486870), wk =   0.0333333
        k(   44) = (   0.2500000  -0.3895443  -0.2486510), wk =   0.0333333
        k(   45) = (   0.2500000  -0.3895443   0.1108166), wk =   0.0333333
        k(   46) = (   0.2500000  -0.3895443   0.4702842), wk =   0.0333333
        k(   47) = (  -0.5000000   0.1996544  -0.5694922), wk =   0.0166667
        k(   48) = (  -0.5000000   0.1996544  -0.2100246), wk =   0.0333333
        k(   49) = (  -0.5000000   0.1996544   0.1494430), wk =   0.0333333
        k(   50) = (  -0.5000000   0.1996544  -1.6478950), wk =   0.0166667
        k(   51) = (  -0.5000000   0.4893715  -1.1144979), wk =   0.0333333
        k(   52) = (  -0.5000000   0.4893715  -0.7550303), wk =   0.0333333
        k(   53) = (  -0.5000000   0.4893715  -0.3955627), wk =   0.0333333
        k(   54) = (  -0.5000000   0.4893715  -2.1929007), wk =   0.0333333
        k(   55) = (  -0.5000000   0.4893715  -1.8334331), wk =   0.0333333
        k(   56) = (  -0.5000000   0.4893715  -1.4739655), wk =   0.0333333
        k(   57) = (  -0.5000000   0.7790887  -1.6595037), wk =   0.0333333
        k(   58) = (  -0.5000000   0.7790887  -1.3000361), wk =   0.0333333
        k(   59) = (  -0.5000000   0.7790887  -0.9405685), wk =   0.0333333
        k(   60) = (  -0.5000000   0.7790887  -2.7379065), wk =   0.0333333
        k(   61) = (  -0.5000000   0.7790887  -2.3784389), wk =   0.0333333
        k(   62) = (  -0.5000000   0.7790887  -2.0189713), wk =   0.0333333

     Largest allocated arrays     est. size (Mb)     dimensions
     Largest temporary arrays     est. size (Mb)     dimensions

     Check: negative/imaginary core charge=   -0.000006    0.000000

     Initial potential from superposition of free atoms

     starting charge   15.49915, renormalised to   16.00000
     Starting wfc are   12 randomized atomic wfcs
     Checking if some PAW data can be deallocated...

     Self-consistent Calculation

     iteration #  1     ecut=    60.00 Ry     beta=0.70
     CG style diagonalization
     ethr =  1.00E-02,  avg # of iterations =  2.0

     total energy              =    -188.75696553 Ry
     Harris-Foulkes estimate   =    -188.91426631 Ry
     estimated scf accuracy    <       0.18918651 Ry

[...]

     iteration # 20     ecut=    60.00 Ry     beta=0.70
     CG style diagonalization
     c_bands:  1 eigenvalues not converged
     c_bands:  1 eigenvalues not converged
     ethr =  2.10E-09,  avg # of iterations =  7.4

[...]

     End of self-consistent calculation

          k = 0.0000 0.0000 0.0000 (  2359 PWs)   bands (ev):

   -47.9764 -19.8928 -19.8917 -19.8692 -11.5734   1.0558   1.0860   1.2456

[...]

          k =-0.5000 0.1997-0.5695 (  2398 PWs)   bands (ev):

[...]

!    total energy              =    -188.84007602 Ry
     Harris-Foulkes estimate   =    -188.84007602 Ry
     estimated scf accuracy    <          1.7E-09 Ry

     total all-electron energy =     -1248.127068 Ry

     The total energy is the sum of the following terms:

     one-electron contribution =     -81.79527636 Ry
     hartree contribution      =      42.65960055 Ry
     xc contribution           =     -24.68572905 Ry
     ewald contribution        =     -68.39723426 Ry
     one-center paw contrib.   =     -56.62143690 Ry

     convergence has been achieved in  25 iterations

     Forces acting on atoms (Ry/au):

     atom    1 type  1   force =    -0.00006962    0.00003799   -0.00008960
     atom    2 type  2   force =     0.00006962   -0.00003799    0.00008960

     Total force =     0.000169     Total SCF correction =     0.000003

     entering subroutine stress ...

          total   stress  (Ry/bohr**3)                   (kbar)     P=   12.98
   0.00009793  -0.00001400  -0.00002503         14.41     -2.06     -3.68
  -0.00001400   0.00006659   0.00001078         -2.06      9.80      1.59
  -0.00002503   0.00001078   0.00010017         -3.68      1.59     14.74

     BFGS Geometry Optimization

     number of scf cycles    =   1
     number of bfgs steps    =   0

     enthalpy new            =    -188.8400760194 Ry

     new trust radius        =       0.0090403192 bohr
     new conv_thr            =       0.0000000100 Ry

     new unit-cell volume =    305.37813 a.u.^3 (    45.25237 Ang^3 )

CELL_PARAMETERS (alat=  9.82292779)
   1.002448313  -0.000350071  -0.000625699
   0.276087429   0.691381155   0.000013543
  -0.180847320   0.873839398   0.465157244

ATOMIC_POSITIONS (crystal)
Na       0.525788968   0.035240325   0.866051108
[...]

[...]

     number of scf cycles    =   8
     number of bfgs steps    =   7

     enthalpy old            =    -188.8407714817 Ry
     enthalpy new            =    -188.8407724504 Ry

     CASE: enthalpy_new < enthalpy_old

     new trust radius        =       0.0017856937 bohr
     new conv_thr            =            1.0E-10 Ry

     new unit-cell volume =    318.51932 a.u.^3 (    47.19969 Ang^3 )

[...]

ATOMIC_POSITIONS (crystal)
Na       0.525342275   0.035957921   0.865591237
Cl       0.856539411   0.539453828   0.696793537

     Writing output data file NaCl_pegs+pwscf.save
     NEW-OLD atomic charge density approx. for the potential
     NEW k-points:
        k(    1) = (   0.0000000   0.0000000   0.0000000), wk =   0.0166667
        k(    2) = (   0.0011090  -0.0005393   0.3527805), wk =   0.0333333
        k(    3) = (   0.0022179  -0.0010787   0.7055609), wk =   0.0333333
        k(    4) = (  -0.0033269   0.0016180  -1.0583414), wk =   0.0166667
        k(    5) = (  -0.0009023   0.2871448  -0.5353017), wk =   0.0333333
        k(    6) = (   0.0002067   0.2866055  -0.1825213), wk =   0.0333333
        k(    7) = (   0.0013156   0.2860661   0.1702592), wk =   0.0333333
        k(    8) = (  -0.0042291   0.2887629  -1.5936431), wk =   0.0333333
        k(    9) = (  -0.0031202   0.2882235  -1.2408627), wk =   0.0333333
        k(   10) = (  -0.0020112   0.2876842  -0.8880822), wk =   0.0333333
        k(   11) = (  -0.0018046   0.5742897  -1.0706035), wk =   0.0333333
        k(   12) = (  -0.0006956   0.5737503  -0.7178230), wk =   0.0333333
        k(   13) = (   0.0004133   0.5732110  -0.3650426), wk =   0.0333333
        k(   14) = (  -0.0051314   0.5759077  -2.1289449), wk =   0.0333333
        k(   15) = (  -0.0040225   0.5753684  -1.7761644), wk =   0.0333333
        k(   16) = (  -0.0029135   0.5748290  -1.4233840), wk =   0.0333333
        k(   17) = (   0.2461077  -0.0984141   0.2803700), wk =   0.0333333
        k(   18) = (   0.2472166  -0.0989534   0.6331505), wk =   0.0333333
        k(   19) = (   0.2483256  -0.0994928   0.9859309), wk =   0.0333333
        k(   20) = (   0.2427808  -0.0967960  -0.7779714), wk =   0.0333333
        k(   21) = (   0.2438898  -0.0973354  -0.4251909), wk =   0.0333333
        k(   22) = (   0.2449987  -0.0978747  -0.0724104), wk =   0.0333333
        k(   23) = (   0.2452054   0.1887308  -0.2549317), wk =   0.0333333
        k(   24) = (   0.2463143   0.1881914   0.0978487), wk =   0.0333333
        k(   25) = (   0.2474233   0.1876521   0.4506292), wk =   0.0333333
        k(   26) = (   0.2418785   0.1903488  -1.3132731), wk =   0.0333333
        k(   27) = (   0.2429875   0.1898095  -0.9604926), wk =   0.0333333
        k(   28) = (   0.2440964   0.1892701  -0.6077122), wk =   0.0333333
        k(   29) = (   0.2443031   0.4758756  -0.7902335), wk =   0.0333333
        k(   30) = (   0.2454121   0.4753363  -0.4374530), wk =   0.0333333
        k(   31) = (   0.2465210   0.4747969  -0.0846726), wk =   0.0333333
        k(   32) = (   0.2409762   0.4774937  -1.8485749), wk =   0.0333333
        k(   33) = (   0.2420852   0.4769543  -1.4957944), wk =   0.0333333
        k(   34) = (   0.2431942   0.4764150  -1.1430139), wk =   0.0333333
        k(   35) = (   0.2479122  -0.6727037   1.3509735), wk =   0.0333333
        k(   36) = (   0.2490212  -0.6732431   1.7037540), wk =   0.0333333
        k(   37) = (   0.2501301  -0.6737824   2.0565344), wk =   0.0333333
        k(   38) = (   0.2445854  -0.6710857   0.2926321), wk =   0.0333333
        k(   39) = (   0.2456943  -0.6716250   0.6454126), wk =   0.0333333
        k(   40) = (   0.2468033  -0.6721644   0.9981931), wk =   0.0333333
        k(   41) = (   0.2470100  -0.3855589   0.8156718), wk =   0.0333333
        k(   42) = (   0.2481189  -0.3860982   1.1684522), wk =   0.0333333
        k(   43) = (   0.2492279  -0.3866376   1.5212327), wk =   0.0333333
        k(   44) = (   0.2436831  -0.3839409  -0.2426696), wk =   0.0333333
        k(   45) = (   0.2447921  -0.3844802   0.1101109), wk =   0.0333333
        k(   46) = (   0.2459010  -0.3850196   0.4628913), wk =   0.0333333
        k(   47) = (  -0.4922153   0.1968281  -0.5607400), wk =   0.0166667
        k(   48) = (  -0.4911064   0.1962888  -0.2079596), wk =   0.0333333
        k(   49) = (  -0.4899974   0.1957494   0.1448209), wk =   0.0333333
        k(   50) = (  -0.4955422   0.1984462  -1.6190814), wk =   0.0166667
        k(   51) = (  -0.4931176   0.4839730  -1.0960418), wk =   0.0333333
        k(   52) = (  -0.4920087   0.4834336  -0.7432613), wk =   0.0333333
        k(   53) = (  -0.4908997   0.4828943  -0.3904809), wk =   0.0333333
        k(   54) = (  -0.4964445   0.4855910  -2.1543832), wk =   0.0333333
        k(   55) = (  -0.4953355   0.4850516  -1.8016027), wk =   0.0333333
        k(   56) = (  -0.4942266   0.4845123  -1.4488223), wk =   0.0333333
        k(   57) = (  -0.4940199   0.7711178  -1.6313435), wk =   0.0333333
        k(   58) = (  -0.4929110   0.7705784  -1.2785631), wk =   0.0333333
        k(   59) = (  -0.4918020   0.7700391  -0.9257826), wk =   0.0333333
        k(   60) = (  -0.4973468   0.7727358  -2.6896849), wk =   0.0333333
        k(   61) = (  -0.4962378   0.7721965  -2.3369045), wk =   0.0333333
        k(   62) = (  -0.4951289   0.7716571  -1.9841240), wk =   0.0333333

     Check: negative/imaginary core charge=   -0.000004    0.000000
     extrapolated charge   16.00748, renormalised to   16.00000

[...]

     Threshold (ethr) on eigenvalues was too large:
     Diagonalizing with lowered threshold

     CG style diagonalization
     ethr =  5.69E-08,  avg # of iterations =  4.6

[...]

     bfgs converged in   9 scf cycles and   8 bfgs steps
     (criteria: energy < 0.10E-03, force < 0.10E-02, cell < 0.50E+00)

     End of BFGS Geometry Optimization

     Final enthalpy =    -188.8407736445 Ry
Begin final coordinates
     new unit-cell volume =    318.51932 a.u.^3 (    47.19969 Ang^3 )

CELL_PARAMETERS (alat=  9.82292779)
   1.018357267  -0.002775661  -0.003205414
   0.278798315   0.697743515   0.000190346
  -0.187019651   0.883755235   0.474376366

ATOMIC_POSITIONS (crystal)
Na       0.525342275   0.035957921   0.865591237
Cl       0.856539411   0.539453828   0.696793537
End final coordinates

     A final scf calculation at the relaxed structure.
     The G-vectors are recalculated for the final unit cell
     Results may differ from those at the preceding step.

     bravais-lattice index     =            0
     lattice parameter (alat)  =       9.8229  a.u.
     unit-cell volume          =     318.5193 (a.u.)^3
     number of atoms/cell      =            2
     number of atomic types    =            2
     number of electrons       =        16.00
     number of Kohn-Sham states=            8
     kinetic-energy cutoff     =      60.0000  Ry
     charge density cutoff     =     240.0000  Ry
     convergence threshold     =      1.0E-10
     mixing beta               =       0.7000
     number of iterations used =            8  plain     mixing
     Exchange-correlation      =  SLA  PW   PBX  PBC ( 1 4 3 4 0)
     EXX-fraction              =        0.00

     celldm(1)=   9.822928  celldm(2)=   0.000000  celldm(3)=   0.000000
     celldm(4)=   0.000000  celldm(5)=   0.000000  celldm(6)=   0.000000

     crystal axes: (cart. coord. in units of alat)
               a(1) = (   1.018357  -0.002776  -0.003205 )
               a(2) = (   0.278798   0.697744   0.000190 )
               a(3) = (  -0.187020   0.883755   0.474376 )

     reciprocal axes: (cart. coord. in units 2 pi/alat)
               b(1) = (  0.984431 -0.393656  1.121480 )
               b(2) = ( -0.004511  1.435724 -2.676509 )
               b(3) = (  0.006654 -0.003236  2.116683 )

     PseudoPot. # 1 for Na read from file:
     /projects/e20438/bin/espresso/pseudo/Na.pbe-spn-kjpaw_psl.0.2.UPF
     MD5 check sum: af6cebf537ceac8ff9d4cdfd6fc7ff14
     Pseudo is Projector augmented-wave, Zval =  9.0
     Generated using "atomic" code by A. Dal Corso  v.5.0.2 svn rev. 9415
     Shape of augmentation charge: PSQ
     Using radial grid of 1121 points,  4 beta functions with:
                l(1) =   0
                l(2) =   0
                l(3) =   1
                l(4) =   1
     Q(r) pseudized with 0 coefficients

     PseudoPot. # 2 for Cl read from file:
     /projects/e20438/bin/espresso/pseudo/Cl.pbe-n-kjpaw_psl.0.1.UPF
     MD5 check sum: 39501d8aaca1fada178cfed307344fc1
     Pseudo is Projector augmented-wave + core cor, Zval =  7.0
     Generated using "atomic" code by A. Dal Corso  v.5.0.2 svn rev. 9415
     Shape of augmentation charge: PSQ
     Using radial grid of 1157 points,  4 beta functions with:
                l(1) =   0
                l(2) =   0
                l(3) =   1
                l(4) =   1
     Q(r) pseudized with 0 coefficients

     atomic species   valence    mass     pseudopotential
        Na             9.00    22.98977     Na( 1.00)
        Cl             7.00    35.45270     Cl( 1.00)

     No symmetry found

   Cartesian axes

     site n.     atom                  positions (alat units)
         1           Na  tau(   1) = (   0.3831286   0.7886020   0.4089389  )
         2           Cl  tau(   2) = (   0.8923479   0.9898179   0.3278995  )

     number of k points=    62
                       cart. coord. in units 2pi/alat
        k(    1) = (   0.0000000   0.0000000   0.0000000), wk =   0.0166667
        k(    2) = (   0.0011090  -0.0005393   0.3527805), wk =   0.0333333
        k(    3) = (   0.0022179  -0.0010787   0.7055609), wk =   0.0333333
        k(    4) = (  -0.0033269   0.0016180  -1.0583414), wk =   0.0166667
        k(    5) = (  -0.0009023   0.2871448  -0.5353017), wk =   0.0333333
        k(    6) = (   0.0002067   0.2866055  -0.1825213), wk =   0.0333333
        k(    7) = (   0.0013156   0.2860661   0.1702592), wk =   0.0333333
        k(    8) = (  -0.0042291   0.2887629  -1.5936431), wk =   0.0333333
        k(    9) = (  -0.0031202   0.2882235  -1.2408627), wk =   0.0333333
        k(   10) = (  -0.0020112   0.2876842  -0.8880822), wk =   0.0333333
        k(   11) = (  -0.0018046   0.5742897  -1.0706035), wk =   0.0333333
        k(   12) = (  -0.0006956   0.5737503  -0.7178230), wk =   0.0333333
        k(   13) = (   0.0004133   0.5732110  -0.3650426), wk =   0.0333333
        k(   14) = (  -0.0051314   0.5759077  -2.1289449), wk =   0.0333333
        k(   15) = (  -0.0040225   0.5753684  -1.7761644), wk =   0.0333333
        k(   16) = (  -0.0029135   0.5748290  -1.4233840), wk =   0.0333333
        k(   17) = (   0.2461077  -0.0984141   0.2803700), wk =   0.0333333
        k(   18) = (   0.2472166  -0.0989534   0.6331505), wk =   0.0333333
        k(   19) = (   0.2483256  -0.0994928   0.9859309), wk =   0.0333333
        k(   20) = (   0.2427808  -0.0967960  -0.7779714), wk =   0.0333333
        k(   21) = (   0.2438898  -0.0973354  -0.4251909), wk =   0.0333333
        k(   22) = (   0.2449987  -0.0978747  -0.0724104), wk =   0.0333333
        k(   23) = (   0.2452054   0.1887308  -0.2549317), wk =   0.0333333
        k(   24) = (   0.2463143   0.1881914   0.0978487), wk =   0.0333333
        k(   25) = (   0.2474233   0.1876521   0.4506292), wk =   0.0333333
        k(   26) = (   0.2418785   0.1903488  -1.3132731), wk =   0.0333333
        k(   27) = (   0.2429875   0.1898095  -0.9604926), wk =   0.0333333
        k(   28) = (   0.2440964   0.1892701  -0.6077122), wk =   0.0333333
        k(   29) = (   0.2443031   0.4758756  -0.7902335), wk =   0.0333333
        k(   30) = (   0.2454121   0.4753363  -0.4374530), wk =   0.0333333
        k(   31) = (   0.2465210   0.4747969  -0.0846726), wk =   0.0333333
        k(   32) = (   0.2409762   0.4774937  -1.8485749), wk =   0.0333333
        k(   33) = (   0.2420852   0.4769543  -1.4957944), wk =   0.0333333
        k(   34) = (   0.2431942   0.4764150  -1.1430139), wk =   0.0333333
        k(   35) = (   0.2479122  -0.6727037   1.3509735), wk =   0.0333333
        k(   36) = (   0.2490212  -0.6732431   1.7037540), wk =   0.0333333
        k(   37) = (   0.2501301  -0.6737824   2.0565344), wk =   0.0333333
        k(   38) = (   0.2445854  -0.6710857   0.2926321), wk =   0.0333333
        k(   39) = (   0.2456943  -0.6716250   0.6454126), wk =   0.0333333
        k(   40) = (   0.2468033  -0.6721644   0.9981931), wk =   0.0333333
        k(   41) = (   0.2470100  -0.3855589   0.8156718), wk =   0.0333333
        k(   42) = (   0.2481189  -0.3860982   1.1684522), wk =   0.0333333
        k(   43) = (   0.2492279  -0.3866376   1.5212327), wk =   0.0333333
        k(   44) = (   0.2436831  -0.3839409  -0.2426696), wk =   0.0333333
        k(   45) = (   0.2447921  -0.3844802   0.1101109), wk =   0.0333333
        k(   46) = (   0.2459010  -0.3850196   0.4628913), wk =   0.0333333
        k(   47) = (  -0.4922153   0.1968281  -0.5607400), wk =   0.0166667
        k(   48) = (  -0.4911064   0.1962888  -0.2079596), wk =   0.0333333
        k(   49) = (  -0.4899974   0.1957494   0.1448209), wk =   0.0333333
        k(   50) = (  -0.4955422   0.1984462  -1.6190814), wk =   0.0166667
        k(   51) = (  -0.4931176   0.4839730  -1.0960418), wk =   0.0333333
        k(   52) = (  -0.4920087   0.4834336  -0.7432613), wk =   0.0333333
        k(   53) = (  -0.4908997   0.4828943  -0.3904809), wk =   0.0333333
        k(   54) = (  -0.4964445   0.4855910  -2.1543832), wk =   0.0333333
        k(   55) = (  -0.4953355   0.4850516  -1.8016027), wk =   0.0333333
        k(   56) = (  -0.4942266   0.4845123  -1.4488223), wk =   0.0333333
        k(   57) = (  -0.4940199   0.7711178  -1.6313435), wk =   0.0333333
        k(   58) = (  -0.4929110   0.7705784  -1.2785631), wk =   0.0333333
        k(   59) = (  -0.4918020   0.7700391  -0.9257826), wk =   0.0333333
        k(   60) = (  -0.4973468   0.7727358  -2.6896849), wk =   0.0333333
        k(   61) = (  -0.4962378   0.7721965  -2.3369045), wk =   0.0333333
        k(   62) = (  -0.4951289   0.7716571  -1.9841240), wk =   0.0333333

     Largest allocated arrays     est. size (Mb)     dimensions
     Largest temporary arrays     est. size (Mb)     dimensions

     Check: negative/imaginary core charge=   -0.000005    0.000000

     Initial potential from superposition of free atoms

     starting charge   15.49915, renormalised to   16.00000
     Starting wfc are   12 randomized atomic wfcs
     Checking if some PAW data can be deallocated...

     Writing output data file NaCl_pegs+pwscf.save

     Self-consistent Calculation

[...]

     iteration # 15     ecut=    60.00 Ry     beta=0.70
     CG style diagonalization
     c_bands:  1 eigenvalues not converged
     ethr =  1.14E-09,  avg # of iterations =  4.3

[...]

     total energy              =    -188.84079511 Ry
     Harris-Foulkes estimate   =    -188.84079511 Ry
     estimated scf accuracy    <          2.6E-10 Ry

     iteration # 26     ecut=    60.00 Ry     beta=0.70
     CG style diagonalization
     ethr =  1.64E-12,  avg # of iterations =  5.5

     End of self-consistent calculation

[...]

          k = 0.2459-0.3850 0.4629 (  2505 PWs)   bands (ev):

[...]

          k =-0.4951 0.7717-1.9841 (  2509 PWs)   bands (ev):

   -48.4295 -20.3612 -20.3499 -20.3484 -11.3424  -0.6777  -0.4540   0.5897

!    total energy              =    -188.84079512 Ry
     Harris-Foulkes estimate   =    -188.84079512 Ry
     estimated scf accuracy    <          4.4E-11 Ry

     total all-electron energy =     -1248.127788 Ry

     The total energy is the sum of the following terms:

     one-electron contribution =     -83.51108003 Ry
     hartree contribution      =      43.28350464 Ry
     xc contribution           =     -24.66653292 Ry
     ewald contribution        =     -67.32769176 Ry
     one-center paw contrib.   =     -56.61899505 Ry

     convergence has been achieved in  26 iterations

     Forces acting on atoms (Ry/au):

     atom    1 type  1   force =    -0.00009153    0.00005246   -0.00011449
     atom    2 type  2   force =     0.00009153   -0.00005246    0.00011449

     Total force =     0.000220     Total SCF correction =     0.000002

     entering subroutine stress ...

          total   stress  (Ry/bohr**3)                   (kbar)     P=   -0.06
   0.00000009  -0.00000064   0.00000277          0.01     -0.09      0.41
  -0.00000064  -0.00000194  -0.00000081         -0.09     -0.29     -0.12
   0.00000277  -0.00000081   0.00000057          0.41     -0.12      0.08

     Writing output data file NaCl_pegs+pwscf.save

     General routines

     Parallel routines

     PAW routines

   This run was terminated on:   1:15:28  23Mar2018

   JOB DONE.