     Program PWSCF v.5.0.2 starts on 23Mar2018 at  0: 8:42

     Current dimensions of program PWSCF are:
     Max number of different atomic species (ntypx) = 10
     Max number of k-points (npk) =  40000
     Max angular momentum in pseudopotentials (lmaxx) =  3
     Waiting for input...
     Reading input from standard input
               file Na.pbe-spn-kjpaw_psl.0.2.UPF: wavefunction(s)  2P 3P renormalized
               file Cl.pbe-n-kjpaw_psl.0.1.UPF: wavefunction(s)  3S 3P renormalized

     bravais-lattice index     =            0
     lattice parameter (alat)  =       7.5905  a.u.
     unit-cell volume          =     306.0234 (a.u.)^3
     number of atoms/cell      =            2
     number of atomic types    =            2
     number of electrons       =        16.00
     number of Kohn-Sham states=            8
     kinetic-energy cutoff     =      60.0000  Ry
     charge density cutoff     =     240.0000  Ry
     convergence threshold     =      1.0E-08
     mixing beta               =       0.7000
     number of iterations used =            8  plain     mixing
     Exchange-correlation      =  SLA  PW   PBX  PBC ( 1 4 3 4 0)
     EXX-fraction              =        0.00
     nstep                     =           50

     celldm(1)=   7.590502  celldm(2)=   0.000000  celldm(3)=   0.000000
     celldm(4)=   0.000000  celldm(5)=   0.000000  celldm(6)=   0.000000

     crystal axes: (cart. coord. in units of alat)
               a(1) = (   1.000000   0.000000   0.000000 )
               a(2) = (   0.000929   0.993763   0.000000 )
               a(3) = (   0.519016   0.481357   0.704142 )

     reciprocal axes: (cart. coord. in units 2 pi/alat)
               b(1) = (  1.000000 -0.000935 -0.736450 )
               b(2) = (  0.000000  1.006276 -0.687898 )
               b(3) = (  0.000000  0.000000  1.420169 )

     PseudoPot. # 1 for Na read from file:
     /projects/e20438/bin/espresso/pseudo/Na.pbe-spn-kjpaw_psl.0.2.UPF
     MD5 check sum: af6cebf537ceac8ff9d4cdfd6fc7ff14
     Pseudo is Projector augmented-wave, Zval =  9.0
     Generated using "atomic" code by A. Dal Corso  v.5.0.2 svn rev. 9415
     Shape of augmentation charge: PSQ
     Using radial grid of 1121 points,  4 beta functions with:
                l(1) =   0
                l(2) =   0
                l(3) =   1
                l(4) =   1
     Q(r) pseudized with 0 coefficients

     PseudoPot. # 2 for Cl read from file:
     /projects/e20438/bin/espresso/pseudo/Cl.pbe-n-kjpaw_psl.0.1.UPF
     MD5 check sum: 39501d8aaca1fada178cfed307344fc1
     Pseudo is Projector augmented-wave + core cor, Zval =  7.0
     Generated using "atomic" code by A. Dal Corso  v.5.0.2 svn rev. 9415
     Shape of augmentation charge: PSQ
     Using radial grid of 1157 points,  4 beta functions with:
                l(1) =   0
                l(2) =   0
                l(3) =   1
                l(4) =   1
     Q(r) pseudized with 0 coefficients

     atomic species   valence    mass     pseudopotential
        Na             9.00    22.98977     Na( 1.00)
        Cl             7.00    35.45270     Cl( 1.00)

     No symmetry found

   Cartesian axes

     site n.     atom                  positions (alat units)
         1           Na  tau(   1) = (   0.7714156   1.0907684   0.6582660  )
         2           Cl  tau(   2) = (   1.2713941   0.5943624   0.6582623  )

     number of k points=   106

     Number of k-points >= 100: set verbosity='high' to print them.

     Largest allocated arrays     est. size (Mb)     dimensions
     Largest temporary arrays     est. size (Mb)     dimensions

     Check: negative/imaginary core charge=   -0.000006    0.000000

     Initial potential from superposition of free atoms

     starting charge   15.49915, renormalised to   16.00000
     Starting wfc are   12 randomized atomic wfcs
     Checking if some PAW data can be deallocated...

     Self-consistent Calculation

     iteration #  1     ecut=    60.00 Ry     beta=0.70
     CG style diagonalization
     ethr =  1.00E-02,  avg # of iterations =  2.0

     total energy              =    -188.77469057 Ry
     Harris-Foulkes estimate   =    -188.92444523 Ry
     estimated scf accuracy    <       0.17986126 Ry

[...]

     iteration #  5     ecut=    60.00 Ry     beta=0.70
     CG style diagonalization
     c_bands:  1 eigenvalues not converged
     c_bands:  1 eigenvalues not converged
     c_bands:  1 eigenvalues not converged
     ethr =  8.61E-07,  avg # of iterations =  7.7

[...]

     End of self-consistent calculation

     Number of k-points >= 100: set verbosity='high' to print the bands.

!    total energy              =    -188.85115754 Ry
     Harris-Foulkes estimate   =    -188.85115754 Ry
     estimated scf accuracy    <          5.0E-09 Ry

     total all-electron energy =     -1248.138150 Ry

     The total energy is the sum of the following terms:

     one-electron contribution =     -81.40033612 Ry
     hartree contribution      =      42.40407907 Ry
     xc contribution           =     -24.67639297 Ry
     ewald contribution        =     -68.55846331 Ry
     one-center paw contrib.   =     -56.62004421 Ry

     convergence has been achieved in  19 iterations

     Forces acting on atoms (Ry/au):

     atom    1 type  1   force =     0.00007650    0.00008782   -0.00000333
     atom    2 type  2   force =    -0.00007650   -0.00008782    0.00000333

     Total force =     0.000165     Total SCF correction =     0.000005

     entering subroutine stress ...

          total   stress  (Ry/bohr**3)                   (kbar)     P=    4.45
   0.00002351  -0.00000175  -0.00002258          3.46     -0.26     -3.32
  -0.00000175   0.00003455   0.00001850         -0.26      5.08      2.72
  -0.00002258   0.00001850   0.00003272         -3.32      2.72      4.81

     BFGS Geometry Optimization

     number of scf cycles    =   1
     number of bfgs steps    =   0

     enthalpy new            =    -188.8511575375 Ry

     new trust radius        =       0.0038355338 bohr
     new conv_thr            =       0.0000000100 Ry

     new unit-cell volume =    306.71823 a.u.^3 (    45.45095 Ang^3 )

CELL_PARAMETERS (alat=  7.59050249)
   1.000587743  -0.000043684  -0.000564514
   0.000886435   0.994621647   0.000459114
   0.518902050   0.482075424   0.704647288

ATOMIC_POSITIONS (crystal)
Na       0.285625745   0.644806007   0.934848194
Cl       0.786050359   0.145263247   0.934844191

     Writing output data file NaCl_pegs+pwscf.save
     NEW-OLD atomic charge density approx. for the potential
     NEW k-points: (use verbosity='high' to print them)

     Check: negative/imaginary core charge=   -0.000006    0.000000
     extrapolated charge   16.03511, renormalised to   16.00000

[...]

     enthalpy old            =    -188.8511575375 Ry
     enthalpy new            =    -188.8511898935 Ry

     CASE: enthalpy_new < enthalpy_old

     WARNING: bfgs curvature condition failed, Theta= 0.994
     new trust radius        =       0.0057511496 bohr
     new conv_thr            =            1.0E-10 Ry

[...]

     WARNING: bfgs curvature condition failed, Theta= 0.999
     new trust radius        =       0.0086201417 bohr
     new conv_thr            =            1.0E-10 Ry

[...]

     Total force =     0.000020     Total SCF correction =     0.000009
     SCF correction compared to forces is large: reduce conv_thr to get better values

[...]

     Total force =     0.000018     Total SCF correction =     0.000006
     SCF correction compared to forces is large: reduce conv_thr to get better values

[...]

     number of scf cycles    =  10
     number of bfgs steps    =   9

     enthalpy old            =    -188.8513884941 Ry
     enthalpy new            =    -188.8513936626 Ry

     CASE: enthalpy_new < enthalpy_old

     new trust radius        =       0.0022188904 bohr
     new conv_thr            =            1.0E-10 Ry

     new unit-cell volume =    311.47333 a.u.^3 (    46.15559 Ang^3 )

[...]

ATOMIC_POSITIONS (crystal)
Na       0.285834652   0.645051451   0.934856840
Cl       0.785841452   0.145017802   0.934835545

     Writing output data file NaCl_pegs+pwscf.save
     NEW-OLD atomic charge density approx. for the potential
     NEW k-points: (use verbosity='high' to print them)

     Check: negative/imaginary core charge=   -0.000005    0.000000
     extrapolated charge   15.97188, renormalised to   16.00000

[...]

     bfgs converged in  11 scf cycles and  10 bfgs steps
     (criteria: energy < 0.10E-03, force < 0.10E-02, cell < 0.50E+00)

     End of BFGS Geometry Optimization

     Final enthalpy =    -188.8513945663 Ry
Begin final coordinates
     new unit-cell volume =    311.47333 a.u.^3 (    46.15559 Ang^3 )

CELL_PARAMETERS (alat=  7.59050249)
   1.002187026  -0.000481610  -0.013516826
   0.000449341   1.002418822   0.011237690
   0.510399866   0.493271800   0.707594473

ATOMIC_POSITIONS (crystal)
Na       0.285834652   0.645051451   0.934856840
Cl       0.785841452   0.145017802   0.934835545
End final coordinates

     A final scf calculation at the relaxed structure.
     The G-vectors are recalculated for the final unit cell
     Results may differ from those at the preceding step.

     bravais-lattice index     =            0
     lattice parameter (alat)  =       7.5905  a.u.
     unit-cell volume          =     311.4733 (a.u.)^3
     number of atoms/cell      =            2
     number of atomic types    =            2
     number of electrons       =        16.00
     number of Kohn-Sham states=            8
     kinetic-energy cutoff     =      60.0000  Ry
     charge density cutoff     =     240.0000  Ry
     convergence threshold     =      1.0E-10
     mixing beta               =       0.7000
     number of iterations used =            8  plain     mixing
     Exchange-correlation      =  SLA  PW   PBX  PBC ( 1 4 3 4 0)
     EXX-fraction              =        0.00

     celldm(1)=   7.590502  celldm(2)=   0.000000  celldm(3)=   0.000000
     celldm(4)=   0.000000  celldm(5)=   0.000000  celldm(6)=   0.000000

     crystal axes: (cart. coord. in units of alat)
               a(1) = (   1.002187  -0.000482  -0.013517 )
               a(2) = (   0.000449   1.002419   0.011238 )
               a(3) = (   0.510400   0.493272   0.707594 )

     reciprocal axes: (cart. coord. in units 2 pi/alat)
               b(1) = (  0.988137  0.007607 -0.718063 )
               b(2) = ( -0.008883  1.005376 -0.694451 )
               b(3) = (  0.019017 -0.015822  1.410551 )

     PseudoPot. # 1 for Na read from file:
     /projects/e20438/bin/espresso/pseudo/Na.pbe-spn-kjpaw_psl.0.2.UPF
     MD5 check sum: af6cebf537ceac8ff9d4cdfd6fc7ff14
     Pseudo is Projector augmented-wave, Zval =  9.0
     Generated using "atomic" code by A. Dal Corso  v.5.0.2 svn rev. 9415
     Shape of augmentation charge: PSQ
     Using radial grid of 1121 points,  4 beta functions with:
                l(1) =   0
                l(2) =   0
                l(3) =   1
                l(4) =   1
     Q(r) pseudized with 0 coefficients

     PseudoPot. # 2 for Cl read from file:
     /projects/e20438/bin/espresso/pseudo/Cl.pbe-n-kjpaw_psl.0.1.UPF
     MD5 check sum: 39501d8aaca1fada178cfed307344fc1
     Pseudo is Projector augmented-wave + core cor, Zval =  7.0
     Generated using "atomic" code by A. Dal Corso  v.5.0.2 svn rev. 9415
     Shape of augmentation charge: PSQ
     Using radial grid of 1157 points,  4 beta functions with:
                l(1) =   0
                l(2) =   0
                l(3) =   1
                l(4) =   1
     Q(r) pseudized with 0 coefficients

     atomic species   valence    mass     pseudopotential
        Na             9.00    22.98977     Na( 1.00)
        Cl             7.00    35.45270     Cl( 1.00)

     No symmetry found

   Cartesian axes

     site n.     atom                  positions (alat units)
         1           Na  tau(   1) = (   0.7639004   1.1076126   0.6648848  )
         2           Cl  tau(   2) = (   1.2647652   0.6061181   0.6524920  )

     number of k points=   106

     Number of k-points >= 100: set verbosity='high' to print them.

     Largest allocated arrays     est. size (Mb)     dimensions
     Largest temporary arrays     est. size (Mb)     dimensions

     Check: negative/imaginary core charge=   -0.000006    0.000000

     Initial potential from superposition of free atoms

     starting charge   15.49915, renormalised to   16.00000
     Starting wfc are   12 randomized atomic wfcs
     Checking if some PAW data can be deallocated...

     Writing output data file NaCl_pegs+pwscf.save

     Self-consistent Calculation

[...]

     iteration # 30     ecut=    60.00 Ry     beta=0.70
     CG style diagonalization
     c_bands:  1 eigenvalues not converged
     c_bands:  1 eigenvalues not converged
     ethr =  1.04E-12,  avg # of iterations =  5.9

     total energy              =    -188.85140253 Ry
     Harris-Foulkes estimate   =    -188.85140253 Ry
     estimated scf accuracy    <          1.6E-10 Ry

     iteration # 31     ecut=    60.00 Ry     beta=0.70
     CG style diagonalization
     ethr =  1.01E-12,  avg # of iterations =  5.0

     End of self-consistent calculation

     Number of k-points >= 100: set verbosity='high' to print the bands.

!    total energy              =    -188.85140253 Ry
     Harris-Foulkes estimate   =    -188.85140253 Ry
     estimated scf accuracy    <          4.9E-12 Ry

     total all-electron energy =     -1248.138395 Ry

     The total energy is the sum of the following terms:

     one-electron contribution =     -82.05927948 Ry
     hartree contribution      =      42.64886486 Ry
     xc contribution           =     -24.66994957 Ry
     ewald contribution        =     -68.15182518 Ry
     one-center paw contrib.   =     -56.61921317 Ry

     convergence has been achieved in  31 iterations

     Forces acting on atoms (Ry/au):

     atom    1 type  1   force =    -0.00000625   -0.00000830    0.00000133
     atom    2 type  2   force =     0.00000625    0.00000830   -0.00000133

     Total force =     0.000015     Total SCF correction =     0.000001

     entering subroutine stress ...

          total   stress  (Ry/bohr**3)                   (kbar)     P=   -0.02
   0.00000015   0.00000021   0.00000061          0.02      0.03      0.09
   0.00000021  -0.00000025  -0.00000030          0.03     -0.04     -0.04
   0.00000061  -0.00000030  -0.00000031          0.09     -0.04     -0.05

     Writing output data file NaCl_pegs+pwscf.save

     General routines

     Parallel routines

     PAW routines

   This run was terminated on:   0:15: 2  23Mar2018

   JOB DONE.