     Program PWSCF v.5.0.2 starts on 23Mar2018 at  0: 4:49

     Current dimensions of program PWSCF are:
     Max number of different atomic species (ntypx) = 10
     Max number of k-points (npk) =  40000
     Max angular momentum in pseudopotentials (lmaxx) =  3
     Waiting for input...
     Reading input from standard input
               file Na.pbe-spn-kjpaw_psl.0.2.UPF: wavefunction(s)  2P 3P renormalized
               file Cl.pbe-n-kjpaw_psl.0.1.UPF: wavefunction(s)  3S 3P renormalized

     bravais-lattice index     =            0
     lattice parameter (alat)  =      12.7266  a.u.
     unit-cell volume          =     305.6813 (a.u.)^3
     number of atoms/cell      =            2
     number of atomic types    =            2
     number of electrons       =        16.00
     number of Kohn-Sham states=            8
     kinetic-energy cutoff     =      60.0000  Ry
     charge density cutoff     =     240.0000  Ry
     convergence threshold     =      1.0E-08
     mixing beta               =       0.7000
     number of iterations used =            8  plain     mixing
     Exchange-correlation      =  SLA  PW   PBX  PBC ( 1 4 3 4 0)
     EXX-fraction              =        0.00
     nstep                     =           50

     celldm(1)=  12.726644  celldm(2)=   0.000000  celldm(3)=   0.000000
     celldm(4)=   0.000000  celldm(5)=   0.000000  celldm(6)=   0.000000

     crystal axes: (cart. coord. in units of alat)
               a(1) = (   1.000000   0.000000   0.000000 )
               a(2) = (   0.211009   0.579535   0.000000 )
               a(3) = (   0.515881   0.172950   0.255887 )

     reciprocal axes: (cart. coord. in units 2 pi/alat)
               b(1) = (  1.000000 -0.364100 -1.769960 )
               b(2) = (  0.000000  1.725522 -1.166257 )
               b(3) = (  0.000000  0.000000  3.907980 )

     PseudoPot. # 1 for Na read from file:
     /projects/e20438/bin/espresso/pseudo/Na.pbe-spn-kjpaw_psl.0.2.UPF
     MD5 check sum: af6cebf537ceac8ff9d4cdfd6fc7ff14
     Pseudo is Projector augmented-wave, Zval =  9.0
     Generated using "atomic" code by A. Dal Corso  v.5.0.2 svn rev. 9415
     Shape of augmentation charge: PSQ
     Using radial grid of 1121 points,  4 beta functions with:
                l(1) =   0
                l(2) =   0
                l(3) =   1
                l(4) =   1
     Q(r) pseudized with 0 coefficients

     PseudoPot. # 2 for Cl read from file:
     /projects/e20438/bin/espresso/pseudo/Cl.pbe-n-kjpaw_psl.0.1.UPF
     MD5 check sum: 39501d8aaca1fada178cfed307344fc1
     Pseudo is Projector augmented-wave + core cor, Zval =  7.0
     Generated using "atomic" code by A. Dal Corso  v.5.0.2 svn rev. 9415
     Shape of augmentation charge: PSQ
     Using radial grid of 1157 points,  4 beta functions with:
                l(1) =   0
                l(2) =   0
                l(3) =   1
                l(4) =   1
     Q(r) pseudized with 0 coefficients

     atomic species   valence    mass     pseudopotential
        Na             9.00    22.98977     Na( 1.00)
        Cl             7.00    35.45270     Cl( 1.00)

     No symmetry found

   Cartesian axes

     site n.     atom                  positions (alat units)
         1           Na  tau(   1) = (   0.8904012   0.4445231   0.0505813  )
         2           Cl  tau(   2) = (   0.5447592   0.2421899   0.1777560  )

     number of k points=   362

     Number of k-points >= 100: set verbosity='high' to print them.

     Largest allocated arrays     est. size (Mb)     dimensions
     Largest temporary arrays     est. size (Mb)     dimensions

     Check: negative/imaginary core charge=   -0.000006    0.000000

     Initial potential from superposition of free atoms

     starting charge   15.49915, renormalised to   16.00000
     Starting wfc are   12 randomized atomic wfcs
     Checking if some PAW data can be deallocated...

     Self-consistent Calculation

     iteration #  1     ecut=    60.00 Ry     beta=0.70
     CG style diagonalization
     ethr =  1.00E-02,  avg # of iterations =  2.0

     total energy              =    -188.77232703 Ry
     Harris-Foulkes estimate   =    -188.92321616 Ry
     estimated scf accuracy    <       0.18123000 Ry

[...]

     iteration #  5     ecut=    60.00 Ry     beta=0.70
     CG style diagonalization
     c_bands:  1 eigenvalues not converged
     c_bands:  1 eigenvalues not converged
     c_bands:  1 eigenvalues not converged
     c_bands:  1 eigenvalues not converged
     c_bands:  1 eigenvalues not converged
     c_bands:  1 eigenvalues not converged
     c_bands:  1 eigenvalues not converged
     ethr =  9.53E-07,  avg # of iterations =  7.7

[...]

     End of self-consistent calculation

     Number of k-points >= 100: set verbosity='high' to print the bands.

!    total energy              =    -188.84964635 Ry
     Harris-Foulkes estimate   =    -188.84964635 Ry
     estimated scf accuracy    <          3.1E-09 Ry

     total all-electron energy =     -1248.136639 Ry

     The total energy is the sum of the following terms:

     one-electron contribution =     -81.28091228 Ry
     hartree contribution      =      42.34913863 Ry
     xc contribution           =     -24.67578568 Ry
     ewald contribution        =     -68.62211247 Ry
     one-center paw contrib.   =     -56.61997455 Ry

     convergence has been achieved in  14 iterations

     Forces acting on atoms (Ry/au):

     atom    1 type  1   force =     0.00058307    0.00033455   -0.00023474
     atom    2 type  2   force =    -0.00058307   -0.00033455    0.00023474

     Total force =     0.001007     Total SCF correction =     0.000007

     entering subroutine stress ...

          total   stress  (Ry/bohr**3)                   (kbar)     P=    4.62
   0.00006815  -0.00007705  -0.00001756         10.03    -11.33     -2.58
  -0.00007705   0.00000452  -0.00005394        -11.33      0.67     -7.93
  -0.00001756  -0.00005394   0.00002158         -2.58     -7.93      3.17

     BFGS Geometry Optimization

     number of scf cycles    =   1
     number of bfgs steps    =   0

     enthalpy new            =    -188.8496463514 Ry

     new trust radius        =       0.0091224118 bohr
     new conv_thr            =       0.0000000100 Ry

     new unit-cell volume =    306.40013 a.u.^3 (    45.40381 Ang^3 )

CELL_PARAMETERS (alat= 12.72664423)
   1.001703787  -0.001926250  -0.000438918
   0.210251794   0.579193752  -0.000874081
   0.516314010   0.171631167   0.255565060

ATOMIC_POSITIONS (crystal)
Na       0.639092282   0.708110520   0.197598640
Cl       0.141887841   0.210527914   0.694738990

     Writing output data file NaCl_pegs+pwscf.save
     NEW-OLD atomic charge density approx. for the potential
     NEW k-points: (use verbosity='high' to print them)

     Check: negative/imaginary core charge=   -0.000006    0.000000
     extrapolated charge   16.03636, renormalised to   16.00000

[...]

     enthalpy old            =    -188.8496463514 Ry
     enthalpy new            =    -188.8498192541 Ry

     CASE: enthalpy_new < enthalpy_old

     WARNING: bfgs curvature condition failed, Theta= 0.850
     new trust radius        =       0.0136666397 bohr
     new conv_thr            =            1.0E-10 Ry

[...]

     Total force =     0.000029     Total SCF correction =     0.000007
     SCF correction compared to forces is large: reduce conv_thr to get better values

[...]

     Total force =     0.000043     Total SCF correction =     0.000002

[...]

     Threshold (ethr) on eigenvalues was too large:
     Diagonalizing with lowered threshold

     CG style diagonalization
     ethr =  1.66E-08,  avg # of iterations =  5.6

[...]

     number of scf cycles    =  14
     number of bfgs steps    =  13

     enthalpy old            =    -188.8513891057 Ry
     enthalpy new            =    -188.8513902821 Ry

     CASE: enthalpy_new < enthalpy_old

     new trust radius        =       0.0035571787 bohr
     new conv_thr            =            1.0E-10 Ry

     new unit-cell volume =    311.33001 a.u.^3 (    46.13435 Ang^3 )

[...]

ATOMIC_POSITIONS (crystal)
Na       0.640489123   0.709371074   0.196145795
Cl       0.140491000   0.209267360   0.696191836

     Writing output data file NaCl_pegs+pwscf.save
     NEW-OLD atomic charge density approx. for the potential
     NEW k-points: (use verbosity='high' to print them)

     Check: negative/imaginary core charge=   -0.000005    0.000000
     extrapolated charge   16.00589, renormalised to   16.00000

[...]

     Threshold (ethr) on eigenvalues was too large:
     Diagonalizing with lowered threshold

     CG style diagonalization
     ethr =  5.87E-08,  avg # of iterations =  5.2

[...]

     bfgs converged in  15 scf cycles and  14 bfgs steps
     (criteria: energy < 0.10E-03, force < 0.10E-02, cell < 0.50E+00)

     End of BFGS Geometry Optimization

     Final enthalpy =    -188.8513916002 Ry
Begin final coordinates
     new unit-cell volume =    311.33001 a.u.^3 (    46.13435 Ang^3 )

CELL_PARAMETERS (alat= 12.72664423)
   1.032988379  -0.039881738  -0.006556843
   0.195076372   0.565366666  -0.017587451
   0.524423901   0.143488654   0.247213710

ATOMIC_POSITIONS (crystal)
Na       0.640489123   0.709371074   0.196145795
Cl       0.140491000   0.209267360   0.696191836
End final coordinates

     A final scf calculation at the relaxed structure.
     The G-vectors are recalculated for the final unit cell
     Results may differ from those at the preceding step.

     bravais-lattice index     =            0
     lattice parameter (alat)  =      12.7266  a.u.
     unit-cell volume          =     311.3300 (a.u.)^3
     number of atoms/cell      =            2
     number of atomic types    =            2
     number of electrons       =        16.00
     number of Kohn-Sham states=            8
     kinetic-energy cutoff     =      60.0000  Ry
     charge density cutoff     =     240.0000  Ry
     convergence threshold     =      1.0E-10
     mixing beta               =       0.7000
     number of iterations used =            8  plain     mixing
     Exchange-correlation      =  SLA  PW   PBX  PBC ( 1 4 3 4 0)
     EXX-fraction              =        0.00

     celldm(1)=  12.726644  celldm(2)=   0.000000  celldm(3)=   0.000000
     celldm(4)=   0.000000  celldm(5)=   0.000000  celldm(6)=   0.000000

     crystal axes: (cart. coord. in units of alat)
               a(1) = (   1.032988  -0.039882  -0.006557 )
               a(2) = (   0.195076   0.565367  -0.017587 )
               a(3) = (   0.524424   0.143489   0.247214 )

     reciprocal axes: (cart. coord. in units 2 pi/alat)
               b(1) = (  0.942096 -0.380366 -1.777730 )
               b(2) = (  0.059049  1.713553 -1.119849 )
               b(3) = (  0.029188  0.111818  3.918263 )

     PseudoPot. # 1 for Na read from file:
     /projects/e20438/bin/espresso/pseudo/Na.pbe-spn-kjpaw_psl.0.2.UPF
     MD5 check sum: af6cebf537ceac8ff9d4cdfd6fc7ff14
     Pseudo is Projector augmented-wave, Zval =  9.0
     Generated using "atomic" code by A. Dal Corso  v.5.0.2 svn rev. 9415
     Shape of augmentation charge: PSQ
     Using radial grid of 1121 points,  4 beta functions with:
                l(1) =   0
                l(2) =   0
                l(3) =   1
                l(4) =   1
     Q(r) pseudized with 0 coefficients

     PseudoPot. # 2 for Cl read from file:
     /projects/e20438/bin/espresso/pseudo/Cl.pbe-n-kjpaw_psl.0.1.UPF
     MD5 check sum: 39501d8aaca1fada178cfed307344fc1
     Pseudo is Projector augmented-wave + core cor, Zval =  7.0
     Generated using "atomic" code by A. Dal Corso  v.5.0.2 svn rev. 9415
     Shape of augmentation charge: PSQ
     Using radial grid of 1157 points,  4 beta functions with:
                l(1) =   0
                l(2) =   0
                l(3) =   1
                l(4) =   1
     Q(r) pseudized with 0 coefficients

     atomic species   valence    mass     pseudopotential
        Na             9.00    22.98977     Na( 1.00)
        Cl             7.00    35.45270     Cl( 1.00)

     No symmetry found

   Cartesian axes

     site n.     atom                  positions (alat units)
         1           Na  tau(   1) = (   0.9028629   0.4036556   0.0318143  )
         2           Cl  tau(   2) = (   0.5510483   0.2126054   0.1675065  )

     number of k points=   362

     Number of k-points >= 100: set verbosity='high' to print them.

     Largest allocated arrays     est. size (Mb)     dimensions
     Largest temporary arrays     est. size (Mb)     dimensions

     Check: negative/imaginary core charge=   -0.000006    0.000000

     Initial potential from superposition of free atoms

     starting charge   15.49915, renormalised to   16.00000
     Starting wfc are   12 randomized atomic wfcs
     Checking if some PAW data can be deallocated...

     Writing output data file NaCl_pegs+pwscf.save

     Self-consistent Calculation

[...]

     iteration # 25     ecut=    60.00 Ry     beta=0.70
     CG style diagonalization
     c_bands:  1 eigenvalues not converged
     ethr =  1.44E-11,  avg # of iterations =  5.7

[...]

     total energy              =    -188.85140406 Ry
     Harris-Foulkes estimate   =    -188.85140415 Ry
     estimated scf accuracy    <          1.9E-09 Ry

     iteration # 29     ecut=    60.00 Ry     beta=0.70
     CG style diagonalization
     ethr =  5.75E-12,  avg # of iterations =  4.1

     End of self-consistent calculation

     Number of k-points >= 100: set verbosity='high' to print the bands.

!    total energy              =    -188.85140406 Ry
     Harris-Foulkes estimate   =    -188.85140406 Ry
     estimated scf accuracy    <          2.6E-11 Ry

     total all-electron energy =     -1248.138397 Ry

     The total energy is the sum of the following terms:

     one-electron contribution =     -82.04229922 Ry
     hartree contribution      =      42.64256140 Ry
     xc contribution           =     -24.67010851 Ry
     ewald contribution        =     -68.16231934 Ry
     one-center paw contrib.   =     -56.61923838 Ry

     convergence has been achieved in  29 iterations

     Forces acting on atoms (Ry/au):

     atom    1 type  1   force =    -0.00000673   -0.00001210    0.00000073
     atom    2 type  2   force =     0.00000673    0.00001210   -0.00000073

     Total force =     0.000020     Total SCF correction =     0.000002
     SCF correction compared to forces is large: reduce conv_thr to get better values

     entering subroutine stress ...

          total   stress  (Ry/bohr**3)                   (kbar)     P=    0.09
   0.00000303  -0.00000147   0.00000072          0.45     -0.22      0.11
  -0.00000147  -0.00000047  -0.00000046         -0.22     -0.07     -0.07
   0.00000072  -0.00000046  -0.00000078          0.11     -0.07     -0.11

     Writing output data file NaCl_pegs+pwscf.save

     General routines

     Parallel routines

     PAW routines

   This run was terminated on:   1:52:22  23Mar2018

   JOB DONE.