     Program PWSCF v.5.0.2 starts on 23Mar2018 at  0: 6: 6

     Current dimensions of program PWSCF are:
     Max number of different atomic species (ntypx) = 10
     Max number of k-points (npk) =  40000
     Max angular momentum in pseudopotentials (lmaxx) =  3
     Waiting for input...
     Reading input from standard input
               file Na.pbe-spn-kjpaw_psl.0.2.UPF: wavefunction(s)  2P 3P renormalized
               file Cl.pbe-n-kjpaw_psl.0.1.UPF: wavefunction(s)  3S 3P renormalized

     bravais-lattice index     =            0
     lattice parameter (alat)  =       7.3089  a.u.
     unit-cell volume          =     304.3700 (a.u.)^3
     number of atoms/cell      =            2
     number of atomic types    =            2
     number of electrons       =        16.00
     number of Kohn-Sham states=            8
     kinetic-energy cutoff     =      60.0000  Ry
     charge density cutoff     =     240.0000  Ry
     convergence threshold     =      1.0E-08
     mixing beta               =       0.7000
     number of iterations used =            8  plain     mixing
     Exchange-correlation      =  SLA  PW   PBX  PBC ( 1 4 3 4 0)
     EXX-fraction              =        0.00
     nstep                     =           50

     celldm(1)=   7.308855  celldm(2)=   0.000000  celldm(3)=   0.000000
     celldm(4)=   0.000000  celldm(5)=   0.000000  celldm(6)=   0.000000

     crystal axes: (cart. coord. in units of alat)
               a(1) = (   1.000000   0.000000   0.000000 )
               a(2) = (   0.555226   0.909958   0.000000 )
               a(3) = (   0.444747  -0.271463   0.856707 )

     reciprocal axes: (cart. coord. in units 2 pi/alat)
               b(1) = (  1.000000 -0.610167 -0.712477 )
               b(2) = (  0.000000  1.098952  0.348223 )
               b(3) = (  0.000000  0.000000  1.167260 )

     PseudoPot. # 1 for Na read from file:
     /projects/e20438/bin/espresso/pseudo/Na.pbe-spn-kjpaw_psl.0.2.UPF
     MD5 check sum: af6cebf537ceac8ff9d4cdfd6fc7ff14
     Pseudo is Projector augmented-wave, Zval =  9.0
     Generated using "atomic" code by A. Dal Corso  v.5.0.2 svn rev. 9415
     Shape of augmentation charge: PSQ
     Using radial grid of 1121 points,  4 beta functions with:
                l(1) =   0
                l(2) =   0
                l(3) =   1
                l(4) =   1
     Q(r) pseudized with 0 coefficients

     PseudoPot. # 2 for Cl read from file:
     /projects/e20438/bin/espresso/pseudo/Cl.pbe-n-kjpaw_psl.0.1.UPF
     MD5 check sum: 39501d8aaca1fada178cfed307344fc1
     Pseudo is Projector augmented-wave + core cor, Zval =  7.0
     Generated using "atomic" code by A. Dal Corso  v.5.0.2 svn rev. 9415
     Shape of augmentation charge: PSQ
     Using radial grid of 1157 points,  4 beta functions with:
                l(1) =   0
                l(2) =   0
                l(3) =   1
                l(4) =   1
     Q(r) pseudized with 0 coefficients

     atomic species   valence    mass     pseudopotential
        Na             9.00    22.98977     Na( 1.00)
        Cl             7.00    35.45270     Cl( 1.00)

     No symmetry found

   Cartesian axes

     site n.     atom                  positions (alat units)
         1           Na  tau(   1) = (   1.0888080  -0.0155135   0.6283462  )
         2           Cl  tau(   2) = (   1.1440612   0.5751663   0.1999993  )

     number of k points=    62
                       cart. coord. in units 2pi/alat
        k(    1) = (   0.0000000   0.0000000   0.0000000), wk =   0.0166667
        k(    2) = (   0.0000000   0.0000000   0.1945433), wk =   0.0333333
        k(    3) = (   0.0000000   0.0000000   0.3890865), wk =   0.0333333
        k(    4) = (   0.0000000   0.0000000  -0.5836298), wk =   0.0166667
        k(    5) = (   0.0000000   0.2197905   0.0696445), wk =   0.0333333
        k(    6) = (   0.0000000   0.2197905   0.2641878), wk =   0.0333333
        k(    7) = (   0.0000000   0.2197905   0.4587311), wk =   0.0333333
        k(    8) = (   0.0000000   0.2197905  -0.5139852), wk =   0.0333333
        k(    9) = (   0.0000000   0.2197905  -0.3194420), wk =   0.0333333
        k(   10) = (   0.0000000   0.2197905  -0.1248987), wk =   0.0333333
        k(   11) = (   0.0000000   0.4395809   0.1392891), wk =   0.0333333
        k(   12) = (   0.0000000   0.4395809   0.3338323), wk =   0.0333333
        k(   13) = (   0.0000000   0.4395809   0.5283756), wk =   0.0333333
        k(   14) = (   0.0000000   0.4395809  -0.4443407), wk =   0.0333333
        k(   15) = (   0.0000000   0.4395809  -0.2497974), wk =   0.0333333
        k(   16) = (   0.0000000   0.4395809  -0.0552542), wk =   0.0333333
        k(   17) = (   0.2500000  -0.1525417  -0.1781193), wk =   0.0333333
        k(   18) = (   0.2500000  -0.1525417   0.0164240), wk =   0.0333333
        k(   19) = (   0.2500000  -0.1525417   0.2109672), wk =   0.0333333
        k(   20) = (   0.2500000  -0.1525417  -0.7617491), wk =   0.0333333
        k(   21) = (   0.2500000  -0.1525417  -0.5672058), wk =   0.0333333
        k(   22) = (   0.2500000  -0.1525417  -0.3726626), wk =   0.0333333
        k(   23) = (   0.2500000   0.0672488  -0.1084748), wk =   0.0333333
        k(   24) = (   0.2500000   0.0672488   0.0860685), wk =   0.0333333
        k(   25) = (   0.2500000   0.0672488   0.2806118), wk =   0.0333333
        k(   26) = (   0.2500000   0.0672488  -0.6921045), wk =   0.0333333
        k(   27) = (   0.2500000   0.0672488  -0.4975613), wk =   0.0333333
        k(   28) = (   0.2500000   0.0672488  -0.3030180), wk =   0.0333333
        k(   29) = (   0.2500000   0.2870393  -0.0388302), wk =   0.0333333
        k(   30) = (   0.2500000   0.2870393   0.1557130), wk =   0.0333333
        k(   31) = (   0.2500000   0.2870393   0.3502563), wk =   0.0333333
        k(   32) = (   0.2500000   0.2870393  -0.6224600), wk =   0.0333333
        k(   33) = (   0.2500000   0.2870393  -0.4279167), wk =   0.0333333
        k(   34) = (   0.2500000   0.2870393  -0.2333735), wk =   0.0333333
        k(   35) = (   0.2500000  -0.5921226  -0.3174084), wk =   0.0333333
        k(   36) = (   0.2500000  -0.5921226  -0.1228651), wk =   0.0333333
        k(   37) = (   0.2500000  -0.5921226   0.0716781), wk =   0.0333333
        k(   38) = (   0.2500000  -0.5921226  -0.9010382), wk =   0.0333333
        k(   39) = (   0.2500000  -0.5921226  -0.7064949), wk =   0.0333333
        k(   40) = (   0.2500000  -0.5921226  -0.5119516), wk =   0.0333333
        k(   41) = (   0.2500000  -0.3723321  -0.2477638), wk =   0.0333333
        k(   42) = (   0.2500000  -0.3723321  -0.0532206), wk =   0.0333333
        k(   43) = (   0.2500000  -0.3723321   0.1413227), wk =   0.0333333
        k(   44) = (   0.2500000  -0.3723321  -0.8313936), wk =   0.0333333
        k(   45) = (   0.2500000  -0.3723321  -0.6368504), wk =   0.0333333
        k(   46) = (   0.2500000  -0.3723321  -0.4423071), wk =   0.0333333
        k(   47) = (  -0.5000000   0.3050833   0.3562386), wk =   0.0166667
        k(   48) = (  -0.5000000   0.3050833   0.5507819), wk =   0.0333333
        k(   49) = (  -0.5000000   0.3050833   0.7453251), wk =   0.0333333
        k(   50) = (  -0.5000000   0.3050833  -0.2273912), wk =   0.0166667
        k(   51) = (  -0.5000000   0.5248738   0.4258831), wk =   0.0333333
        k(   52) = (  -0.5000000   0.5248738   0.6204264), wk =   0.0333333
        k(   53) = (  -0.5000000   0.5248738   0.8149697), wk =   0.0333333
        k(   54) = (  -0.5000000   0.5248738  -0.1577466), wk =   0.0333333
        k(   55) = (  -0.5000000   0.5248738   0.0367966), wk =   0.0333333
        k(   56) = (  -0.5000000   0.5248738   0.2313399), wk =   0.0333333
        k(   57) = (  -0.5000000   0.7446642   0.4955277), wk =   0.0333333
        k(   58) = (  -0.5000000   0.7446642   0.6900709), wk =   0.0333333
        k(   59) = (  -0.5000000   0.7446642   0.8846142), wk =   0.0333333
        k(   60) = (  -0.5000000   0.7446642  -0.0881021), wk =   0.0333333
        k(   61) = (  -0.5000000   0.7446642   0.1064412), wk =   0.0333333
        k(   62) = (  -0.5000000   0.7446642   0.3009844), wk =   0.0333333

     Largest allocated arrays     est. size (Mb)     dimensions
     Largest temporary arrays     est. size (Mb)     dimensions

     Check: negative/imaginary core charge=   -0.000006    0.000000

     Initial potential from superposition of free atoms

     starting charge   15.49915, renormalised to   16.00000
     Starting wfc are   12 randomized atomic wfcs
     Checking if some PAW data can be deallocated...

     Self-consistent Calculation

     iteration #  1     ecut=    60.00 Ry     beta=0.70
     CG style diagonalization
     ethr =  1.00E-02,  avg # of iterations =  2.0

     total energy              =    -188.77265762 Ry
     Harris-Foulkes estimate   =    -188.92360666 Ry
     estimated scf accuracy    <       0.18133475 Ry

[...]

     iteration #  8     ecut=    60.00 Ry     beta=0.70
     CG style diagonalization
     c_bands:  1 eigenvalues not converged
     c_bands:  1 eigenvalues not converged
     c_bands:  1 eigenvalues not converged
     ethr =  5.15E-08,  avg # of iterations =  7.6

[...]

     End of self-consistent calculation

          k = 0.0000 0.0000 0.0000 (  2389 PWs)   bands (ev):

   -47.9412 -19.8596 -19.8492 -19.8470 -11.6332   0.8970   0.9522   1.2097

[...]

          k =-0.5000 0.3051 0.3562 (  2380 PWs)   bands (ev):

[...]

!    total energy              =    -188.84999026 Ry
     Harris-Foulkes estimate   =    -188.84999027 Ry
     estimated scf accuracy    <          7.9E-09 Ry

     total all-electron energy =     -1248.136983 Ry

     The total energy is the sum of the following terms:

     one-electron contribution =     -81.12975108 Ry
     hartree contribution      =      42.29389803 Ry
     xc contribution           =     -24.67744451 Ry
     ewald contribution        =     -68.71660879 Ry
     one-center paw contrib.   =     -56.62008391 Ry

     convergence has been achieved in  13 iterations

     Forces acting on atoms (Ry/au):

     atom    1 type  1   force =    -0.00001452    0.00000933    0.00000046
     atom    2 type  2   force =     0.00001452   -0.00000933   -0.00000046

     Total force =     0.000024     Total SCF correction =     0.000044
     SCF correction compared to forces is large: reduce conv_thr to get better values

     entering subroutine stress ...

          total   stress  (Ry/bohr**3)                   (kbar)     P=    4.57
   0.00008097  -0.00004390   0.00003388         11.91     -6.46      4.98
  -0.00004390   0.00000143  -0.00002926         -6.46      0.21     -4.30
   0.00003388  -0.00002926   0.00001082          4.98     -4.30      1.59

     BFGS Geometry Optimization

     number of scf cycles    =   1
     number of bfgs steps    =   0

     enthalpy new            =    -188.8499902569 Ry

     new trust radius        =       0.0085611199 bohr
     new conv_thr            =       0.0000000100 Ry

     new unit-cell volume =    305.07875 a.u.^3 (    45.20801 Ang^3 )

CELL_PARAMETERS (alat=  7.30885512)
   1.002024343  -0.001097517   0.000847072
[...]

[...]

     number of scf cycles    =  11
     number of bfgs steps    =  10

     enthalpy old            =    -188.8513543580 Ry
     enthalpy new            =    -188.8513671579 Ry

     CASE: enthalpy_new < enthalpy_old

     new trust radius        =       0.0060805701 bohr
     new conv_thr            =            1.0E-10 Ry

     new unit-cell volume =    311.46514 a.u.^3 (    46.15437 Ang^3 )

[...]

ATOMIC_POSITIONS (crystal)
Na       0.650580546   0.201774805   0.733485781
Cl       0.650629961   0.701705631   0.233408480

     Writing output data file NaCl_pegs+pwscf.save
     NEW-OLD atomic charge density approx. for the potential
     NEW k-points:
        k(    1) = (   0.0000000   0.0000000   0.0000000), wk =   0.0166667
        k(    2) = (  -0.0043306   0.0038100   0.1959543), wk =   0.0333333
        k(    3) = (  -0.0086611   0.0076201   0.3919087), wk =   0.0333333
        k(    4) = (   0.0129917  -0.0114301  -0.5878630), wk =   0.0166667
        k(    5) = (   0.0050850   0.2235445   0.0744433), wk =   0.0333333
        k(    6) = (   0.0007545   0.2273546   0.2703976), wk =   0.0333333
        k(    7) = (  -0.0035761   0.2311646   0.4663519), wk =   0.0333333
        k(    8) = (   0.0180767   0.2121144  -0.5134197), wk =   0.0333333
        k(    9) = (   0.0137462   0.2159245  -0.3174654), wk =   0.0333333
        k(   10) = (   0.0094156   0.2197345  -0.1215111), wk =   0.0333333
        k(   11) = (   0.0101701   0.4470890   0.1488865), wk =   0.0333333
        k(   12) = (   0.0058395   0.4508991   0.3448408), wk =   0.0333333
        k(   13) = (   0.0015089   0.4547091   0.5407952), wk =   0.0333333
        k(   14) = (   0.0231618   0.4356590  -0.4389765), wk =   0.0333333
        k(   15) = (   0.0188312   0.4394690  -0.2430222), wk =   0.0333333
        k(   16) = (   0.0145006   0.4432790  -0.0470678), wk =   0.0333333
        k(   17) = (   0.2397423  -0.1501166  -0.1879548), wk =   0.0333333
        k(   18) = (   0.2354117  -0.1463066   0.0079995), wk =   0.0333333
        k(   19) = (   0.2310811  -0.1424965   0.2039538), wk =   0.0333333
        k(   20) = (   0.2527340  -0.1615467  -0.7758178), wk =   0.0333333
        k(   21) = (   0.2484034  -0.1577367  -0.5798635), wk =   0.0333333
        k(   22) = (   0.2440728  -0.1539266  -0.3839092), wk =   0.0333333
        k(   23) = (   0.2448273   0.0734279  -0.1135116), wk =   0.0333333
        k(   24) = (   0.2404967   0.0772380   0.0824427), wk =   0.0333333
        k(   25) = (   0.2361662   0.0810480   0.2783971), wk =   0.0333333
        k(   26) = (   0.2578190   0.0619978  -0.7013746), wk =   0.0333333
        k(   27) = (   0.2534884   0.0658079  -0.5054202), wk =   0.0333333
        k(   28) = (   0.2491579   0.0696179  -0.3094659), wk =   0.0333333
        k(   29) = (   0.2499124   0.2969724  -0.0390683), wk =   0.0333333
        k(   30) = (   0.2455818   0.3007825   0.1568860), wk =   0.0333333
        k(   31) = (   0.2412512   0.3045925   0.3528403), wk =   0.0333333
        k(   32) = (   0.2629041   0.2855424  -0.6269313), wk =   0.0333333
        k(   33) = (   0.2585735   0.2893524  -0.4309770), wk =   0.0333333
        k(   34) = (   0.2542429   0.2931624  -0.2350227), wk =   0.0333333
        k(   35) = (   0.2295722  -0.5972057  -0.3368413), wk =   0.0333333
        k(   36) = (   0.2252416  -0.5933956  -0.1408870), wk =   0.0333333
        k(   37) = (   0.2209111  -0.5895856   0.0550673), wk =   0.0333333
        k(   38) = (   0.2425639  -0.6086357  -0.9247043), wk =   0.0333333
        k(   39) = (   0.2382333  -0.6048257  -0.7287500), wk =   0.0333333
        k(   40) = (   0.2339028  -0.6010157  -0.5327957), wk =   0.0333333
        k(   41) = (   0.2346572  -0.3736611  -0.2623981), wk =   0.0333333
        k(   42) = (   0.2303267  -0.3698511  -0.0664438), wk =   0.0333333
        k(   43) = (   0.2259961  -0.3660411   0.1295106), wk =   0.0333333
        k(   44) = (   0.2476489  -0.3850912  -0.8502611), wk =   0.0333333
        k(   45) = (   0.2433184  -0.3812812  -0.6543067), wk =   0.0333333
        k(   46) = (   0.2389878  -0.3774712  -0.4583524), wk =   0.0333333
        k(   47) = (  -0.4794845   0.3002332   0.3759097), wk =   0.0166667
        k(   48) = (  -0.4838151   0.3040432   0.5718640), wk =   0.0333333
        k(   49) = (  -0.4881457   0.3078533   0.7678183), wk =   0.0333333
        k(   50) = (  -0.4664928   0.2888031  -0.2119533), wk =   0.0166667
        k(   51) = (  -0.4743995   0.5237777   0.4503529), wk =   0.0333333
        k(   52) = (  -0.4787301   0.5275878   0.6463072), wk =   0.0333333
        k(   53) = (  -0.4830606   0.5313978   0.8422616), wk =   0.0333333
        k(   54) = (  -0.4614078   0.5123476  -0.1375101), wk =   0.0333333
        k(   55) = (  -0.4657384   0.5161577   0.0584443), wk =   0.0333333
        k(   56) = (  -0.4700689   0.5199677   0.2543986), wk =   0.0333333
        k(   57) = (  -0.4693145   0.7473223   0.5247962), wk =   0.0333333
        k(   58) = (  -0.4736450   0.7511323   0.7207505), wk =   0.0333333
        k(   59) = (  -0.4779756   0.7549423   0.9167048), wk =   0.0333333
        k(   60) = (  -0.4563228   0.7358922  -0.0630668), wk =   0.0333333
        k(   61) = (  -0.4606533   0.7397022   0.1328875), wk =   0.0333333
        k(   62) = (  -0.4649839   0.7435122   0.3288418), wk =   0.0333333

     Check: negative/imaginary core charge=   -0.000005    0.000000
     extrapolated charge   15.97177, renormalised to   16.00000

[...]

     Total force =     0.000012     Total SCF correction =     0.000001

[...]

     bfgs converged in  12 scf cycles and  11 bfgs steps
     (criteria: energy < 0.10E-03, force < 0.10E-02, cell < 0.50E+00)

     End of BFGS Geometry Optimization

     Final enthalpy =    -188.8513692522 Ry
Begin final coordinates
     new unit-cell volume =    311.46514 a.u.^3 (    46.15437 Ang^3 )

CELL_PARAMETERS (alat=  7.30885512)
   1.041550595  -0.031562199   0.023631820
   0.549481117   0.883856092  -0.005041749
   0.492063693  -0.299997353   0.867245867

ATOMIC_POSITIONS (crystal)
Na       0.650580546   0.201774805   0.733485781
Cl       0.650629961   0.701705631   0.233408480
End final coordinates

     A final scf calculation at the relaxed structure.
     The G-vectors are recalculated for the final unit cell
     Results may differ from those at the preceding step.

     bravais-lattice index     =            0
     lattice parameter (alat)  =       7.3089  a.u.
     unit-cell volume          =     311.4651 (a.u.)^3
     number of atoms/cell      =            2
     number of atomic types    =            2
     number of electrons       =        16.00
     number of Kohn-Sham states=            8
     kinetic-energy cutoff     =      60.0000  Ry
     charge density cutoff     =     240.0000  Ry
     convergence threshold     =      1.0E-10
     mixing beta               =       0.7000
     number of iterations used =            8  plain     mixing
     Exchange-correlation      =  SLA  PW   PBX  PBC ( 1 4 3 4 0)
     EXX-fraction              =        0.00

     celldm(1)=   7.308855  celldm(2)=   0.000000  celldm(3)=   0.000000
     celldm(4)=   0.000000  celldm(5)=   0.000000  celldm(6)=   0.000000

     crystal axes: (cart. coord. in units of alat)
               a(1) = (   1.041551  -0.031562   0.023632 )
               a(2) = (   0.549481   0.883856  -0.005042 )
               a(3) = (   0.492064  -0.299997   0.867246 )

     reciprocal axes: (cart. coord. in units 2 pi/alat)
               b(1) = (  0.958969 -0.600466 -0.751819 )
               b(2) = (  0.025425  1.117723  0.372216 )
               b(3) = ( -0.025983  0.022860  1.175726 )

     PseudoPot. # 1 for Na read from file:
     /projects/e20438/bin/espresso/pseudo/Na.pbe-spn-kjpaw_psl.0.2.UPF
     MD5 check sum: af6cebf537ceac8ff9d4cdfd6fc7ff14
     Pseudo is Projector augmented-wave, Zval =  9.0
     Generated using "atomic" code by A. Dal Corso  v.5.0.2 svn rev. 9415
     Shape of augmentation charge: PSQ
     Using radial grid of 1121 points,  4 beta functions with:
                l(1) =   0
                l(2) =   0
                l(3) =   1
                l(4) =   1
     Q(r) pseudized with 0 coefficients

     PseudoPot. # 2 for Cl read from file:
     /projects/e20438/bin/espresso/pseudo/Cl.pbe-n-kjpaw_psl.0.1.UPF
     MD5 check sum: 39501d8aaca1fada178cfed307344fc1
     Pseudo is Projector augmented-wave + core cor, Zval =  7.0
     Generated using "atomic" code by A. Dal Corso  v.5.0.2 svn rev. 9415
     Shape of augmentation charge: PSQ
     Using radial grid of 1157 points,  4 beta functions with:
                l(1) =   0
                l(2) =   0
                l(3) =   1
                l(4) =   1
     Q(r) pseudized with 0 coefficients

     atomic species   valence    mass     pseudopotential
        Na             9.00    22.98977     Na( 1.00)
        Cl             7.00    35.45270     Cl( 1.00)

     No symmetry found

   Cartesian axes

     site n.     atom                  positions (alat units)
         1           Na  tau(   1) = (   1.1494057  -0.0622377   0.6504696  )
         2           Cl  tau(   2) = (   1.1780899   0.5296496   0.2142603  )

     number of k points=    62
                       cart. coord. in units 2pi/alat
        k(    1) = (   0.0000000   0.0000000   0.0000000), wk =   0.0166667
        k(    2) = (  -0.0043306   0.0038100   0.1959543), wk =   0.0333333
        k(    3) = (  -0.0086611   0.0076201   0.3919087), wk =   0.0333333
        k(    4) = (   0.0129917  -0.0114301  -0.5878630), wk =   0.0166667
        k(    5) = (   0.0050850   0.2235445   0.0744433), wk =   0.0333333
        k(    6) = (   0.0007545   0.2273546   0.2703976), wk =   0.0333333
        k(    7) = (  -0.0035761   0.2311646   0.4663519), wk =   0.0333333
        k(    8) = (   0.0180767   0.2121144  -0.5134197), wk =   0.0333333
        k(    9) = (   0.0137462   0.2159245  -0.3174654), wk =   0.0333333
        k(   10) = (   0.0094156   0.2197345  -0.1215111), wk =   0.0333333
        k(   11) = (   0.0101701   0.4470890   0.1488865), wk =   0.0333333
        k(   12) = (   0.0058395   0.4508991   0.3448408), wk =   0.0333333
        k(   13) = (   0.0015089   0.4547091   0.5407952), wk =   0.0333333
        k(   14) = (   0.0231618   0.4356590  -0.4389765), wk =   0.0333333
        k(   15) = (   0.0188312   0.4394690  -0.2430222), wk =   0.0333333
        k(   16) = (   0.0145006   0.4432790  -0.0470678), wk =   0.0333333
        k(   17) = (   0.2397423  -0.1501166  -0.1879548), wk =   0.0333333
        k(   18) = (   0.2354117  -0.1463066   0.0079995), wk =   0.0333333
        k(   19) = (   0.2310811  -0.1424965   0.2039538), wk =   0.0333333
        k(   20) = (   0.2527340  -0.1615467  -0.7758178), wk =   0.0333333
        k(   21) = (   0.2484034  -0.1577367  -0.5798635), wk =   0.0333333
        k(   22) = (   0.2440728  -0.1539266  -0.3839092), wk =   0.0333333
        k(   23) = (   0.2448273   0.0734279  -0.1135116), wk =   0.0333333
        k(   24) = (   0.2404967   0.0772380   0.0824427), wk =   0.0333333
        k(   25) = (   0.2361662   0.0810480   0.2783971), wk =   0.0333333
        k(   26) = (   0.2578190   0.0619978  -0.7013746), wk =   0.0333333
        k(   27) = (   0.2534884   0.0658079  -0.5054202), wk =   0.0333333
        k(   28) = (   0.2491579   0.0696179  -0.3094659), wk =   0.0333333
        k(   29) = (   0.2499124   0.2969724  -0.0390683), wk =   0.0333333
        k(   30) = (   0.2455818   0.3007825   0.1568860), wk =   0.0333333
        k(   31) = (   0.2412512   0.3045925   0.3528403), wk =   0.0333333
        k(   32) = (   0.2629041   0.2855424  -0.6269313), wk =   0.0333333
        k(   33) = (   0.2585735   0.2893524  -0.4309770), wk =   0.0333333
        k(   34) = (   0.2542429   0.2931624  -0.2350227), wk =   0.0333333
        k(   35) = (   0.2295722  -0.5972057  -0.3368413), wk =   0.0333333
        k(   36) = (   0.2252416  -0.5933956  -0.1408870), wk =   0.0333333
        k(   37) = (   0.2209111  -0.5895856   0.0550673), wk =   0.0333333
        k(   38) = (   0.2425639  -0.6086357  -0.9247043), wk =   0.0333333
        k(   39) = (   0.2382333  -0.6048257  -0.7287500), wk =   0.0333333
        k(   40) = (   0.2339028  -0.6010157  -0.5327957), wk =   0.0333333
        k(   41) = (   0.2346572  -0.3736611  -0.2623981), wk =   0.0333333
        k(   42) = (   0.2303267  -0.3698511  -0.0664438), wk =   0.0333333
        k(   43) = (   0.2259961  -0.3660411   0.1295106), wk =   0.0333333
        k(   44) = (   0.2476489  -0.3850912  -0.8502611), wk =   0.0333333
        k(   45) = (   0.2433184  -0.3812812  -0.6543067), wk =   0.0333333
        k(   46) = (   0.2389878  -0.3774712  -0.4583524), wk =   0.0333333
        k(   47) = (  -0.4794845   0.3002332   0.3759097), wk =   0.0166667
        k(   48) = (  -0.4838151   0.3040432   0.5718640), wk =   0.0333333
        k(   49) = (  -0.4881457   0.3078533   0.7678183), wk =   0.0333333
        k(   50) = (  -0.4664928   0.2888031  -0.2119533), wk =   0.0166667
        k(   51) = (  -0.4743995   0.5237777   0.4503529), wk =   0.0333333
        k(   52) = (  -0.4787301   0.5275878   0.6463072), wk =   0.0333333
        k(   53) = (  -0.4830606   0.5313978   0.8422616), wk =   0.0333333
        k(   54) = (  -0.4614078   0.5123476  -0.1375101), wk =   0.0333333
        k(   55) = (  -0.4657384   0.5161577   0.0584443), wk =   0.0333333
        k(   56) = (  -0.4700689   0.5199677   0.2543986), wk =   0.0333333
        k(   57) = (  -0.4693145   0.7473223   0.5247962), wk =   0.0333333
        k(   58) = (  -0.4736450   0.7511323   0.7207505), wk =   0.0333333
        k(   59) = (  -0.4779756   0.7549423   0.9167048), wk =   0.0333333
        k(   60) = (  -0.4563228   0.7358922  -0.0630668), wk =   0.0333333
        k(   61) = (  -0.4606533   0.7397022   0.1328875), wk =   0.0333333
        k(   62) = (  -0.4649839   0.7435122   0.3288418), wk =   0.0333333

     Largest allocated arrays     est. size (Mb)     dimensions
     Largest temporary arrays     est. size (Mb)     dimensions

     Check: negative/imaginary core charge=   -0.000006    0.000000

     Initial potential from superposition of free atoms

     starting charge   15.49915, renormalised to   16.00000
     Starting wfc are   12 randomized atomic wfcs
     Checking if some PAW data can be deallocated...

     Writing output data file NaCl_pegs+pwscf.save

     Self-consistent Calculation

[...]

     iteration # 23     ecut=    60.00 Ry     beta=0.70
     CG style diagonalization
     ethr =  2.17E-11,  avg # of iterations =  4.0

     total energy              =    -188.85138122 Ry
     Harris-Foulkes estimate   =    -188.85138121 Ry
     estimated scf accuracy    <          2.5E-10 Ry

     iteration # 24     ecut=    60.00 Ry     beta=0.70
     CG style diagonalization
     c_bands:  1 eigenvalues not converged
     ethr =  1.59E-12,  avg # of iterations =  5.8

     End of self-consistent calculation

[...]

          k = 0.2390-0.3775-0.4584 (  2443 PWs)   bands (ev):

[...]

          k =-0.4650 0.7435 0.3288 (  2438 PWs)   bands (ev):

   -48.1369 -20.0678 -20.0562 -20.0524 -11.4291  -0.7083   0.0603   0.4231

!    total energy              =    -188.85138122 Ry
     Harris-Foulkes estimate   =    -188.85138122 Ry
     estimated scf accuracy    <          1.2E-11 Ry

     total all-electron energy =     -1248.138374 Ry

     The total energy is the sum of the following terms:

     one-electron contribution =     -82.05831175 Ry
     hartree contribution      =      42.64860320 Ry
     xc contribution           =     -24.67002368 Ry
     ewald contribution        =     -68.15244413 Ry
     one-center paw contrib.   =     -56.61920485 Ry

     convergence has been achieved in  24 iterations

     Forces acting on atoms (Ry/au):

     atom    1 type  1   force =     0.00000426   -0.00000698   -0.00000134
     atom    2 type  2   force =    -0.00000426    0.00000698    0.00000134

     Total force =     0.000012     Total SCF correction =     0.000003
     SCF correction compared to forces is large: reduce conv_thr to get better values

     entering subroutine stress ...

          total   stress  (Ry/bohr**3)                   (kbar)     P=    0.04
  -0.00000138  -0.00000089   0.00000021         -0.20     -0.13      0.03
  -0.00000089   0.00000267   0.00000059         -0.13      0.39      0.09
   0.00000021   0.00000059  -0.00000051          0.03      0.09     -0.08

     Writing output data file NaCl_pegs+pwscf.save

     General routines

     Parallel routines

     PAW routines

   This run was terminated on:   0:10:17  23Mar2018

   JOB DONE.