     Program PWSCF v.5.0.2 starts on 23Mar2018 at  0: 8:42

     Current dimensions of program PWSCF are:
     Max number of different atomic species (ntypx) = 10
     Max number of k-points (npk) =  40000
     Max angular momentum in pseudopotentials (lmaxx) =  3
     Waiting for input...
     Reading input from standard input
               file Na.pbe-spn-kjpaw_psl.0.2.UPF: wavefunction(s)  2P 3P renormalized
               file Cl.pbe-n-kjpaw_psl.0.1.UPF: wavefunction(s)  3S 3P renormalized

     bravais-lattice index     =            0
     lattice parameter (alat)  =      11.7825  a.u.
     unit-cell volume          =     253.4560 (a.u.)^3
     number of atoms/cell      =            2
     number of atomic types    =            2
     number of electrons       =        16.00
     number of Kohn-Sham states=            8
     kinetic-energy cutoff     =      60.0000  Ry
     charge density cutoff     =     240.0000  Ry
     convergence threshold     =      1.0E-08
     mixing beta               =       0.7000
     number of iterations used =            8  plain     mixing
     Exchange-correlation      =  SLA  PW   PBX  PBC ( 1 4 3 4 0)
     EXX-fraction              =        0.00
     nstep                     =           50

     celldm(1)=  11.782537  celldm(2)=   0.000000  celldm(3)=   0.000000
     celldm(4)=   0.000000  celldm(5)=   0.000000  celldm(6)=   0.000000

     crystal axes: (cart. coord. in units of alat)
               a(1) = (   1.000000   0.000000   0.000000 )
               a(2) = (   0.339224   0.425681   0.000000 )
               a(3) = (   0.329833  -0.213703   0.364000 )

     reciprocal axes: (cart. coord. in units 2 pi/alat)
               b(1) = (  1.000000 -0.796897 -1.373987 )
               b(2) = (  0.000000  2.349176  1.379190 )
               b(3) = (  0.000000  0.000000  2.747251 )

     PseudoPot. # 1 for Na read from file:
     /projects/e20438/bin/espresso/pseudo/Na.pbe-spn-kjpaw_psl.0.2.UPF
     MD5 check sum: af6cebf537ceac8ff9d4cdfd6fc7ff14
     Pseudo is Projector augmented-wave, Zval =  9.0
     Generated using "atomic" code by A. Dal Corso  v.5.0.2 svn rev. 9415
     Shape of augmentation charge: PSQ
     Using radial grid of 1121 points,  4 beta functions with:
                l(1) =   0
                l(2) =   0
                l(3) =   1
                l(4) =   1
     Q(r) pseudized with 0 coefficients

     PseudoPot. # 2 for Cl read from file:
     /projects/e20438/bin/espresso/pseudo/Cl.pbe-n-kjpaw_psl.0.1.UPF
     MD5 check sum: 39501d8aaca1fada178cfed307344fc1
     Pseudo is Projector augmented-wave + core cor, Zval =  7.0
     Generated using "atomic" code by A. Dal Corso  v.5.0.2 svn rev. 9415
     Shape of augmentation charge: PSQ
     Using radial grid of 1157 points,  4 beta functions with:
                l(1) =   0
                l(2) =   0
                l(3) =   1
                l(4) =   1
     Q(r) pseudized with 0 coefficients

     atomic species   valence    mass     pseudopotential
        Na             9.00    22.98977     Na( 1.00)
        Cl             7.00    35.45270     Cl( 1.00)

     No symmetry found

   Cartesian axes

     site n.     atom                  positions (alat units)
         1           Na  tau(   1) = (   0.8295775   0.0525679   0.2776092  )
         2           Cl  tau(   2) = (   1.3291356   0.0517999   0.2782619  )

     number of k points=   170

     Number of k-points >= 100: set verbosity='high' to print them.

     Largest allocated arrays     est. size (Mb)     dimensions
     Largest temporary arrays     est. size (Mb)     dimensions

     Check: negative/imaginary core charge=   -0.000006    0.000000

     Initial potential from superposition of free atoms

     starting charge   15.49915, renormalised to   16.00000
     Starting wfc are   12 randomized atomic wfcs
     Checking if some PAW data can be deallocated...

     Self-consistent Calculation

     iteration #  1     ecut=    60.00 Ry     beta=0.70
     CG style diagonalization
     ethr =  1.00E-02,  avg # of iterations =  2.0

     total energy              =    -188.73422628 Ry
     Harris-Foulkes estimate   =    -188.89734844 Ry
     estimated scf accuracy    <       0.19509791 Ry

[...]

     iteration #  7     ecut=    60.00 Ry     beta=0.70
     CG style diagonalization
     c_bands:  1 eigenvalues not converged
     c_bands:  1 eigenvalues not converged
     ethr =  3.21E-07,  avg # of iterations =  6.9

[...]

     End of self-consistent calculation

     Number of k-points >= 100: set verbosity='high' to print the bands.

!    total energy              =    -188.82312570 Ry
     Harris-Foulkes estimate   =    -188.82312571 Ry
     estimated scf accuracy    <          4.0E-09 Ry

     total all-electron energy =     -1248.110118 Ry

     The total energy is the sum of the following terms:

     one-electron contribution =     -71.98208833 Ry
     hartree contribution      =      38.66024020 Ry
     xc contribution           =     -24.72684549 Ry
     ewald contribution        =     -74.15057829 Ry
     one-center paw contrib.   =     -56.62385380 Ry

     convergence has been achieved in  30 iterations

     Forces acting on atoms (Ry/au):

     atom    1 type  1   force =    -0.00004793   -0.00029372    0.00025300
     atom    2 type  2   force =     0.00004793    0.00029372   -0.00025300

     Total force =     0.000552     Total SCF correction =     0.000011

     entering subroutine stress ...

          total   stress  (Ry/bohr**3)                   (kbar)     P=   52.47
   0.00037313  -0.00004915   0.00000114         54.89     -7.23      0.17
  -0.00004915   0.00031559   0.00000156         -7.23     46.42      0.23
   0.00000114   0.00000156   0.00038128          0.17      0.23     56.09

     BFGS Geometry Optimization

     number of scf cycles    =   1
     number of bfgs steps    =   0

     enthalpy new            =    -188.8231257040 Ry

     new trust radius        =       0.0303510259 bohr
     new conv_thr            =       0.0000000100 Ry

     new unit-cell volume =    260.29602 a.u.^3 (    38.57189 Ang^3 )

CELL_PARAMETERS (alat= 11.78253700)
   1.009328328  -0.001228696   0.000028485
   0.341865445   0.428622926   0.000026281
   0.333182265  -0.215779978   0.367470945

ATOMIC_POSITIONS (crystal)
Na       0.406241067   0.506338243   0.762721227
Cl       0.905541811   0.505492134   0.764396249

     Writing output data file NaCl_pegs+pwscf.save
     NEW-OLD atomic charge density approx. for the potential
     NEW k-points: (use verbosity='high' to print them)

     Check: negative/imaginary core charge=   -0.000005    0.000000
     extrapolated charge   16.40728, renormalised to   16.00000

[...]

     enthalpy old            =    -188.8231257040 Ry
     enthalpy new            =    -188.8253002156 Ry

     CASE: enthalpy_new < enthalpy_old

[...]

     WARNING: bfgs curvature condition failed, Theta= 0.837
     new trust radius        =       0.0971035609 bohr
     new conv_thr            =            1.0E-10 Ry

[...]

     WARNING: bfgs curvature condition failed, Theta= 0.811
     new trust radius        =       0.0239052553 bohr
     new conv_thr            =            1.0E-10 Ry

[...]

     number of scf cycles    =  31
     number of bfgs steps    =  30

     enthalpy old            =    -188.8517541841 Ry
     enthalpy new            =    -188.8517573987 Ry

     CASE: enthalpy_new < enthalpy_old

     new trust radius        =       0.0032313957 bohr
     new conv_thr            =            1.0E-10 Ry

     new unit-cell volume =    314.21147 a.u.^3 (    46.56134 Ang^3 )

[...]

ATOMIC_POSITIONS (crystal)
Na       0.406356619   0.504760459   0.763209034
Cl       0.905426259   0.507069918   0.763908443

     Writing output data file NaCl_pegs+pwscf.save
     NEW-OLD atomic charge density approx. for the potential
     NEW k-points: (use verbosity='high' to print them)

     Check: negative/imaginary core charge=   -0.000030    0.000000
     extrapolated charge   15.98979, renormalised to   16.00000

[...]

     bfgs converged in  32 scf cycles and  31 bfgs steps
     (criteria: energy < 0.10E-03, force < 0.10E-02, cell < 0.50E+00)

     End of BFGS Geometry Optimization

     Final enthalpy =    -188.8517588173 Ry
Begin final coordinates
     new unit-cell volume =    314.21147 a.u.^3 (    46.56134 Ang^3 )

CELL_PARAMETERS (alat= 11.78253700)
   1.597469506  -0.067348831   0.001280867
   0.547990882   0.349847006   0.000874637
   0.524357867  -0.209090570   0.322622421

ATOMIC_POSITIONS (crystal)
Na       0.406356619   0.504760459   0.763209034
Cl       0.905426259   0.507069918   0.763908443
End final coordinates

     A final scf calculation at the relaxed structure.
     The G-vectors are recalculated for the final unit cell
     Results may differ from those at the preceding step.

     bravais-lattice index     =            0
     lattice parameter (alat)  =      11.7825  a.u.
     unit-cell volume          =     314.2115 (a.u.)^3
     number of atoms/cell      =            2
     number of atomic types    =            2
     number of electrons       =        16.00
     number of Kohn-Sham states=            8
     kinetic-energy cutoff     =      60.0000  Ry
     charge density cutoff     =     240.0000  Ry
     convergence threshold     =      1.0E-10
     mixing beta               =       0.7000
     number of iterations used =            8  plain     mixing
     Exchange-correlation      =  SLA  PW   PBX  PBC ( 1 4 3 4 0)
     EXX-fraction              =        0.00

     celldm(1)=  11.782537  celldm(2)=   0.000000  celldm(3)=   0.000000
     celldm(4)=   0.000000  celldm(5)=   0.000000  celldm(6)=   0.000000

     crystal axes: (cart. coord. in units of alat)
               a(1) = (   1.597470  -0.067349   0.001281 )
               a(2) = (   0.547991   0.349847   0.000875 )
               a(3) = (   0.524358  -0.209091   0.322622 )

     reciprocal axes: (cart. coord. in units 2 pi/alat)
               b(1) = (  0.588532 -0.917982 -1.551482 )
               b(2) = (  0.111720  2.679509  1.555002 )
               b(3) = ( -0.002639 -0.003620  3.101543 )

     PseudoPot. # 1 for Na read from file:
     /projects/e20438/bin/espresso/pseudo/Na.pbe-spn-kjpaw_psl.0.2.UPF
     MD5 check sum: af6cebf537ceac8ff9d4cdfd6fc7ff14
     Pseudo is Projector augmented-wave, Zval =  9.0
     Generated using "atomic" code by A. Dal Corso  v.5.0.2 svn rev. 9415
     Shape of augmentation charge: PSQ
     Using radial grid of 1121 points,  4 beta functions with:
                l(1) =   0
                l(2) =   0
                l(3) =   1
                l(4) =   1
     Q(r) pseudized with 0 coefficients

     PseudoPot. # 2 for Cl read from file:
     /projects/e20438/bin/espresso/pseudo/Cl.pbe-n-kjpaw_psl.0.1.UPF
     MD5 check sum: 39501d8aaca1fada178cfed307344fc1
     Pseudo is Projector augmented-wave + core cor, Zval =  7.0
     Generated using "atomic" code by A. Dal Corso  v.5.0.2 svn rev. 9415
     Shape of augmentation charge: PSQ
     Using radial grid of 1157 points,  4 beta functions with:
                l(1) =   0
                l(2) =   0
                l(3) =   1
                l(4) =   1
     Q(r) pseudized with 0 coefficients

     atomic species   valence    mass     pseudopotential
        Na             9.00    22.98977     Na( 1.00)
        Cl             7.00    35.45270     Cl( 1.00)

     No symmetry found

   Cartesian axes

     site n.     atom                  positions (alat units)
         1           Na  tau(   1) = (   1.3259411  -0.0103585   0.2471903  )
         2           Cl  tau(   2) = (   2.1248219  -0.0433086   0.2480572  )

     number of k points=   170

     Number of k-points >= 100: set verbosity='high' to print them.

     Largest allocated arrays     est. size (Mb)     dimensions
     Largest temporary arrays     est. size (Mb)     dimensions

     Check: negative/imaginary core charge=   -0.000005    0.000000

     Initial potential from superposition of free atoms

     starting charge   15.49915, renormalised to   16.00000
     Starting wfc are   12 randomized atomic wfcs
     Checking if some PAW data can be deallocated...

     Writing output data file NaCl_pegs+pwscf.save

     Self-consistent Calculation

[...]

     iteration # 27     ecut=    60.00 Ry     beta=0.70
     CG style diagonalization
     ethr =  4.61E-11,  avg # of iterations =  4.9

[...]

     total energy              =    -188.85136241 Ry
     Harris-Foulkes estimate   =    -188.85136241 Ry
     estimated scf accuracy    <          1.8E-10 Ry

     iteration # 29     ecut=    60.00 Ry     beta=0.70
     CG style diagonalization
     c_bands:  1 eigenvalues not converged
     c_bands:  1 eigenvalues not converged
     c_bands:  1 eigenvalues not converged
     ethr =  1.13E-12,  avg # of iterations =  6.4

     End of self-consistent calculation

     Number of k-points >= 100: set verbosity='high' to print the bands.

!    total energy              =    -188.85136241 Ry
     Harris-Foulkes estimate   =    -188.85136241 Ry
     estimated scf accuracy    <          5.2E-11 Ry

     total all-electron energy =     -1248.138355 Ry

     The total energy is the sum of the following terms:

     one-electron contribution =     -82.37933518 Ry
     hartree contribution      =      42.76744480 Ry
     xc contribution           =     -24.66679362 Ry
     ewald contribution        =     -67.95386988 Ry
     one-center paw contrib.   =     -56.61880853 Ry

     convergence has been achieved in  29 iterations

     Forces acting on atoms (Ry/au):

     atom    1 type  1   force =     0.00002781    0.00019180    0.00005423
     atom    2 type  2   force =    -0.00002781   -0.00019180   -0.00005423

     Total force =     0.000285     Total SCF correction =     0.000001

     entering subroutine stress ...

          total   stress  (Ry/bohr**3)                   (kbar)     P=   -2.03
  -0.00002705   0.00000146   0.00000039         -3.98      0.21      0.06
   0.00000146  -0.00000811   0.00000039          0.21     -1.19      0.06
   0.00000039   0.00000039  -0.00000623          0.06      0.06     -0.92

     Writing output data file NaCl_pegs+pwscf.save

     General routines

     Parallel routines

     PAW routines

   This run was terminated on:   0:45:45  23Mar2018

   JOB DONE.