     Program PWSCF v.5.0.2 starts on 23Mar2018 at  0: 8:42

     Current dimensions of program PWSCF are:
     Max number of different atomic species (ntypx) = 10
     Max number of k-points (npk) =  40000
     Max angular momentum in pseudopotentials (lmaxx) =  3
     Waiting for input...
     Reading input from standard input
               file Na.pbe-spn-kjpaw_psl.0.2.UPF: wavefunction(s)  2P 3P renormalized
               file Cl.pbe-n-kjpaw_psl.0.1.UPF: wavefunction(s)  3S 3P renormalized

     bravais-lattice index     =            0
     lattice parameter (alat)  =      10.6954  a.u.
     unit-cell volume          =     307.9694 (a.u.)^3
     number of atoms/cell      =            2
     number of atomic types    =            2
     number of electrons       =        16.00
     number of Kohn-Sham states=            8
     kinetic-energy cutoff     =      60.0000  Ry
     charge density cutoff     =     240.0000  Ry
     convergence threshold     =      1.0E-08
     mixing beta               =       0.7000
     number of iterations used =            8  plain     mixing
     Exchange-correlation      =  SLA  PW   PBX  PBC ( 1 4 3 4 0)
     EXX-fraction              =        0.00
     nstep                     =           50

     celldm(1)=  10.695384  celldm(2)=   0.000000  celldm(3)=   0.000000
     celldm(4)=   0.000000  celldm(5)=   0.000000  celldm(6)=   0.000000

     crystal axes: (cart. coord. in units of alat)
               a(1) = (   1.000000   0.000000   0.000000 )
               a(2) = (  -0.049368   0.696189   0.000000 )
               a(3) = (   0.468310   0.343889   0.361569 )

     reciprocal axes: (cart. coord. in units 2 pi/alat)
               b(1) = (  1.000000  0.070912 -1.362658 )
               b(2) = (  0.000000  1.436392 -1.366153 )
               b(3) = (  0.000000  0.000000  2.765722 )

     PseudoPot. # 1 for Na read from file:
     /projects/e20438/bin/espresso/pseudo/Na.pbe-spn-kjpaw_psl.0.2.UPF
     MD5 check sum: af6cebf537ceac8ff9d4cdfd6fc7ff14
     Pseudo is Projector augmented-wave, Zval =  9.0
     Generated using "atomic" code by A. Dal Corso  v.5.0.2 svn rev. 9415
     Shape of augmentation charge: PSQ
     Using radial grid of 1121 points,  4 beta functions with:
                l(1) =   0
                l(2) =   0
                l(3) =   1
                l(4) =   1
     Q(r) pseudized with 0 coefficients

     PseudoPot. # 2 for Cl read from file:
     /projects/e20438/bin/espresso/pseudo/Cl.pbe-n-kjpaw_psl.0.1.UPF
     MD5 check sum: 39501d8aaca1fada178cfed307344fc1
     Pseudo is Projector augmented-wave + core cor, Zval =  7.0
     Generated using "atomic" code by A. Dal Corso  v.5.0.2 svn rev. 9415
     Shape of augmentation charge: PSQ
     Using radial grid of 1157 points,  4 beta functions with:
                l(1) =   0
                l(2) =   0
                l(3) =   1
                l(4) =   1
     Q(r) pseudized with 0 coefficients

     atomic species   valence    mass     pseudopotential
        Na             9.00    22.98977     Na( 1.00)
        Cl             7.00    35.45270     Cl( 1.00)

     No symmetry found

   Cartesian axes

     site n.     atom                  positions (alat units)
         1           Na  tau(   1) = (   0.4650819   0.8733656   0.2751786  )
         2           Cl  tau(   2) = (   0.9650863   0.8770754   0.2716513  )

     number of k points=   253

     Number of k-points >= 100: set verbosity='high' to print them.

     Largest allocated arrays     est. size (Mb)     dimensions
     Largest temporary arrays     est. size (Mb)     dimensions

     Check: negative/imaginary core charge=   -0.000006    0.000000

     Initial potential from superposition of free atoms

     starting charge   15.49915, renormalised to   16.00000
     Starting wfc are   12 randomized atomic wfcs
     Checking if some PAW data can be deallocated...

     Self-consistent Calculation

     iteration #  1     ecut=    60.00 Ry     beta=0.70
     CG style diagonalization
     ethr =  1.00E-02,  avg # of iterations =  2.0

     total energy              =    -188.77328511 Ry
     Harris-Foulkes estimate   =    -188.92413110 Ry
     estimated scf accuracy    <       0.18119307 Ry

[...]

     iteration #  5     ecut=    60.00 Ry     beta=0.70
     CG style diagonalization
     c_bands:  1 eigenvalues not converged
     c_bands:  1 eigenvalues not converged
     c_bands:  1 eigenvalues not converged
     c_bands:  1 eigenvalues not converged
     c_bands:  1 eigenvalues not converged
     ethr =  8.84E-07,  avg # of iterations =  7.8

[...]

     End of self-consistent calculation

     Number of k-points >= 100: set verbosity='high' to print the bands.

!    total energy              =    -188.85046956 Ry
     Harris-Foulkes estimate   =    -188.85046956 Ry
     estimated scf accuracy    <          7.2E-09 Ry

     total all-electron energy =     -1248.137462 Ry

     The total energy is the sum of the following terms:

     one-electron contribution =     -81.60215701 Ry
     hartree contribution      =      42.47419180 Ry
     xc contribution           =     -24.67363697 Ry
     ewald contribution        =     -68.42920941 Ry
     one-center paw contrib.   =     -56.61965797 Ry

     convergence has been achieved in  19 iterations

     Forces acting on atoms (Ry/au):

     atom    1 type  1   force =    -0.00003528    0.00084857   -0.00085916
     atom    2 type  2   force =     0.00003528   -0.00084857    0.00085916

     Total force =     0.001708     Total SCF correction =     0.000013

     entering subroutine stress ...

          total   stress  (Ry/bohr**3)                   (kbar)     P=    3.06
   0.00002599   0.00005429   0.00001965          3.82      7.99      2.89
   0.00005429   0.00004569   0.00001572          7.99      6.72      2.31
   0.00001965   0.00001572  -0.00000920          2.89      2.31     -1.35

     BFGS Geometry Optimization

     number of scf cycles    =   1
     number of bfgs steps    =   0

     enthalpy new            =    -188.8504695557 Ry

     new trust radius        =       0.0063772037 bohr
     new conv_thr            =       0.0000000100 Ry

     new unit-cell volume =    308.44985 a.u.^3 (    45.70755 Ang^3 )

CELL_PARAMETERS (alat= 10.69538360)
   1.000649817   0.001357342   0.000491310
  -0.048454925   0.696916854   0.000249411
   0.469258330   0.345059271   0.361851352

ATOMIC_POSITIONS (crystal)
Na       0.152150989   0.878783013   0.760845357
Cl       0.657001448   0.888483250   0.751534037

     Writing output data file NaCl_pegs+pwscf.save
     NEW-OLD atomic charge density approx. for the potential
     NEW k-points: (use verbosity='high' to print them)

     Check: negative/imaginary core charge=   -0.000006    0.000000
     extrapolated charge   16.02414, renormalised to   16.00000

[...]

     enthalpy old            =    -188.8504695557 Ry
     enthalpy new            =    -188.8505461997 Ry

     CASE: enthalpy_new < enthalpy_old

     WARNING: bfgs curvature condition failed, Theta= 0.844
     new trust radius        =       0.0095508827 bohr
     new conv_thr            =            1.0E-10 Ry

[...]

     number of scf cycles    =  10
     number of bfgs steps    =   9

     enthalpy old            =    -188.8513728845 Ry
     enthalpy new            =    -188.8513879961 Ry

     CASE: enthalpy_new < enthalpy_old

     new trust radius        =       0.0059680678 bohr
     new conv_thr            =            1.0E-10 Ry

     new unit-cell volume =    311.60233 a.u.^3 (    46.17470 Ang^3 )

[...]

ATOMIC_POSITIONS (crystal)
Na       0.154801080   0.884083461   0.755692976
Cl       0.654351357   0.883182802   0.756686418

     Writing output data file NaCl_pegs+pwscf.save
     NEW-OLD atomic charge density approx. for the potential
     NEW k-points: (use verbosity='high' to print them)

     Check: negative/imaginary core charge=   -0.000005    0.000000
     extrapolated charge   15.93747, renormalised to   16.00000

[...]

     bfgs converged in  11 scf cycles and  10 bfgs steps
     (criteria: energy < 0.10E-03, force < 0.10E-02, cell < 0.50E+00)

     End of BFGS Geometry Optimization

     Final enthalpy =    -188.8513949126 Ry
Begin final coordinates
     new unit-cell volume =    311.60233 a.u.^3 (    46.17470 Ang^3 )

CELL_PARAMETERS (alat= 10.69538360)
   1.006331656   0.036032625   0.011529478
  -0.024545806   0.710474374   0.004954542
   0.487833945   0.371528297   0.363978033

ATOMIC_POSITIONS (crystal)
Na       0.154801080   0.884083461   0.755692976
Cl       0.654351357   0.883182802   0.756686418
End final coordinates

     A final scf calculation at the relaxed structure.
     The G-vectors are recalculated for the final unit cell
     Results may differ from those at the preceding step.

     bravais-lattice index     =            0
     lattice parameter (alat)  =      10.6954  a.u.
     unit-cell volume          =     311.6023 (a.u.)^3
     number of atoms/cell      =            2
     number of atomic types    =            2
     number of electrons       =        16.00
     number of Kohn-Sham states=            8
     kinetic-energy cutoff     =      60.0000  Ry
     charge density cutoff     =     240.0000  Ry
     convergence threshold     =      1.0E-10
     mixing beta               =       0.7000
     number of iterations used =            8  plain     mixing
     Exchange-correlation      =  SLA  PW   PBX  PBC ( 1 4 3 4 0)
     EXX-fraction              =        0.00

     celldm(1)=  10.695384  celldm(2)=   0.000000  celldm(3)=   0.000000
     celldm(4)=   0.000000  celldm(5)=   0.000000  celldm(6)=   0.000000

     crystal axes: (cart. coord. in units of alat)
               a(1) = (   1.006332   0.036033   0.011529 )
               a(2) = (  -0.024546   0.710474   0.004955 )
               a(3) = (   0.487834   0.371528   0.363978 )

     reciprocal axes: (cart. coord. in units 2 pi/alat)
               b(1) = (  1.008114  0.044568 -1.396652 )
               b(2) = ( -0.034676  1.416068 -1.398967 )
               b(3) = ( -0.031461 -0.020688  2.810702 )

     PseudoPot. # 1 for Na read from file:
     /projects/e20438/bin/espresso/pseudo/Na.pbe-spn-kjpaw_psl.0.2.UPF
     MD5 check sum: af6cebf537ceac8ff9d4cdfd6fc7ff14
     Pseudo is Projector augmented-wave, Zval =  9.0
     Generated using "atomic" code by A. Dal Corso  v.5.0.2 svn rev. 9415
     Shape of augmentation charge: PSQ
     Using radial grid of 1121 points,  4 beta functions with:
                l(1) =   0
                l(2) =   0
                l(3) =   1
                l(4) =   1
     Q(r) pseudized with 0 coefficients

     PseudoPot. # 2 for Cl read from file:
     /projects/e20438/bin/espresso/pseudo/Cl.pbe-n-kjpaw_psl.0.1.UPF
     MD5 check sum: 39501d8aaca1fada178cfed307344fc1
     Pseudo is Projector augmented-wave + core cor, Zval =  7.0
     Generated using "atomic" code by A. Dal Corso  v.5.0.2 svn rev. 9415
     Shape of augmentation charge: PSQ
     Using radial grid of 1157 points,  4 beta functions with:
                l(1) =   0
                l(2) =   0
                l(3) =   1
                l(4) =   1
     Q(r) pseudized with 0 coefficients

     atomic species   valence    mass     pseudopotential
        Na             9.00    22.98977     Na( 1.00)
        Cl             7.00    35.45270     Cl( 1.00)

     No symmetry found

   Cartesian axes

     site n.     atom                  positions (alat units)
         1           Na  tau(   1) = (   0.5027334   0.9144579   0.2812206  )
         2           Cl  tau(   2) = (   1.0059534   0.9321872   0.2873373  )

     number of k points=   253

     Number of k-points >= 100: set verbosity='high' to print them.

     Largest allocated arrays     est. size (Mb)     dimensions
     Largest temporary arrays     est. size (Mb)     dimensions

     Check: negative/imaginary core charge=   -0.000006    0.000000

     Initial potential from superposition of free atoms

     starting charge   15.49915, renormalised to   16.00000
     Starting wfc are   12 randomized atomic wfcs
     Checking if some PAW data can be deallocated...

     Writing output data file NaCl_pegs+pwscf.save

     Self-consistent Calculation

[...]

     iteration # 29     ecut=    60.00 Ry     beta=0.70
     CG style diagonalization
     c_bands:  1 eigenvalues not converged
     ethr =  2.54E-12,  avg # of iterations =  4.7

[...]

     total energy              =    -188.85140196 Ry
     Harris-Foulkes estimate   =    -188.85140196 Ry
     estimated scf accuracy    <          2.4E-10 Ry

     iteration # 35     ecut=    60.00 Ry     beta=0.70
     CG style diagonalization
     ethr =  1.49E-12,  avg # of iterations =  3.7

     End of self-consistent calculation

     Number of k-points >= 100: set verbosity='high' to print the bands.

!    total energy              =    -188.85140196 Ry
     Harris-Foulkes estimate   =    -188.85140196 Ry
     estimated scf accuracy    <          2.3E-11 Ry

     total all-electron energy =     -1248.138394 Ry

     The total energy is the sum of the following terms:

     one-electron contribution =     -82.07474333 Ry
     hartree contribution      =      42.65464108 Ry
     xc contribution           =     -24.66980381 Ry
     ewald contribution        =     -68.14229971 Ry
     one-center paw contrib.   =     -56.61919619 Ry

     convergence has been achieved in  35 iterations

     Forces acting on atoms (Ry/au):

     atom    1 type  1   force =     0.00001121   -0.00007751    0.00009004
     atom    2 type  2   force =    -0.00001121    0.00007751   -0.00009004

     Total force =     0.000169     Total SCF correction =     0.000000

     entering subroutine stress ...

          total   stress  (Ry/bohr**3)                   (kbar)     P=   -0.08
  -0.00000237  -0.00000119  -0.00000213         -0.35     -0.18     -0.31
  -0.00000119   0.00000106  -0.00000301         -0.18      0.16     -0.44
  -0.00000213  -0.00000301  -0.00000036         -0.31     -0.44     -0.05

     Writing output data file NaCl_pegs+pwscf.save

     General routines

     Parallel routines

     PAW routines

   This run was terminated on:   0:35: 7  23Mar2018

   JOB DONE.