     Program PWSCF v.5.0.2 starts on 23Mar2018 at  0: 4:49

     Current dimensions of program PWSCF are:
     Max number of different atomic species (ntypx) = 10
     Max number of k-points (npk) =  40000
     Max angular momentum in pseudopotentials (lmaxx) =  3
     Waiting for input...
     Reading input from standard input
               file Na.pbe-spn-kjpaw_psl.0.2.UPF: wavefunction(s)  2P 3P renormalized
               file Cl.pbe-n-kjpaw_psl.0.1.UPF: wavefunction(s)  3S 3P renormalized

     bravais-lattice index     =            0
     lattice parameter (alat)  =       7.5396  a.u.
     unit-cell volume          =     305.5873 (a.u.)^3
     number of atoms/cell      =            2
     number of atomic types    =            2
     number of electrons       =        16.00
     number of Kohn-Sham states=            8
     kinetic-energy cutoff     =      60.0000  Ry
     charge density cutoff     =     240.0000  Ry
     convergence threshold     =      1.0E-08
     mixing beta               =       0.7000
     number of iterations used =            8  plain     mixing
     Exchange-correlation      =  SLA  PW   PBX  PBC ( 1 4 3 4 0)
     EXX-fraction              =        0.00
     nstep                     =           50

     celldm(1)=   7.539591  celldm(2)=   0.000000  celldm(3)=   0.000000
     celldm(4)=   0.000000  celldm(5)=   0.000000  celldm(6)=   0.000000

     crystal axes: (cart. coord. in units of alat)
               a(1) = (   1.000000   0.000000   0.000000 )
               a(2) = (   0.535471   0.869893   0.000000 )
               a(3) = (   0.464590  -0.286107   0.819646 )

     reciprocal axes: (cart. coord. in units 2 pi/alat)
               b(1) = (  1.000000 -0.615560 -0.781686 )
               b(2) = (  0.000000  1.149567  0.401270 )
               b(3) = (  0.000000  0.000000  1.220040 )

     PseudoPot. # 1 for Na read from file:
     /projects/e20438/bin/espresso/pseudo/Na.pbe-spn-kjpaw_psl.0.2.UPF
     MD5 check sum: af6cebf537ceac8ff9d4cdfd6fc7ff14
     Pseudo is Projector augmented-wave, Zval =  9.0
     Generated using "atomic" code by A. Dal Corso  v.5.0.2 svn rev. 9415
     Shape of augmentation charge: PSQ
     Using radial grid of 1121 points,  4 beta functions with:
                l(1) =   0
                l(2) =   0
                l(3) =   1
                l(4) =   1
     Q(r) pseudized with 0 coefficients

     PseudoPot. # 2 for Cl read from file:
     /projects/e20438/bin/espresso/pseudo/Cl.pbe-n-kjpaw_psl.0.1.UPF
     MD5 check sum: 39501d8aaca1fada178cfed307344fc1
     Pseudo is Projector augmented-wave + core cor, Zval =  7.0
     Generated using "atomic" code by A. Dal Corso  v.5.0.2 svn rev. 9415
     Shape of augmentation charge: PSQ
     Using radial grid of 1157 points,  4 beta functions with:
                l(1) =   0
                l(2) =   0
                l(3) =   1
                l(4) =   1
     Q(r) pseudized with 0 coefficients

     atomic species   valence    mass     pseudopotential
        Na             9.00    22.98977     Na( 1.00)
        Cl             7.00    35.45270     Cl( 1.00)

     No symmetry found

   Cartesian axes

     site n.     atom                  positions (alat units)
         1           Na  tau(   1) = (   1.3237010  -0.2220464   0.7577545  )
         2           Cl  tau(   2) = (   1.3591111   0.3558382   0.3479745  )

     number of k points=    62
                       cart. coord. in units 2pi/alat
        k(    1) = (   0.0000000   0.0000000   0.0000000), wk =   0.0166667
        k(    2) = (   0.0000000   0.0000000   0.2033399), wk =   0.0333333
        k(    3) = (   0.0000000   0.0000000   0.4066799), wk =   0.0333333
        k(    4) = (   0.0000000   0.0000000  -0.6100198), wk =   0.0166667
        k(    5) = (   0.0000000   0.2299133   0.0802539), wk =   0.0333333
        k(    6) = (   0.0000000   0.2299133   0.2835939), wk =   0.0333333
        k(    7) = (   0.0000000   0.2299133   0.4869338), wk =   0.0333333
        k(    8) = (   0.0000000   0.2299133  -0.5297658), wk =   0.0333333
        k(    9) = (   0.0000000   0.2299133  -0.3264259), wk =   0.0333333
        k(   10) = (   0.0000000   0.2299133  -0.1230860), wk =   0.0333333
        k(   11) = (   0.0000000   0.4598266   0.1605079), wk =   0.0333333
        k(   12) = (   0.0000000   0.4598266   0.3638478), wk =   0.0333333
        k(   13) = (   0.0000000   0.4598266   0.5671877), wk =   0.0333333
        k(   14) = (   0.0000000   0.4598266  -0.4495119), wk =   0.0333333
        k(   15) = (   0.0000000   0.4598266  -0.2461720), wk =   0.0333333
        k(   16) = (   0.0000000   0.4598266  -0.0428321), wk =   0.0333333
        k(   17) = (   0.2500000  -0.1538900  -0.1954216), wk =   0.0333333
        k(   18) = (   0.2500000  -0.1538900   0.0079183), wk =   0.0333333
        k(   19) = (   0.2500000  -0.1538900   0.2112582), wk =   0.0333333
        k(   20) = (   0.2500000  -0.1538900  -0.8054414), wk =   0.0333333
        k(   21) = (   0.2500000  -0.1538900  -0.6021015), wk =   0.0333333
        k(   22) = (   0.2500000  -0.1538900  -0.3987615), wk =   0.0333333
        k(   23) = (   0.2500000   0.0760233  -0.1151677), wk =   0.0333333
        k(   24) = (   0.2500000   0.0760233   0.0881722), wk =   0.0333333
        k(   25) = (   0.2500000   0.0760233   0.2915122), wk =   0.0333333
        k(   26) = (   0.2500000   0.0760233  -0.7251875), wk =   0.0333333
        k(   27) = (   0.2500000   0.0760233  -0.5218475), wk =   0.0333333
        k(   28) = (   0.2500000   0.0760233  -0.3185076), wk =   0.0333333
        k(   29) = (   0.2500000   0.3059366  -0.0349137), wk =   0.0333333
        k(   30) = (   0.2500000   0.3059366   0.1684262), wk =   0.0333333
        k(   31) = (   0.2500000   0.3059366   0.3717661), wk =   0.0333333
        k(   32) = (   0.2500000   0.3059366  -0.6449335), wk =   0.0333333
        k(   33) = (   0.2500000   0.3059366  -0.4415936), wk =   0.0333333
        k(   34) = (   0.2500000   0.3059366  -0.2382537), wk =   0.0333333
        k(   35) = (   0.2500000  -0.6137166  -0.3559295), wk =   0.0333333
        k(   36) = (   0.2500000  -0.6137166  -0.1525896), wk =   0.0333333
        k(   37) = (   0.2500000  -0.6137166   0.0507504), wk =   0.0333333
        k(   38) = (   0.2500000  -0.6137166  -0.9659493), wk =   0.0333333
        k(   39) = (   0.2500000  -0.6137166  -0.7626093), wk =   0.0333333
        k(   40) = (   0.2500000  -0.6137166  -0.5592694), wk =   0.0333333
        k(   41) = (   0.2500000  -0.3838033  -0.2756756), wk =   0.0333333
        k(   42) = (   0.2500000  -0.3838033  -0.0723356), wk =   0.0333333
        k(   43) = (   0.2500000  -0.3838033   0.1310043), wk =   0.0333333
        k(   44) = (   0.2500000  -0.3838033  -0.8856953), wk =   0.0333333
        k(   45) = (   0.2500000  -0.3838033  -0.6823554), wk =   0.0333333
        k(   46) = (   0.2500000  -0.3838033  -0.4790155), wk =   0.0333333
        k(   47) = (  -0.5000000   0.3077800   0.3908432), wk =   0.0166667
        k(   48) = (  -0.5000000   0.3077800   0.5941832), wk =   0.0333333
        k(   49) = (  -0.5000000   0.3077800   0.7975231), wk =   0.0333333
        k(   50) = (  -0.5000000   0.3077800  -0.2191765), wk =   0.0166667
        k(   51) = (  -0.5000000   0.5376933   0.4710972), wk =   0.0333333
        k(   52) = (  -0.5000000   0.5376933   0.6744371), wk =   0.0333333
        k(   53) = (  -0.5000000   0.5376933   0.8777770), wk =   0.0333333
        k(   54) = (  -0.5000000   0.5376933  -0.1389226), wk =   0.0333333
        k(   55) = (  -0.5000000   0.5376933   0.0644173), wk =   0.0333333
        k(   56) = (  -0.5000000   0.5376933   0.2677573), wk =   0.0333333
        k(   57) = (  -0.5000000   0.7676066   0.5513511), wk =   0.0333333
        k(   58) = (  -0.5000000   0.7676066   0.7546910), wk =   0.0333333
        k(   59) = (  -0.5000000   0.7676066   0.9580310), wk =   0.0333333
        k(   60) = (  -0.5000000   0.7676066  -0.0586687), wk =   0.0333333
        k(   61) = (  -0.5000000   0.7676066   0.1446713), wk =   0.0333333
        k(   62) = (  -0.5000000   0.7676066   0.3480112), wk =   0.0333333

     Largest allocated arrays     est. size (Mb)     dimensions
     Largest temporary arrays     est. size (Mb)     dimensions

     Check: negative/imaginary core charge=   -0.000006    0.000000

     Initial potential from superposition of free atoms

     starting charge   15.49915, renormalised to   16.00000
     Starting wfc are   12 randomized atomic wfcs
     Checking if some PAW data can be deallocated...

     Self-consistent Calculation

     iteration #  1     ecut=    60.00 Ry     beta=0.70
     CG style diagonalization
     ethr =  1.00E-02,  avg # of iterations =  2.0

     total energy              =    -188.77386433 Ry
     Harris-Foulkes estimate   =    -188.92429827 Ry
     estimated scf accuracy    <       0.18072333 Ry

[...]

     iteration #  5     ecut=    60.00 Ry     beta=0.70
     CG style diagonalization
     c_bands:  1 eigenvalues not converged
     c_bands:  1 eigenvalues not converged
     ethr =  9.26E-07,  avg # of iterations =  7.2

[...]

     End of self-consistent calculation

          k = 0.0000 0.0000 0.0000 (  2407 PWs)   bands (ev):

   -47.9650 -19.8797 -19.8756 -19.8726 -11.6638   0.8895   0.9649   1.0690

[...]

          k =-0.5000 0.3078 0.3908 (  2394 PWs)   bands (ev):

[...]

!    total energy              =    -188.85095528 Ry
     Harris-Foulkes estimate   =    -188.85095528 Ry
     estimated scf accuracy    <          6.4E-09 Ry

     total all-electron energy =     -1248.137948 Ry

     The total energy is the sum of the following terms:

     one-electron contribution =     -81.33759302 Ry
     hartree contribution      =      42.37951115 Ry
     xc contribution           =     -24.67678743 Ry
     ewald contribution        =     -68.59605517 Ry
     one-center paw contrib.   =     -56.62003081 Ry

     convergence has been achieved in  13 iterations

     Forces acting on atoms (Ry/au):

     atom    1 type  1   force =    -0.00002776   -0.00003215    0.00004486
     atom    2 type  2   force =     0.00002776    0.00003215   -0.00004486

     Total force =     0.000087     Total SCF correction =     0.000011
     SCF correction compared to forces is large: reduce conv_thr to get better values

     entering subroutine stress ...

          total   stress  (Ry/bohr**3)                   (kbar)     P=    5.24
   0.00003684  -0.00003395   0.00002421          5.42     -4.99      3.56
  -0.00003395   0.00003441  -0.00000388         -4.99      5.06     -0.57
   0.00002421  -0.00000388   0.00003560          3.56     -0.57      5.24

     BFGS Geometry Optimization

     number of scf cycles    =   1
     number of bfgs steps    =   0

     enthalpy new            =    -188.8509552804 Ry

     new trust radius        =       0.0048627718 bohr
     new conv_thr            =       0.0000000100 Ry

     new unit-cell volume =    306.40399 a.u.^3 (    45.40439 Ang^3 )

CELL_PARAMETERS (alat=  7.53959059)
   1.000920882  -0.000848681   0.000605173
   0.535226161   0.870187067   0.000239755
[...]

[...]

     number of scf cycles    =  10
     number of bfgs steps    =   9

     enthalpy old            =    -188.8513579135 Ry
     enthalpy new            =    -188.8513709242 Ry

     CASE: enthalpy_new < enthalpy_old

     new trust radius        =       0.0036376331 bohr
     new conv_thr            =            1.0E-10 Ry

     new unit-cell volume =    311.53778 a.u.^3 (    46.16514 Ang^3 )

[...]

ATOMIC_POSITIONS (crystal)
Na       0.868004718   0.048731274   0.924542164
Cl       0.868117048   0.548766854   0.424490935

     Writing output data file NaCl_pegs+pwscf.save
     NEW-OLD atomic charge density approx. for the potential
     NEW k-points:
        k(    1) = (   0.0000000   0.0000000   0.0000000), wk =   0.0166667
        k(    2) = (  -0.0029896   0.0004652   0.2021892), wk =   0.0333333
        k(    3) = (  -0.0059791   0.0009304   0.4043783), wk =   0.0333333
        k(    4) = (   0.0089687  -0.0013956  -0.6065675), wk =   0.0166667
        k(    5) = (   0.0035897   0.2289548   0.0803255), wk =   0.0333333
        k(    6) = (   0.0006001   0.2294200   0.2825147), wk =   0.0333333
        k(    7) = (  -0.0023895   0.2298851   0.4847038), wk =   0.0333333
        k(    8) = (   0.0125583   0.2275592  -0.5262419), wk =   0.0333333
        k(    9) = (   0.0095688   0.2280244  -0.3240528), wk =   0.0333333
        k(   10) = (   0.0065792   0.2284896  -0.1218636), wk =   0.0333333
        k(   11) = (   0.0071793   0.4579095   0.1606510), wk =   0.0333333
        k(   12) = (   0.0041898   0.4583747   0.3628402), wk =   0.0333333
        k(   13) = (   0.0012002   0.4588399   0.5650293), wk =   0.0333333
        k(   14) = (   0.0161480   0.4565140  -0.4459164), wk =   0.0333333
        k(   15) = (   0.0131584   0.4569792  -0.2437273), wk =   0.0333333
        k(   16) = (   0.0101689   0.4574444  -0.0415381), wk =   0.0333333
        k(   17) = (   0.2476965  -0.1483904  -0.1983400), wk =   0.0333333
        k(   18) = (   0.2447070  -0.1479252   0.0038491), wk =   0.0333333
        k(   19) = (   0.2417174  -0.1474601   0.2060383), wk =   0.0333333
        k(   20) = (   0.2566652  -0.1497860  -0.8049075), wk =   0.0333333
        k(   21) = (   0.2536757  -0.1493208  -0.6027183), wk =   0.0333333
        k(   22) = (   0.2506861  -0.1488556  -0.4005292), wk =   0.0333333
        k(   23) = (   0.2512862   0.0805643  -0.1180145), wk =   0.0333333
        k(   24) = (   0.2482966   0.0810295   0.0841746), wk =   0.0333333
        k(   25) = (   0.2453071   0.0814947   0.2863638), wk =   0.0333333
        k(   26) = (   0.2602549   0.0791688  -0.7245820), wk =   0.0333333
        k(   27) = (   0.2572653   0.0796340  -0.5223928), wk =   0.0333333
        k(   28) = (   0.2542758   0.0800992  -0.3202037), wk =   0.0333333
        k(   29) = (   0.2548759   0.3095191  -0.0376890), wk =   0.0333333
        k(   30) = (   0.2518863   0.3099843   0.1645002), wk =   0.0333333
        k(   31) = (   0.2488967   0.3104495   0.3666893), wk =   0.0333333
        k(   32) = (   0.2638445   0.3081236  -0.6442565), wk =   0.0333333
        k(   33) = (   0.2608550   0.3085887  -0.4420673), wk =   0.0333333
        k(   34) = (   0.2578654   0.3090539  -0.2398781), wk =   0.0333333
        k(   35) = (   0.2405172  -0.6063000  -0.3589911), wk =   0.0333333
        k(   36) = (   0.2375277  -0.6058348  -0.1568019), wk =   0.0333333
        k(   37) = (   0.2345381  -0.6053696   0.0453872), wk =   0.0333333
        k(   38) = (   0.2494859  -0.6076955  -0.9655585), wk =   0.0333333
        k(   39) = (   0.2464963  -0.6072303  -0.7633694), wk =   0.0333333
        k(   40) = (   0.2435068  -0.6067652  -0.5611802), wk =   0.0333333
        k(   41) = (   0.2441069  -0.3773452  -0.2786656), wk =   0.0333333
        k(   42) = (   0.2411173  -0.3768800  -0.0764764), wk =   0.0333333
        k(   43) = (   0.2381278  -0.3764148   0.1257127), wk =   0.0333333
        k(   44) = (   0.2530756  -0.3787408  -0.8852330), wk =   0.0333333
        k(   45) = (   0.2500860  -0.3782756  -0.6830439), wk =   0.0333333
        k(   46) = (   0.2470964  -0.3778104  -0.4808547), wk =   0.0333333
        k(   47) = (  -0.4953931   0.2967809   0.3966801), wk =   0.0166667
        k(   48) = (  -0.4983826   0.2972460   0.5988692), wk =   0.0333333
        k(   49) = (  -0.5013722   0.2977112   0.8010584), wk =   0.0333333
        k(   50) = (  -0.4864244   0.2953853  -0.2098874), wk =   0.0166667
        k(   51) = (  -0.4918034   0.5257356   0.4770056), wk =   0.0333333
        k(   52) = (  -0.4947930   0.5262008   0.6791947), wk =   0.0333333
        k(   53) = (  -0.4977825   0.5266660   0.8813839), wk =   0.0333333
        k(   54) = (  -0.4828347   0.5243401  -0.1295619), wk =   0.0333333
        k(   55) = (  -0.4858243   0.5248052   0.0726273), wk =   0.0333333
        k(   56) = (  -0.4888139   0.5252704   0.2748164), wk =   0.0333333
        k(   57) = (  -0.4882138   0.7546904   0.5573311), wk =   0.0333333
        k(   58) = (  -0.4912033   0.7551556   0.7595203), wk =   0.0333333
        k(   59) = (  -0.4941929   0.7556208   0.9617094), wk =   0.0333333
        k(   60) = (  -0.4792451   0.7532948  -0.0492363), wk =   0.0333333
        k(   61) = (  -0.4822346   0.7537600   0.1529528), wk =   0.0333333
        k(   62) = (  -0.4852242   0.7542252   0.3551420), wk =   0.0333333

     Check: negative/imaginary core charge=   -0.000005    0.000000
     extrapolated charge   15.96055, renormalised to   16.00000

[...]

     Total force =     0.000016     Total SCF correction =     0.000003
     SCF correction compared to forces is large: reduce conv_thr to get better values

[...]

     bfgs converged in  11 scf cycles and  10 bfgs steps
     (criteria: energy < 0.10E-03, force < 0.10E-02, cell < 0.50E+00)

     End of BFGS Geometry Optimization

     Final enthalpy =    -188.8513733706 Ry
Begin final coordinates
     new unit-cell volume =    311.53778 a.u.^3 (    46.16514 Ang^3 )

CELL_PARAMETERS (alat=  7.53959059)
   1.008661711  -0.021063665   0.014962493
   0.521800883   0.863344002   0.005728989
   0.486889266  -0.299598870   0.832199056

ATOMIC_POSITIONS (crystal)
Na       0.868004718   0.048731274   0.924542164
Cl       0.868117048   0.548766854   0.424490935
End final coordinates

     A final scf calculation at the relaxed structure.
     The G-vectors are recalculated for the final unit cell
     Results may differ from those at the preceding step.

     bravais-lattice index     =            0
     lattice parameter (alat)  =       7.5396  a.u.
     unit-cell volume          =     311.5378 (a.u.)^3
     number of atoms/cell      =            2
     number of atomic types    =            2
     number of electrons       =        16.00
     number of Kohn-Sham states=            8
     kinetic-energy cutoff     =      60.0000  Ry
     charge density cutoff     =     240.0000  Ry
     convergence threshold     =      1.0E-10
     mixing beta               =       0.7000
     number of iterations used =            8  plain     mixing
     Exchange-correlation      =  SLA  PW   PBX  PBC ( 1 4 3 4 0)
     EXX-fraction              =        0.00

     celldm(1)=   7.539591  celldm(2)=   0.000000  celldm(3)=   0.000000
     celldm(4)=   0.000000  celldm(5)=   0.000000  celldm(6)=   0.000000

     crystal axes: (cart. coord. in units of alat)
               a(1) = (   1.008662  -0.021064   0.014962 )
               a(2) = (   0.521801   0.863344   0.005729 )
               a(3) = (   0.486889  -0.299599   0.832199 )

     reciprocal axes: (cart. coord. in units 2 pi/alat)
               b(1) = (  0.990786 -0.593562 -0.793360 )
               b(2) = (  0.017948  1.144774  0.401628 )
               b(3) = ( -0.017937  0.002791  1.213135 )

     PseudoPot. # 1 for Na read from file:
     /projects/e20438/bin/espresso/pseudo/Na.pbe-spn-kjpaw_psl.0.2.UPF
     MD5 check sum: af6cebf537ceac8ff9d4cdfd6fc7ff14
     Pseudo is Projector augmented-wave, Zval =  9.0
     Generated using "atomic" code by A. Dal Corso  v.5.0.2 svn rev. 9415
     Shape of augmentation charge: PSQ
     Using radial grid of 1121 points,  4 beta functions with:
                l(1) =   0
                l(2) =   0
                l(3) =   1
                l(4) =   1
     Q(r) pseudized with 0 coefficients

     PseudoPot. # 2 for Cl read from file:
     /projects/e20438/bin/espresso/pseudo/Cl.pbe-n-kjpaw_psl.0.1.UPF
     MD5 check sum: 39501d8aaca1fada178cfed307344fc1
     Pseudo is Projector augmented-wave + core cor, Zval =  7.0
     Generated using "atomic" code by A. Dal Corso  v.5.0.2 svn rev. 9415
     Shape of augmentation charge: PSQ
     Using radial grid of 1157 points,  4 beta functions with:
                l(1) =   0
                l(2) =   0
                l(3) =   1
                l(4) =   1
     Q(r) pseudized with 0 coefficients

     atomic species   valence    mass     pseudopotential
        Na             9.00    22.98977     Na( 1.00)
        Cl             7.00    35.45270     Cl( 1.00)

     No symmetry found

   Cartesian axes

     site n.     atom                  positions (alat units)
         1           Na  tau(   1) = (   1.3511008  -0.2532033   0.7826698  )
         2           Cl  tau(   2) = (   1.3686635   0.3283118   0.3693940  )

     number of k points=    62
                       cart. coord. in units 2pi/alat
        k(    1) = (   0.0000000   0.0000000   0.0000000), wk =   0.0166667
        k(    2) = (  -0.0029896   0.0004652   0.2021892), wk =   0.0333333
        k(    3) = (  -0.0059791   0.0009304   0.4043783), wk =   0.0333333
        k(    4) = (   0.0089687  -0.0013956  -0.6065675), wk =   0.0166667
        k(    5) = (   0.0035897   0.2289548   0.0803255), wk =   0.0333333
        k(    6) = (   0.0006001   0.2294200   0.2825147), wk =   0.0333333
        k(    7) = (  -0.0023895   0.2298851   0.4847038), wk =   0.0333333
        k(    8) = (   0.0125583   0.2275592  -0.5262419), wk =   0.0333333
        k(    9) = (   0.0095688   0.2280244  -0.3240528), wk =   0.0333333
        k(   10) = (   0.0065792   0.2284896  -0.1218636), wk =   0.0333333
        k(   11) = (   0.0071793   0.4579095   0.1606510), wk =   0.0333333
        k(   12) = (   0.0041898   0.4583747   0.3628402), wk =   0.0333333
        k(   13) = (   0.0012002   0.4588399   0.5650293), wk =   0.0333333
        k(   14) = (   0.0161480   0.4565140  -0.4459164), wk =   0.0333333
        k(   15) = (   0.0131584   0.4569792  -0.2437273), wk =   0.0333333
        k(   16) = (   0.0101689   0.4574444  -0.0415381), wk =   0.0333333
        k(   17) = (   0.2476965  -0.1483904  -0.1983400), wk =   0.0333333
        k(   18) = (   0.2447070  -0.1479252   0.0038491), wk =   0.0333333
        k(   19) = (   0.2417174  -0.1474601   0.2060383), wk =   0.0333333
        k(   20) = (   0.2566652  -0.1497860  -0.8049075), wk =   0.0333333
        k(   21) = (   0.2536757  -0.1493208  -0.6027183), wk =   0.0333333
        k(   22) = (   0.2506861  -0.1488556  -0.4005292), wk =   0.0333333
        k(   23) = (   0.2512862   0.0805643  -0.1180145), wk =   0.0333333
        k(   24) = (   0.2482966   0.0810295   0.0841746), wk =   0.0333333
        k(   25) = (   0.2453071   0.0814947   0.2863638), wk =   0.0333333
        k(   26) = (   0.2602549   0.0791688  -0.7245820), wk =   0.0333333
        k(   27) = (   0.2572653   0.0796340  -0.5223928), wk =   0.0333333
        k(   28) = (   0.2542758   0.0800992  -0.3202037), wk =   0.0333333
        k(   29) = (   0.2548759   0.3095191  -0.0376890), wk =   0.0333333
        k(   30) = (   0.2518863   0.3099843   0.1645002), wk =   0.0333333
        k(   31) = (   0.2488967   0.3104495   0.3666893), wk =   0.0333333
        k(   32) = (   0.2638445   0.3081236  -0.6442565), wk =   0.0333333
        k(   33) = (   0.2608550   0.3085887  -0.4420673), wk =   0.0333333
        k(   34) = (   0.2578654   0.3090539  -0.2398781), wk =   0.0333333
        k(   35) = (   0.2405172  -0.6063000  -0.3589911), wk =   0.0333333
        k(   36) = (   0.2375277  -0.6058348  -0.1568019), wk =   0.0333333
        k(   37) = (   0.2345381  -0.6053696   0.0453872), wk =   0.0333333
        k(   38) = (   0.2494859  -0.6076955  -0.9655585), wk =   0.0333333
        k(   39) = (   0.2464963  -0.6072303  -0.7633694), wk =   0.0333333
        k(   40) = (   0.2435068  -0.6067652  -0.5611802), wk =   0.0333333
        k(   41) = (   0.2441069  -0.3773452  -0.2786656), wk =   0.0333333
        k(   42) = (   0.2411173  -0.3768800  -0.0764764), wk =   0.0333333
        k(   43) = (   0.2381278  -0.3764148   0.1257127), wk =   0.0333333
        k(   44) = (   0.2530756  -0.3787408  -0.8852330), wk =   0.0333333
        k(   45) = (   0.2500860  -0.3782756  -0.6830439), wk =   0.0333333
        k(   46) = (   0.2470964  -0.3778104  -0.4808547), wk =   0.0333333
        k(   47) = (  -0.4953931   0.2967809   0.3966801), wk =   0.0166667
        k(   48) = (  -0.4983826   0.2972460   0.5988692), wk =   0.0333333
        k(   49) = (  -0.5013722   0.2977112   0.8010584), wk =   0.0333333
        k(   50) = (  -0.4864244   0.2953853  -0.2098874), wk =   0.0166667
        k(   51) = (  -0.4918034   0.5257356   0.4770056), wk =   0.0333333
        k(   52) = (  -0.4947930   0.5262008   0.6791947), wk =   0.0333333
        k(   53) = (  -0.4977825   0.5266660   0.8813839), wk =   0.0333333
        k(   54) = (  -0.4828347   0.5243401  -0.1295619), wk =   0.0333333
        k(   55) = (  -0.4858243   0.5248052   0.0726273), wk =   0.0333333
        k(   56) = (  -0.4888139   0.5252704   0.2748164), wk =   0.0333333
        k(   57) = (  -0.4882138   0.7546904   0.5573311), wk =   0.0333333
        k(   58) = (  -0.4912033   0.7551556   0.7595203), wk =   0.0333333
        k(   59) = (  -0.4941929   0.7556208   0.9617094), wk =   0.0333333
        k(   60) = (  -0.4792451   0.7532948  -0.0492363), wk =   0.0333333
        k(   61) = (  -0.4822346   0.7537600   0.1529528), wk =   0.0333333
        k(   62) = (  -0.4852242   0.7542252   0.3551420), wk =   0.0333333

     Largest allocated arrays     est. size (Mb)     dimensions
     Largest temporary arrays     est. size (Mb)     dimensions

     Check: negative/imaginary core charge=   -0.000006    0.000000

     Initial potential from superposition of free atoms

     starting charge   15.49915, renormalised to   16.00000
     Starting wfc are   12 randomized atomic wfcs
     Checking if some PAW data can be deallocated...

     Writing output data file NaCl_pegs+pwscf.save

     Self-consistent Calculation

[...]

     iteration # 15     ecut=    60.00 Ry     beta=0.70
     CG style diagonalization
     c_bands:  1 eigenvalues not converged
     ethr =  3.34E-09,  avg # of iterations =  7.7

[...]

     total energy              =    -188.85138218 Ry
     Harris-Foulkes estimate   =    -188.85138218 Ry
     estimated scf accuracy    <          2.1E-10 Ry

     iteration # 33     ecut=    60.00 Ry     beta=0.70
     CG style diagonalization
     ethr =  1.31E-12,  avg # of iterations =  4.4

     End of self-consistent calculation

[...]

          k = 0.2471-0.3778-0.4809 (  2441 PWs)   bands (ev):

[...]

          k =-0.4852 0.7542 0.3551 (  2436 PWs)   bands (ev):

   -48.1390 -20.0702 -20.0581 -20.0545 -11.4293  -0.7076   0.0576   0.4158

!    total energy              =    -188.85138218 Ry
     Harris-Foulkes estimate   =    -188.85138218 Ry
     estimated scf accuracy    <          1.9E-11 Ry

     total all-electron energy =     -1248.138375 Ry

     The total energy is the sum of the following terms:

     one-electron contribution =     -82.06690248 Ry
     hartree contribution      =      42.65178527 Ry
     xc contribution           =     -24.66993960 Ry
     ewald contribution        =     -68.14712834 Ry
     one-center paw contrib.   =     -56.61919703 Ry

     convergence has been achieved in  33 iterations

     Forces acting on atoms (Ry/au):

     atom    1 type  1   force =     0.00000434    0.00000610   -0.00000933
     atom    2 type  2   force =    -0.00000434   -0.00000610    0.00000933

     Total force =     0.000017     Total SCF correction =     0.000001

     entering subroutine stress ...

          total   stress  (Ry/bohr**3)                   (kbar)     P=   -0.06
   0.00000058   0.00000076  -0.00000055          0.09      0.11     -0.08
   0.00000076  -0.00000071  -0.00000034          0.11     -0.10     -0.05
  -0.00000055  -0.00000034  -0.00000111         -0.08     -0.05     -0.16

     Writing output data file NaCl_pegs+pwscf.save

     General routines

     Parallel routines

     PAW routines

   This run was terminated on:   0: 8:23  23Mar2018

   JOB DONE.