     Program PWSCF v.5.0.2 starts on 23Mar2018 at  0: 4:44

     Current dimensions of program PWSCF are:
     Max number of different atomic species (ntypx) = 10
     Max number of k-points (npk) =  40000
     Max angular momentum in pseudopotentials (lmaxx) =  3
     Waiting for input...
     Reading input from standard input
               file Na.pbe-spn-kjpaw_psl.0.2.UPF: wavefunction(s)  2P 3P renormalized
               file Cl.pbe-n-kjpaw_psl.0.1.UPF: wavefunction(s)  3S 3P renormalized

     bravais-lattice index     =            0
     lattice parameter (alat)  =       7.6357  a.u.
     unit-cell volume          =     305.8885 (a.u.)^3
     number of atoms/cell      =            2
     number of atomic types    =            2
     number of electrons       =        16.00
     number of Kohn-Sham states=            8
     kinetic-energy cutoff     =      60.0000  Ry
     charge density cutoff     =     240.0000  Ry
     convergence threshold     =      1.0E-08
     mixing beta               =       0.7000
     number of iterations used =            8  plain     mixing
     Exchange-correlation      =  SLA  PW   PBX  PBC ( 1 4 3 4 0)
     EXX-fraction              =        0.00
     nstep                     =           50

     celldm(1)=   7.635728  celldm(2)=   0.000000  celldm(3)=   0.000000
     celldm(4)=   0.000000  celldm(5)=   0.000000  celldm(6)=   0.000000

     crystal axes: (cart. coord. in units of alat)
               a(1) = (   1.000000   0.000000   0.000000 )
               a(2) = (   0.507768   0.855937   0.000000 )
               a(3) = (   0.492224  -0.292208   0.802731 )

     reciprocal axes: (cart. coord. in units 2 pi/alat)
               b(1) = (  1.000000 -0.593230 -0.829133 )
               b(2) = (  0.000000  1.168310  0.425286 )
               b(3) = (  0.000000  0.000000  1.245748 )

     PseudoPot. # 1 for Na read from file:
     /projects/e20438/bin/espresso/pseudo/Na.pbe-spn-kjpaw_psl.0.2.UPF
     MD5 check sum: af6cebf537ceac8ff9d4cdfd6fc7ff14
     Pseudo is Projector augmented-wave, Zval =  9.0
     Generated using "atomic" code by A. Dal Corso  v.5.0.2 svn rev. 9415
     Shape of augmentation charge: PSQ
     Using radial grid of 1121 points,  4 beta functions with:
                l(1) =   0
                l(2) =   0
                l(3) =   1
                l(4) =   1
     Q(r) pseudized with 0 coefficients

     PseudoPot. # 2 for Cl read from file:
     /projects/e20438/bin/espresso/pseudo/Cl.pbe-n-kjpaw_psl.0.1.UPF
     MD5 check sum: 39501d8aaca1fada178cfed307344fc1
     Pseudo is Projector augmented-wave + core cor, Zval =  7.0
     Generated using "atomic" code by A. Dal Corso  v.5.0.2 svn rev. 9415
     Shape of augmentation charge: PSQ
     Using radial grid of 1157 points,  4 beta functions with:
                l(1) =   0
                l(2) =   0
                l(3) =   1
                l(4) =   1
     Q(r) pseudized with 0 coefficients

     atomic species   valence    mass     pseudopotential
        Na             9.00    22.98977     Na( 1.00)
        Cl             7.00    35.45270     Cl( 1.00)

     No symmetry found

   Cartesian axes

     site n.     atom                  positions (alat units)
         1           Na  tau(   1) = (   1.2680793  -0.1361677   0.7204884  )
         2           Cl  tau(   2) = (   1.2758583   0.4377976   0.3191930  )

     number of k points=    62
                       cart. coord. in units 2pi/alat
        k(    1) = (   0.0000000   0.0000000   0.0000000), wk =   0.0166667
        k(    2) = (   0.0000000   0.0000000   0.2076246), wk =   0.0333333
        k(    3) = (   0.0000000   0.0000000   0.4152492), wk =   0.0333333
        k(    4) = (   0.0000000   0.0000000  -0.6228738), wk =   0.0166667
        k(    5) = (   0.0000000   0.2336621   0.0850571), wk =   0.0333333
        k(    6) = (   0.0000000   0.2336621   0.2926817), wk =   0.0333333
        k(    7) = (   0.0000000   0.2336621   0.5003064), wk =   0.0333333
        k(    8) = (   0.0000000   0.2336621  -0.5378167), wk =   0.0333333
        k(    9) = (   0.0000000   0.2336621  -0.3301921), wk =   0.0333333
        k(   10) = (   0.0000000   0.2336621  -0.1225675), wk =   0.0333333
        k(   11) = (   0.0000000   0.4673241   0.1701143), wk =   0.0333333
        k(   12) = (   0.0000000   0.4673241   0.3777389), wk =   0.0333333
        k(   13) = (   0.0000000   0.4673241   0.5853635), wk =   0.0333333
        k(   14) = (   0.0000000   0.4673241  -0.4527596), wk =   0.0333333
        k(   15) = (   0.0000000   0.4673241  -0.2451349), wk =   0.0333333
        k(   16) = (   0.0000000   0.4673241  -0.0375103), wk =   0.0333333
        k(   17) = (   0.2500000  -0.1483076  -0.2072833), wk =   0.0333333
        k(   18) = (   0.2500000  -0.1483076   0.0003414), wk =   0.0333333
        k(   19) = (   0.2500000  -0.1483076   0.2079660), wk =   0.0333333
        k(   20) = (   0.2500000  -0.1483076  -0.8301571), wk =   0.0333333
        k(   21) = (   0.2500000  -0.1483076  -0.6225325), wk =   0.0333333
        k(   22) = (   0.2500000  -0.1483076  -0.4149079), wk =   0.0333333
        k(   23) = (   0.2500000   0.0853545  -0.1222261), wk =   0.0333333
        k(   24) = (   0.2500000   0.0853545   0.0853985), wk =   0.0333333
        k(   25) = (   0.2500000   0.0853545   0.2930231), wk =   0.0333333
        k(   26) = (   0.2500000   0.0853545  -0.7450999), wk =   0.0333333
        k(   27) = (   0.2500000   0.0853545  -0.5374753), wk =   0.0333333
        k(   28) = (   0.2500000   0.0853545  -0.3298507), wk =   0.0333333
        k(   29) = (   0.2500000   0.3190166  -0.0371690), wk =   0.0333333
        k(   30) = (   0.2500000   0.3190166   0.1704556), wk =   0.0333333
        k(   31) = (   0.2500000   0.3190166   0.3780802), wk =   0.0333333
        k(   32) = (   0.2500000   0.3190166  -0.6600428), wk =   0.0333333
        k(   33) = (   0.2500000   0.3190166  -0.4524182), wk =   0.0333333
        k(   34) = (   0.2500000   0.3190166  -0.2447936), wk =   0.0333333
        k(   35) = (   0.2500000  -0.6156317  -0.3773975), wk =   0.0333333
        k(   36) = (   0.2500000  -0.6156317  -0.1697729), wk =   0.0333333
        k(   37) = (   0.2500000  -0.6156317   0.0378517), wk =   0.0333333
        k(   38) = (   0.2500000  -0.6156317  -1.0002714), wk =   0.0333333
        k(   39) = (   0.2500000  -0.6156317  -0.7926468), wk =   0.0333333
        k(   40) = (   0.2500000  -0.6156317  -0.5850221), wk =   0.0333333
        k(   41) = (   0.2500000  -0.3819696  -0.2923404), wk =   0.0333333
        k(   42) = (   0.2500000  -0.3819696  -0.0847158), wk =   0.0333333
        k(   43) = (   0.2500000  -0.3819696   0.1229088), wk =   0.0333333
        k(   44) = (   0.2500000  -0.3819696  -0.9152142), wk =   0.0333333
        k(   45) = (   0.2500000  -0.3819696  -0.7075896), wk =   0.0333333
        k(   46) = (   0.2500000  -0.3819696  -0.4999650), wk =   0.0333333
        k(   47) = (  -0.5000000   0.2966151   0.4145665), wk =   0.0166667
        k(   48) = (  -0.5000000   0.2966151   0.6221911), wk =   0.0333333
        k(   49) = (  -0.5000000   0.2966151   0.8298157), wk =   0.0333333
        k(   50) = (  -0.5000000   0.2966151  -0.2083073), wk =   0.0166667
        k(   51) = (  -0.5000000   0.5302772   0.4996236), wk =   0.0333333
        k(   52) = (  -0.5000000   0.5302772   0.7072483), wk =   0.0333333
        k(   53) = (  -0.5000000   0.5302772   0.9148729), wk =   0.0333333
        k(   54) = (  -0.5000000   0.5302772  -0.1232502), wk =   0.0333333
        k(   55) = (  -0.5000000   0.5302772   0.0843744), wk =   0.0333333
        k(   56) = (  -0.5000000   0.5302772   0.2919990), wk =   0.0333333
        k(   57) = (  -0.5000000   0.7639393   0.5846808), wk =   0.0333333
        k(   58) = (  -0.5000000   0.7639393   0.7923054), wk =   0.0333333
        k(   59) = (  -0.5000000   0.7639393   0.9999300), wk =   0.0333333
        k(   60) = (  -0.5000000   0.7639393  -0.0381930), wk =   0.0333333
        k(   61) = (  -0.5000000   0.7639393   0.1694316), wk =   0.0333333
        k(   62) = (  -0.5000000   0.7639393   0.3770562), wk =   0.0333333

     Largest allocated arrays     est. size (Mb)     dimensions
     Largest temporary arrays     est. size (Mb)     dimensions

     Check: negative/imaginary core charge=   -0.000006    0.000000

     Initial potential from superposition of free atoms

     starting charge   15.49915, renormalised to   16.00000
     Starting wfc are   12 randomized atomic wfcs
     Checking if some PAW data can be deallocated...

     Self-consistent Calculation

     iteration #  1     ecut=    60.00 Ry     beta=0.70
     CG style diagonalization
     ethr =  1.00E-02,  avg # of iterations =  2.0

     total energy              =    -188.77387705 Ry
     Harris-Foulkes estimate   =    -188.92433625 Ry
     estimated scf accuracy    <       0.18071634 Ry

[...]

     iteration #  5     ecut=    60.00 Ry     beta=0.70
     CG style diagonalization
     c_bands:  1 eigenvalues not converged
     c_bands:  1 eigenvalues not converged
     ethr =  9.28E-07,  avg # of iterations =  7.5

[...]

     End of self-consistent calculation

          k = 0.0000 0.0000 0.0000 (  2405 PWs)   bands (ev):

   -47.9698 -19.8823 -19.8812 -19.8790 -11.6718   0.9178   0.9714   0.9985

[...]

          k =-0.5000 0.2966 0.4146 (  2406 PWs)   bands (ev):

[...]

!    total energy              =    -188.85122911 Ry
     Harris-Foulkes estimate   =    -188.85122911 Ry
     estimated scf accuracy    <          6.0E-09 Ry

     total all-electron energy =     -1248.138222 Ry

     The total energy is the sum of the following terms:

     one-electron contribution =     -81.38935080 Ry
     hartree contribution      =      42.40065438 Ry
     xc contribution           =     -24.67655873 Ry
     ewald contribution        =     -68.56593561 Ry
     one-center paw contrib.   =     -56.62003834 Ry

     convergence has been achieved in  23 iterations

     Forces acting on atoms (Ry/au):

     atom    1 type  1   force =    -0.00000167   -0.00002546    0.00001285
     atom    2 type  2   force =     0.00000167    0.00002546   -0.00001285

     Total force =     0.000040     Total SCF correction =     0.000005
     SCF correction compared to forces is large: reduce conv_thr to get better values

     entering subroutine stress ...

          total   stress  (Ry/bohr**3)                   (kbar)     P=    4.60
   0.00001568  -0.00000794   0.00000564          2.31     -1.17      0.83
  -0.00000794   0.00003456   0.00000757         -1.17      5.08      1.11
   0.00000564   0.00000757   0.00004352          0.83      1.11      6.40

     BFGS Geometry Optimization

     number of scf cycles    =   1
     number of bfgs steps    =   0

     enthalpy new            =    -188.8512291057 Ry

     new trust radius        =       0.0038944499 bohr
     new conv_thr            =       0.0000000100 Ry

     new unit-cell volume =    306.60599 a.u.^3 (    45.43432 Ang^3 )

CELL_PARAMETERS (alat=  7.63572815)
   1.000392018  -0.000198460   0.000140985
   0.507796903   0.856575769   0.000233468
[...]

     CASE: enthalpy_new < enthalpy_old

     new trust radius        =       0.0059229162 bohr
     new conv_thr            =            1.0E-10 Ry

     new unit-cell volume =    311.71706 a.u.^3 (    46.19170 Ang^3 )

[...]

ATOMIC_POSITIONS (crystal)
Na       0.751497843   0.147244590   0.897567775
Cl       0.751469555   0.647314290   0.397612913

     Writing output data file NaCl_pegs+pwscf.save
     NEW-OLD atomic charge density approx. for the potential
     NEW k-points:
        k(    1) = (   0.0000000   0.0000000   0.0000000), wk =   0.0166667
        k(    2) = (  -0.0006696  -0.0008826   0.2048271), wk =   0.0333333
        k(    3) = (  -0.0013392  -0.0017652   0.4096542), wk =   0.0333333
        k(    4) = (   0.0020089   0.0026478  -0.6144813), wk =   0.0166667
        k(    5) = (   0.0007976   0.2313668   0.0829177), wk =   0.0333333
        k(    6) = (   0.0001280   0.2304842   0.2877448), wk =   0.0333333
        k(    7) = (  -0.0005416   0.2296016   0.4925719), wk =   0.0333333
        k(    8) = (   0.0028065   0.2340146  -0.5315636), wk =   0.0333333
        k(    9) = (   0.0021369   0.2331320  -0.3267365), wk =   0.0333333
        k(   10) = (   0.0014673   0.2322494  -0.1219094), wk =   0.0333333
        k(   11) = (   0.0015953   0.4627336   0.1658354), wk =   0.0333333
        k(   12) = (   0.0009256   0.4618510   0.3706625), wk =   0.0333333
        k(   13) = (   0.0002560   0.4609684   0.5754896), wk =   0.0333333
        k(   14) = (   0.0036041   0.4653814  -0.4486459), wk =   0.0333333
        k(   15) = (   0.0029345   0.4644988  -0.2438188), wk =   0.0333333
        k(   16) = (   0.0022649   0.4636162  -0.0389917), wk =   0.0333333
        k(   17) = (   0.2507519  -0.1450519  -0.2046664), wk =   0.0333333
        k(   18) = (   0.2500822  -0.1459345   0.0001606), wk =   0.0333333
        k(   19) = (   0.2494126  -0.1468171   0.2049877), wk =   0.0333333
        k(   20) = (   0.2527607  -0.1424041  -0.8191477), wk =   0.0333333
        k(   21) = (   0.2520911  -0.1432867  -0.6143206), wk =   0.0333333
        k(   22) = (   0.2514215  -0.1441693  -0.4094935), wk =   0.0333333
        k(   23) = (   0.2515495   0.0863149  -0.1217487), wk =   0.0333333
        k(   24) = (   0.2508799   0.0854323   0.0830784), wk =   0.0333333
        k(   25) = (   0.2502102   0.0845497   0.2879055), wk =   0.0333333
        k(   26) = (   0.2535584   0.0889627  -0.7362300), wk =   0.0333333
        k(   27) = (   0.2528887   0.0880801  -0.5314029), wk =   0.0333333
        k(   28) = (   0.2522191   0.0871975  -0.3265758), wk =   0.0333333
        k(   29) = (   0.2523471   0.3176817  -0.0388310), wk =   0.0333333
        k(   30) = (   0.2516775   0.3167991   0.1659961), wk =   0.0333333
        k(   31) = (   0.2510079   0.3159165   0.3708232), wk =   0.0333333
        k(   32) = (   0.2543560   0.3203294  -0.6533123), wk =   0.0333333
        k(   33) = (   0.2536864   0.3194469  -0.4484852), wk =   0.0333333
        k(   34) = (   0.2530167   0.3185643  -0.2436581), wk =   0.0333333
        k(   35) = (   0.2491566  -0.6077855  -0.3705019), wk =   0.0333333
        k(   36) = (   0.2484870  -0.6086681  -0.1656748), wk =   0.0333333
        k(   37) = (   0.2478173  -0.6095507   0.0391523), wk =   0.0333333
        k(   38) = (   0.2511655  -0.6051377  -0.9849831), wk =   0.0333333
        k(   39) = (   0.2504958  -0.6060203  -0.7801561), wk =   0.0333333
        k(   40) = (   0.2498262  -0.6069029  -0.5753290), wk =   0.0333333
        k(   41) = (   0.2499542  -0.3764187  -0.2875842), wk =   0.0333333
        k(   42) = (   0.2492846  -0.3773013  -0.0827571), wk =   0.0333333
        k(   43) = (   0.2486150  -0.3781839   0.1220700), wk =   0.0333333
        k(   44) = (   0.2519631  -0.3737709  -0.9020654), wk =   0.0333333
        k(   45) = (   0.2512935  -0.3746535  -0.6972383), wk =   0.0333333
        k(   46) = (   0.2506238  -0.3755361  -0.4924112), wk =   0.0333333
        k(   47) = (  -0.5015037   0.2901038   0.4093329), wk =   0.0166667
        k(   48) = (  -0.5021733   0.2892212   0.6141600), wk =   0.0333333
        k(   49) = (  -0.5028430   0.2883386   0.8189871), wk =   0.0333333
        k(   50) = (  -0.4994948   0.2927516  -0.2051484), wk =   0.0166667
        k(   51) = (  -0.5007061   0.5214706   0.4922506), wk =   0.0333333
        k(   52) = (  -0.5013757   0.5205880   0.6970777), wk =   0.0333333
        k(   53) = (  -0.5020453   0.5197054   0.9019048), wk =   0.0333333
        k(   54) = (  -0.4986972   0.5241184  -0.1222307), wk =   0.0333333
        k(   55) = (  -0.4993668   0.5232358   0.0825964), wk =   0.0333333
        k(   56) = (  -0.5000365   0.5223532   0.2874235), wk =   0.0333333
        k(   57) = (  -0.4999084   0.7528374   0.5751683), wk =   0.0333333
        k(   58) = (  -0.5005781   0.7519548   0.7799954), wk =   0.0333333
        k(   59) = (  -0.5012477   0.7510722   0.9848225), wk =   0.0333333
        k(   60) = (  -0.4978996   0.7554852  -0.0393130), wk =   0.0333333
        k(   61) = (  -0.4985692   0.7546026   0.1655141), wk =   0.0333333
        k(   62) = (  -0.4992388   0.7537200   0.3703412), wk =   0.0333333

     Check: negative/imaginary core charge=   -0.000005    0.000000
     extrapolated charge   15.97336, renormalised to   16.00000

[...]

     bfgs converged in  11 scf cycles and  10 bfgs steps
     (criteria: energy < 0.10E-03, force < 0.10E-02, cell < 0.50E+00)

     End of BFGS Geometry Optimization

     Final enthalpy =    -188.8513760156 Ry
Begin final coordinates
     new unit-cell volume =    311.71706 a.u.^3 (    46.19170 Ang^3 )

CELL_PARAMETERS (alat=  7.63572815)
   0.996985900  -0.004598086   0.003239535
   0.502300687   0.860778859   0.005351194
   0.494685640  -0.293445343   0.814047209

ATOMIC_POSITIONS (crystal)
Na       0.751497843   0.147244590   0.897567775
Cl       0.751469555   0.647314290   0.397612913
End final coordinates

     A final scf calculation at the relaxed structure.
     The G-vectors are recalculated for the final unit cell
     Results may differ from those at the preceding step.

     bravais-lattice index     =            0
     lattice parameter (alat)  =       7.6357  a.u.
     unit-cell volume          =     311.7171 (a.u.)^3
     number of atoms/cell      =            2
     number of atomic types    =            2
     number of electrons       =        16.00
     number of Kohn-Sham states=            8
     kinetic-energy cutoff     =      60.0000  Ry
     charge density cutoff     =     240.0000  Ry
     convergence threshold     =      1.0E-10
     mixing beta               =       0.7000
     number of iterations used =            8  plain     mixing
     Exchange-correlation      =  SLA  PW   PBX  PBC ( 1 4 3 4 0)
     EXX-fraction              =        0.00

     celldm(1)=   7.635728  celldm(2)=   0.000000  celldm(3)=   0.000000
     celldm(4)=   0.000000  celldm(5)=   0.000000  celldm(6)=   0.000000

     crystal axes: (cart. coord. in units of alat)
               a(1) = (   0.996986  -0.004598   0.003240 )
               a(2) = (   0.502301   0.860779   0.005351 )
               a(3) = (   0.494686  -0.293445   0.814047 )

     reciprocal axes: (cart. coord. in units 2 pi/alat)
               b(1) = (  1.003007 -0.580208 -0.818666 )
               b(2) = (  0.003988  1.156834  0.414589 )
               b(3) = ( -0.004018 -0.005296  1.228963 )

     PseudoPot. # 1 for Na read from file:
     /projects/e20438/bin/espresso/pseudo/Na.pbe-spn-kjpaw_psl.0.2.UPF
     MD5 check sum: af6cebf537ceac8ff9d4cdfd6fc7ff14
     Pseudo is Projector augmented-wave, Zval =  9.0
     Generated using "atomic" code by A. Dal Corso  v.5.0.2 svn rev. 9415
     Shape of augmentation charge: PSQ
     Using radial grid of 1121 points,  4 beta functions with:
                l(1) =   0
                l(2) =   0
                l(3) =   1
                l(4) =   1
     Q(r) pseudized with 0 coefficients

     PseudoPot. # 2 for Cl read from file:
     /projects/e20438/bin/espresso/pseudo/Cl.pbe-n-kjpaw_psl.0.1.UPF
     MD5 check sum: 39501d8aaca1fada178cfed307344fc1
     Pseudo is Projector augmented-wave + core cor, Zval =  7.0
     Generated using "atomic" code by A. Dal Corso  v.5.0.2 svn rev. 9415
     Shape of augmentation charge: PSQ
     Using radial grid of 1157 points,  4 beta functions with:
                l(1) =   0
                l(2) =   0
                l(3) =   1
                l(4) =   1
     Q(r) pseudized with 0 coefficients

     atomic species   valence    mass     pseudopotential
        Na             9.00    22.98977     Na( 1.00)
        Cl             7.00    35.45270     Cl( 1.00)

     No symmetry found

   Cartesian axes

     site n.     atom                  positions (alat units)
         1           Na  tau(   1) = (   1.2672077  -0.1400975   0.7338850  )
         2           Cl  tau(   2) = (   1.2710444   0.4370615   0.3295740  )

     number of k points=    62
                       cart. coord. in units 2pi/alat
        k(    1) = (   0.0000000   0.0000000   0.0000000), wk =   0.0166667
        k(    2) = (  -0.0006696  -0.0008826   0.2048271), wk =   0.0333333
        k(    3) = (  -0.0013392  -0.0017652   0.4096542), wk =   0.0333333
        k(    4) = (   0.0020089   0.0026478  -0.6144813), wk =   0.0166667
        k(    5) = (   0.0007976   0.2313668   0.0829177), wk =   0.0333333
        k(    6) = (   0.0001280   0.2304842   0.2877448), wk =   0.0333333
        k(    7) = (  -0.0005416   0.2296016   0.4925719), wk =   0.0333333
        k(    8) = (   0.0028065   0.2340146  -0.5315636), wk =   0.0333333
        k(    9) = (   0.0021369   0.2331320  -0.3267365), wk =   0.0333333
        k(   10) = (   0.0014673   0.2322494  -0.1219094), wk =   0.0333333
        k(   11) = (   0.0015953   0.4627336   0.1658354), wk =   0.0333333
        k(   12) = (   0.0009256   0.4618510   0.3706625), wk =   0.0333333
        k(   13) = (   0.0002560   0.4609684   0.5754896), wk =   0.0333333
        k(   14) = (   0.0036041   0.4653814  -0.4486459), wk =   0.0333333
        k(   15) = (   0.0029345   0.4644988  -0.2438188), wk =   0.0333333
        k(   16) = (   0.0022649   0.4636162  -0.0389917), wk =   0.0333333
        k(   17) = (   0.2507519  -0.1450519  -0.2046664), wk =   0.0333333
        k(   18) = (   0.2500822  -0.1459345   0.0001606), wk =   0.0333333
        k(   19) = (   0.2494126  -0.1468171   0.2049877), wk =   0.0333333
        k(   20) = (   0.2527607  -0.1424041  -0.8191477), wk =   0.0333333
        k(   21) = (   0.2520911  -0.1432867  -0.6143206), wk =   0.0333333
        k(   22) = (   0.2514215  -0.1441693  -0.4094935), wk =   0.0333333
        k(   23) = (   0.2515495   0.0863149  -0.1217487), wk =   0.0333333
        k(   24) = (   0.2508799   0.0854323   0.0830784), wk =   0.0333333
        k(   25) = (   0.2502102   0.0845497   0.2879055), wk =   0.0333333
        k(   26) = (   0.2535584   0.0889627  -0.7362300), wk =   0.0333333
        k(   27) = (   0.2528887   0.0880801  -0.5314029), wk =   0.0333333
        k(   28) = (   0.2522191   0.0871975  -0.3265758), wk =   0.0333333
        k(   29) = (   0.2523471   0.3176817  -0.0388310), wk =   0.0333333
        k(   30) = (   0.2516775   0.3167991   0.1659961), wk =   0.0333333
        k(   31) = (   0.2510079   0.3159165   0.3708232), wk =   0.0333333
        k(   32) = (   0.2543560   0.3203294  -0.6533123), wk =   0.0333333
        k(   33) = (   0.2536864   0.3194469  -0.4484852), wk =   0.0333333
        k(   34) = (   0.2530167   0.3185643  -0.2436581), wk =   0.0333333
        k(   35) = (   0.2491566  -0.6077855  -0.3705019), wk =   0.0333333
        k(   36) = (   0.2484870  -0.6086681  -0.1656748), wk =   0.0333333
        k(   37) = (   0.2478173  -0.6095507   0.0391523), wk =   0.0333333
        k(   38) = (   0.2511655  -0.6051377  -0.9849831), wk =   0.0333333
        k(   39) = (   0.2504958  -0.6060203  -0.7801561), wk =   0.0333333
        k(   40) = (   0.2498262  -0.6069029  -0.5753290), wk =   0.0333333
        k(   41) = (   0.2499542  -0.3764187  -0.2875842), wk =   0.0333333
        k(   42) = (   0.2492846  -0.3773013  -0.0827571), wk =   0.0333333
        k(   43) = (   0.2486150  -0.3781839   0.1220700), wk =   0.0333333
        k(   44) = (   0.2519631  -0.3737709  -0.9020654), wk =   0.0333333
        k(   45) = (   0.2512935  -0.3746535  -0.6972383), wk =   0.0333333
        k(   46) = (   0.2506238  -0.3755361  -0.4924112), wk =   0.0333333
        k(   47) = (  -0.5015037   0.2901038   0.4093329), wk =   0.0166667
        k(   48) = (  -0.5021733   0.2892212   0.6141600), wk =   0.0333333
        k(   49) = (  -0.5028430   0.2883386   0.8189871), wk =   0.0333333
        k(   50) = (  -0.4994948   0.2927516  -0.2051484), wk =   0.0166667
        k(   51) = (  -0.5007061   0.5214706   0.4922506), wk =   0.0333333
        k(   52) = (  -0.5013757   0.5205880   0.6970777), wk =   0.0333333
        k(   53) = (  -0.5020453   0.5197054   0.9019048), wk =   0.0333333
        k(   54) = (  -0.4986972   0.5241184  -0.1222307), wk =   0.0333333
        k(   55) = (  -0.4993668   0.5232358   0.0825964), wk =   0.0333333
        k(   56) = (  -0.5000365   0.5223532   0.2874235), wk =   0.0333333
        k(   57) = (  -0.4999084   0.7528374   0.5751683), wk =   0.0333333
        k(   58) = (  -0.5005781   0.7519548   0.7799954), wk =   0.0333333
        k(   59) = (  -0.5012477   0.7510722   0.9848225), wk =   0.0333333
        k(   60) = (  -0.4978996   0.7554852  -0.0393130), wk =   0.0333333
        k(   61) = (  -0.4985692   0.7546026   0.1655141), wk =   0.0333333
        k(   62) = (  -0.4992388   0.7537200   0.3703412), wk =   0.0333333

     Largest allocated arrays     est. size (Mb)     dimensions
     Largest temporary arrays     est. size (Mb)     dimensions

     Check: negative/imaginary core charge=   -0.000006    0.000000

     Initial potential from superposition of free atoms

     starting charge   15.49915, renormalised to   16.00000
     Starting wfc are   12 randomized atomic wfcs
     Checking if some PAW data can be deallocated...

     Writing output data file NaCl_pegs+pwscf.save

     Self-consistent Calculation

[...]

     iteration # 21     ecut=    60.00 Ry     beta=0.70
     CG style diagonalization
     c_bands:  1 eigenvalues not converged
     c_bands:  1 eigenvalues not converged
     c_bands:  1 eigenvalues not converged
     c_bands:  1 eigenvalues not converged
     c_bands:  1 eigenvalues not converged
     c_bands:  1 eigenvalues not converged
     c_bands:  1 eigenvalues not converged
     c_bands:  1 eigenvalues not converged
     ethr =  1.34E-12,  avg # of iterations =  9.0

[...]

     total energy              =    -188.85138335 Ry
     Harris-Foulkes estimate   =    -188.85138338 Ry
     estimated scf accuracy    <          3.5E-10 Ry

     iteration # 24     ecut=    60.00 Ry     beta=0.70
     CG style diagonalization
     ethr =  1.34E-12,  avg # of iterations =  4.9

     End of self-consistent calculation

[...]

          k = 0.2506-0.3755-0.4924 (  2443 PWs)   bands (ev):

[...]

          k =-0.4992 0.7537 0.3703 (  2437 PWs)   bands (ev):

   -48.1444 -20.0754 -20.0636 -20.0599 -11.4333  -0.7109   0.0549   0.4138

!    total energy              =    -188.85138336 Ry
     Harris-Foulkes estimate   =    -188.85138335 Ry
     estimated scf accuracy    <          7.5E-12 Ry

     total all-electron energy =     -1248.138376 Ry

     The total energy is the sum of the following terms:

     one-electron contribution =     -82.08808177 Ry
     hartree contribution      =      42.65966471 Ry
     xc contribution           =     -24.66974153 Ry
     ewald contribution        =     -68.13405610 Ry
     one-center paw contrib.   =     -56.61916866 Ry

     convergence has been achieved in  24 iterations

     Forces acting on atoms (Ry/au):

     atom    1 type  1   force =     0.00000071    0.00000225   -0.00000125
     atom    2 type  2   force =    -0.00000071   -0.00000225    0.00000125

     Total force =     0.000004     Total SCF correction =     0.000001
     SCF correction compared to forces is large: reduce conv_thr to get better values

     entering subroutine stress ...

          total   stress  (Ry/bohr**3)                   (kbar)     P=   -0.11
  -0.00000064   0.00000018  -0.00000012         -0.09      0.03     -0.02
   0.00000018  -0.00000081  -0.00000013          0.03     -0.12     -0.02
  -0.00000012  -0.00000013  -0.00000086         -0.02     -0.02     -0.13

     Writing output data file NaCl_pegs+pwscf.save

     General routines

     Parallel routines

     PAW routines

   This run was terminated on:   0: 8:58  23Mar2018

   JOB DONE.