     Program PWSCF v.5.0.2 starts on 23Mar2018 at  0: 8:42

     Current dimensions of program PWSCF are:
     Max number of different atomic species (ntypx) = 10
     Max number of k-points (npk) =  40000
     Max angular momentum in pseudopotentials (lmaxx) =  3
     Waiting for input...
     Reading input from standard input
               file Na.pbe-spn-kjpaw_psl.0.2.UPF: wavefunction(s)  2P 3P renormalized
               file Cl.pbe-n-kjpaw_psl.0.1.UPF: wavefunction(s)  3S 3P renormalized

     bravais-lattice index     =            0
     lattice parameter (alat)  =       6.6440  a.u.
     unit-cell volume          =     279.8595 (a.u.)^3
     number of atoms/cell      =            2
     number of atomic types    =            2
     number of electrons       =        16.00
     number of Kohn-Sham states=            8
     kinetic-energy cutoff     =      60.0000  Ry
     charge density cutoff     =     240.0000  Ry
     convergence threshold     =      1.0E-08
     mixing beta               =       0.7000
     number of iterations used =            8  plain     mixing
     Exchange-correlation      =  SLA  PW   PBX  PBC ( 1 4 3 4 0)
     EXX-fraction              =        0.00
     nstep                     =           50

     celldm(1)=   6.644019  celldm(2)=   0.000000  celldm(3)=   0.000000
     celldm(4)=   0.000000  celldm(5)=   0.000000  celldm(6)=   0.000000

     crystal axes: (cart. coord. in units of alat)
               a(1) = (   1.000000   0.000000   0.000000 )
               a(2) = (   0.774489   0.970445   0.000000 )
               a(3) = (  -0.000002  -0.000045   0.983279 )

     reciprocal axes: (cart. coord. in units 2 pi/alat)
               b(1) = (  1.000000 -0.798077 -0.000035 )
               b(2) = (  0.000000  1.030455  0.000048 )
               b(3) = (  0.000000  0.000000  1.017005 )

     PseudoPot. # 1 for Na read from file:
     /projects/e20438/bin/espresso/pseudo/Na.pbe-spn-kjpaw_psl.0.2.UPF
     MD5 check sum: af6cebf537ceac8ff9d4cdfd6fc7ff14
     Pseudo is Projector augmented-wave, Zval =  9.0
     Generated using "atomic" code by A. Dal Corso  v.5.0.2 svn rev. 9415
     Shape of augmentation charge: PSQ
     Using radial grid of 1121 points,  4 beta functions with:
                l(1) =   0
                l(2) =   0
                l(3) =   1
                l(4) =   1
     Q(r) pseudized with 0 coefficients

     PseudoPot. # 2 for Cl read from file:
     /projects/e20438/bin/espresso/pseudo/Cl.pbe-n-kjpaw_psl.0.1.UPF
     MD5 check sum: 39501d8aaca1fada178cfed307344fc1
     Pseudo is Projector augmented-wave + core cor, Zval =  7.0
     Generated using "atomic" code by A. Dal Corso  v.5.0.2 svn rev. 9415
     Shape of augmentation charge: PSQ
     Using radial grid of 1157 points,  4 beta functions with:
                l(1) =   0
                l(2) =   0
                l(3) =   1
                l(4) =   1
     Q(r) pseudized with 0 coefficients

     atomic species   valence    mass     pseudopotential
        Na             9.00    22.98977     Na( 1.00)
        Cl             7.00    35.45270     Cl( 1.00)

     No symmetry found

   Cartesian axes

     site n.     atom                  positions (alat units)
         1           Na  tau(   1) = (   1.2058136   0.4584297   0.2839037  )
         2           Cl  tau(   2) = (   0.7058134   0.8536196   0.7755607  )

     number of k points=    62
                       cart. coord. in units 2pi/alat
        k(    1) = (   0.0000000   0.0000000   0.0000000), wk =   0.0166667
        k(    2) = (   0.0000000   0.0000000   0.1695009), wk =   0.0333333
        k(    3) = (   0.0000000   0.0000000   0.3390018), wk =   0.0333333
        k(    4) = (   0.0000000   0.0000000  -0.5085027), wk =   0.0166667
        k(    5) = (   0.0000000   0.2060911   0.0000095), wk =   0.0333333
        k(    6) = (   0.0000000   0.2060911   0.1695105), wk =   0.0333333
        k(    7) = (   0.0000000   0.2060911   0.3390114), wk =   0.0333333
        k(    8) = (   0.0000000   0.2060911  -0.5084932), wk =   0.0333333
        k(    9) = (   0.0000000   0.2060911  -0.3389923), wk =   0.0333333
        k(   10) = (   0.0000000   0.2060911  -0.1694914), wk =   0.0333333
        k(   11) = (   0.0000000   0.4121822   0.0000191), wk =   0.0333333
        k(   12) = (   0.0000000   0.4121822   0.1695200), wk =   0.0333333
        k(   13) = (   0.0000000   0.4121822   0.3390209), wk =   0.0333333
        k(   14) = (   0.0000000   0.4121822  -0.5084837), wk =   0.0333333
        k(   15) = (   0.0000000   0.4121822  -0.3389828), wk =   0.0333333
        k(   16) = (   0.0000000   0.4121822  -0.1694818), wk =   0.0333333
        k(   17) = (   0.2500000  -0.1995192  -0.0000088), wk =   0.0333333
        k(   18) = (   0.2500000  -0.1995192   0.1694922), wk =   0.0333333
        k(   19) = (   0.2500000  -0.1995192   0.3389931), wk =   0.0333333
        k(   20) = (   0.2500000  -0.1995192  -0.5085115), wk =   0.0333333
        k(   21) = (   0.2500000  -0.1995192  -0.3390106), wk =   0.0333333
        k(   22) = (   0.2500000  -0.1995192  -0.1695097), wk =   0.0333333
        k(   23) = (   0.2500000   0.0065719   0.0000008), wk =   0.0333333
        k(   24) = (   0.2500000   0.0065719   0.1695017), wk =   0.0333333
        k(   25) = (   0.2500000   0.0065719   0.3390026), wk =   0.0333333
        k(   26) = (   0.2500000   0.0065719  -0.5085020), wk =   0.0333333
        k(   27) = (   0.2500000   0.0065719  -0.3390011), wk =   0.0333333
        k(   28) = (   0.2500000   0.0065719  -0.1695001), wk =   0.0333333
        k(   29) = (   0.2500000   0.2126630   0.0000103), wk =   0.0333333
        k(   30) = (   0.2500000   0.2126630   0.1695112), wk =   0.0333333
        k(   31) = (   0.2500000   0.2126630   0.3390122), wk =   0.0333333
        k(   32) = (   0.2500000   0.2126630  -0.5084924), wk =   0.0333333
        k(   33) = (   0.2500000   0.2126630  -0.3389915), wk =   0.0333333
        k(   34) = (   0.2500000   0.2126630  -0.1694906), wk =   0.0333333
        k(   35) = (   0.2500000  -0.6117014  -0.0000278), wk =   0.0333333
        k(   36) = (   0.2500000  -0.6117014   0.1694731), wk =   0.0333333
        k(   37) = (   0.2500000  -0.6117014   0.3389740), wk =   0.0333333
        k(   38) = (   0.2500000  -0.6117014  -0.5085306), wk =   0.0333333
        k(   39) = (   0.2500000  -0.6117014  -0.3390297), wk =   0.0333333
        k(   40) = (   0.2500000  -0.6117014  -0.1695287), wk =   0.0333333
        k(   41) = (   0.2500000  -0.4056103  -0.0000183), wk =   0.0333333
        k(   42) = (   0.2500000  -0.4056103   0.1694826), wk =   0.0333333
        k(   43) = (   0.2500000  -0.4056103   0.3389835), wk =   0.0333333
        k(   44) = (   0.2500000  -0.4056103  -0.5085210), wk =   0.0333333
        k(   45) = (   0.2500000  -0.4056103  -0.3390201), wk =   0.0333333
        k(   46) = (   0.2500000  -0.4056103  -0.1695192), wk =   0.0333333
        k(   47) = (  -0.5000000   0.3990384   0.0000175), wk =   0.0166667
        k(   48) = (  -0.5000000   0.3990384   0.1695184), wk =   0.0333333
        k(   49) = (  -0.5000000   0.3990384   0.3390193), wk =   0.0333333
        k(   50) = (  -0.5000000   0.3990384  -0.5084852), wk =   0.0166667
        k(   51) = (  -0.5000000   0.6051295   0.0000270), wk =   0.0333333
        k(   52) = (  -0.5000000   0.6051295   0.1695280), wk =   0.0333333
        k(   53) = (  -0.5000000   0.6051295   0.3390289), wk =   0.0333333
        k(   54) = (  -0.5000000   0.6051295  -0.5084757), wk =   0.0333333
        k(   55) = (  -0.5000000   0.6051295  -0.3389748), wk =   0.0333333
        k(   56) = (  -0.5000000   0.6051295  -0.1694739), wk =   0.0333333
        k(   57) = (  -0.5000000   0.8112206   0.0000366), wk =   0.0333333
        k(   58) = (  -0.5000000   0.8112206   0.1695375), wk =   0.0333333
        k(   59) = (  -0.5000000   0.8112206   0.3390384), wk =   0.0333333
        k(   60) = (  -0.5000000   0.8112206  -0.5084662), wk =   0.0333333
        k(   61) = (  -0.5000000   0.8112206  -0.3389652), wk =   0.0333333
        k(   62) = (  -0.5000000   0.8112206  -0.1694643), wk =   0.0333333

     Largest allocated arrays     est. size (Mb)     dimensions
     Largest temporary arrays     est. size (Mb)     dimensions

     Check: negative/imaginary core charge=   -0.000006    0.000000

     Initial potential from superposition of free atoms

     starting charge   15.49915, renormalised to   16.00000
     Starting wfc are   12 randomized atomic wfcs
     Checking if some PAW data can be deallocated...

     Self-consistent Calculation

     iteration #  1     ecut=    60.00 Ry     beta=0.70
     CG style diagonalization
     ethr =  1.00E-02,  avg # of iterations =  2.0

     total energy              =    -188.74411119 Ry
     Harris-Foulkes estimate   =    -188.90527695 Ry
     estimated scf accuracy    <       0.19336438 Ry

[...]

     iteration #  7     ecut=    60.00 Ry     beta=0.70
     CG style diagonalization
     c_bands:  1 eigenvalues not converged
     ethr =  1.05E-07,  avg # of iterations =  7.8

[...]

     End of self-consistent calculation

          k = 0.0000 0.0000 0.0000 (  2189 PWs)   bands (ev):

   -47.3933 -19.3109 -19.2907 -19.2864 -10.9976   1.7110   1.9611   2.1961

[...]

          k =-0.5000 0.3990 0.0000 (  2172 PWs)   bands (ev):

[...]

!    total energy              =    -188.82966587 Ry
     Harris-Foulkes estimate   =    -188.82966587 Ry
     estimated scf accuracy    <          8.2E-09 Ry

     total all-electron energy =     -1248.116658 Ry

     The total energy is the sum of the following terms:

     one-electron contribution =     -77.17236546 Ry
     hartree contribution      =      40.73722343 Ry
     xc contribution           =     -24.70082007 Ry
     ewald contribution        =     -71.07132516 Ry
     one-center paw contrib.   =     -56.62237860 Ry

     convergence has been achieved in  16 iterations

     Forces acting on atoms (Ry/au):

     atom    1 type  1   force =     0.00022450   -0.00024881    0.00000125
     atom    2 type  2   force =    -0.00022450    0.00024881   -0.00000125

     Total force =     0.000474     Total SCF correction =     0.000037

     entering subroutine stress ...

          total   stress  (Ry/bohr**3)                   (kbar)     P=   28.22
   0.00020216  -0.00008163   0.00000003         29.74    -12.01      0.00
  -0.00008163   0.00017524   0.00000000        -12.01     25.78      0.00
   0.00000003   0.00000000   0.00019808          0.00      0.00     29.14

     BFGS Geometry Optimization

     number of scf cycles    =   1
     number of bfgs steps    =   0

     enthalpy new            =    -188.8296658672 Ry

     new trust radius        =       0.0182357569 bohr
     new conv_thr            =       0.0000000100 Ry

     new unit-cell volume =    283.90397 a.u.^3 (    42.07023 Ang^3 )

CELL_PARAMETERS (alat=  6.64401868)
   1.005053890  -0.002040693   0.000000672
   0.776423251   0.973115820   0.000000401
  -0.000001130  -0.000045816   0.988148133

ATOMIC_POSITIONS (crystal)
Na       0.840005213   0.472366308   0.288731781
[...]

[...]

     number of scf cycles    =  22
     number of bfgs steps    =  21

     enthalpy old            =    -188.8407215561 Ry
     enthalpy new            =    -188.8407221506 Ry

     CASE: enthalpy_new < enthalpy_old

     new trust radius        =       0.0017713006 bohr
     new conv_thr            =            1.0E-10 Ry

     new unit-cell volume =    318.91096 a.u.^3 (    47.25773 Ang^3 )

[...]

ATOMIC_POSITIONS (crystal)
Na       0.765651230   0.509262248   0.288897929
Cl       0.098822501   0.842796527   0.788583129

     Writing output data file NaCl_pegs+pwscf.save
     NEW-OLD atomic charge density approx. for the potential
     NEW k-points:
        k(    1) = (   0.0000000   0.0000000   0.0000000), wk =   0.0166667
        k(    2) = (  -0.0000240   0.0000146   0.1634935), wk =   0.0333333
        k(    3) = (  -0.0000481   0.0000293   0.3269871), wk =   0.0333333
        k(    4) = (   0.0000721  -0.0000439  -0.4904806), wk =   0.0166667
        k(    5) = (   0.0308396   0.2058459   0.0000308), wk =   0.0333333
        k(    6) = (   0.0308155   0.2058605   0.1635243), wk =   0.0333333
        k(    7) = (   0.0307915   0.2058752   0.3270178), wk =   0.0333333
        k(    8) = (   0.0309117   0.2058020  -0.4904498), wk =   0.0333333
        k(    9) = (   0.0308877   0.2058166  -0.3269563), wk =   0.0333333
        k(   10) = (   0.0308636   0.2058313  -0.1634628), wk =   0.0333333
        k(   11) = (   0.0616791   0.4116918   0.0000616), wk =   0.0333333
        k(   12) = (   0.0616551   0.4117064   0.1635551), wk =   0.0333333
        k(   13) = (   0.0616310   0.4117211   0.3270486), wk =   0.0333333
        k(   14) = (   0.0617513   0.4116479  -0.4904190), wk =   0.0333333
        k(   15) = (   0.0617272   0.4116625  -0.3269255), wk =   0.0333333
        k(   16) = (   0.0617032   0.4116771  -0.1634320), wk =   0.0333333
        k(   17) = (   0.2034363  -0.1620797  -0.0000708), wk =   0.0333333
        k(   18) = (   0.2034123  -0.1620651   0.1634227), wk =   0.0333333
        k(   19) = (   0.2033882  -0.1620505   0.3269163), wk =   0.0333333
        k(   20) = (   0.2035085  -0.1621237  -0.4905514), wk =   0.0333333
        k(   21) = (   0.2034844  -0.1621090  -0.3270579), wk =   0.0333333
        k(   22) = (   0.2034604  -0.1620944  -0.1635643), wk =   0.0333333
        k(   23) = (   0.2342759   0.0437662  -0.0000400), wk =   0.0333333
        k(   24) = (   0.2342518   0.0437808   0.1634535), wk =   0.0333333
        k(   25) = (   0.2342278   0.0437954   0.3269470), wk =   0.0333333
        k(   26) = (   0.2343480   0.0437222  -0.4905206), wk =   0.0333333
        k(   27) = (   0.2343240   0.0437369  -0.3270271), wk =   0.0333333
        k(   28) = (   0.2342999   0.0437515  -0.1635335), wk =   0.0333333
        k(   29) = (   0.2651154   0.2496121  -0.0000092), wk =   0.0333333
        k(   30) = (   0.2650914   0.2496267   0.1634843), wk =   0.0333333
        k(   31) = (   0.2650673   0.2496413   0.3269778), wk =   0.0333333
        k(   32) = (   0.2651876   0.2495681  -0.4904898), wk =   0.0333333
        k(   33) = (   0.2651635   0.2495828  -0.3269963), wk =   0.0333333
        k(   34) = (   0.2651395   0.2495974  -0.1635028), wk =   0.0333333
        k(   35) = (   0.1417572  -0.5737715  -0.0001323), wk =   0.0333333
        k(   36) = (   0.1417332  -0.5737569   0.1633612), wk =   0.0333333
        k(   37) = (   0.1417091  -0.5737422   0.3268547), wk =   0.0333333
        k(   38) = (   0.1418294  -0.5738154  -0.4906129), wk =   0.0333333
        k(   39) = (   0.1418053  -0.5738008  -0.3271194), wk =   0.0333333
        k(   40) = (   0.1417813  -0.5737862  -0.1636259), wk =   0.0333333
        k(   41) = (   0.1725968  -0.3679256  -0.0001016), wk =   0.0333333
        k(   42) = (   0.1725727  -0.3679110   0.1633920), wk =   0.0333333
        k(   43) = (   0.1725487  -0.3678964   0.3268855), wk =   0.0333333
        k(   44) = (   0.1726689  -0.3679695  -0.4905822), wk =   0.0333333
        k(   45) = (   0.1726449  -0.3679549  -0.3270886), wk =   0.0333333
        k(   46) = (   0.1726208  -0.3679403  -0.1635951), wk =   0.0333333
        k(   47) = (  -0.4068727   0.3241595   0.0001416), wk =   0.0166667
        k(   48) = (  -0.4068967   0.3241741   0.1636351), wk =   0.0333333
        k(   49) = (  -0.4069208   0.3241887   0.3271287), wk =   0.0333333
        k(   50) = (  -0.4068005   0.3241156  -0.4903390), wk =   0.0166667
        k(   51) = (  -0.3760331   0.5300054   0.0001724), wk =   0.0333333
        k(   52) = (  -0.3760572   0.5300200   0.1636659), wk =   0.0333333
        k(   53) = (  -0.3760812   0.5300346   0.3271594), wk =   0.0333333
        k(   54) = (  -0.3759610   0.5299614  -0.4903082), wk =   0.0333333
        k(   55) = (  -0.3759850   0.5299761  -0.3268147), wk =   0.0333333
        k(   56) = (  -0.3760091   0.5299907  -0.1633212), wk =   0.0333333
        k(   57) = (  -0.3451936   0.7358513   0.0002031), wk =   0.0333333
        k(   58) = (  -0.3452176   0.7358659   0.1636967), wk =   0.0333333
        k(   59) = (  -0.3452417   0.7358805   0.3271902), wk =   0.0333333
        k(   60) = (  -0.3451214   0.7358073  -0.4902774), wk =   0.0333333
        k(   61) = (  -0.3451455   0.7358220  -0.3267839), wk =   0.0333333
        k(   62) = (  -0.3451695   0.7358366  -0.1632904), wk =   0.0333333

     Check: negative/imaginary core charge=   -0.000010    0.000000
     extrapolated charge   16.01200, renormalised to   16.00000

[...]

     Threshold (ethr) on eigenvalues was too large:
     Diagonalizing with lowered threshold

     CG style diagonalization
     ethr =  9.92E-08,  avg # of iterations =  3.4

[...]

     bfgs converged in  23 scf cycles and  22 bfgs steps
     (criteria: energy < 0.10E-03, force < 0.10E-02, cell < 0.50E+00)

     End of BFGS Geometry Optimization

     Final enthalpy =    -188.8407225960 Ry
Begin final coordinates
     new unit-cell volume =    318.91096 a.u.^3 (    47.25773 Ang^3 )

CELL_PARAMETERS (alat=  6.64401868)
   1.097844779  -0.164477658   0.000176219
   0.691540191   0.867995001   0.000024009
   0.000208443  -0.000183641   1.019408376

ATOMIC_POSITIONS (crystal)
Na       0.765651230   0.509262248   0.288897929
Cl       0.098822501   0.842796527   0.788583129
End final coordinates

     A final scf calculation at the relaxed structure.
     The G-vectors are recalculated for the final unit cell
     Results may differ from those at the preceding step.

     bravais-lattice index     =            0
     lattice parameter (alat)  =       6.6440  a.u.
     unit-cell volume          =     318.9110 (a.u.)^3
     number of atoms/cell      =            2
     number of atomic types    =            2
     number of electrons       =        16.00
     number of Kohn-Sham states=            8
     kinetic-energy cutoff     =      60.0000  Ry
     charge density cutoff     =     240.0000  Ry
     convergence threshold     =      1.0E-10
     mixing beta               =       0.7000
     number of iterations used =            8  plain     mixing
     Exchange-correlation      =  SLA  PW   PBX  PBC ( 1 4 3 4 0)
     EXX-fraction              =        0.00

     celldm(1)=   6.644019  celldm(2)=   0.000000  celldm(3)=   0.000000
     celldm(4)=   0.000000  celldm(5)=   0.000000  celldm(6)=   0.000000

     crystal axes: (cart. coord. in units of alat)
               a(1) = (   1.097845  -0.164478   0.000176 )
               a(2) = (   0.691540   0.867995   0.000024 )
               a(3) = (   0.000208  -0.000184   1.019408 )

     reciprocal axes: (cart. coord. in units 2 pi/alat)
               b(1) = (  0.813745 -0.648319 -0.000283 )
               b(2) = (  0.154198  1.029229  0.000154 )
               b(3) = ( -0.000144  0.000088  0.980961 )

     PseudoPot. # 1 for Na read from file:
     /projects/e20438/bin/espresso/pseudo/Na.pbe-spn-kjpaw_psl.0.2.UPF
     MD5 check sum: af6cebf537ceac8ff9d4cdfd6fc7ff14
     Pseudo is Projector augmented-wave, Zval =  9.0
     Generated using "atomic" code by A. Dal Corso  v.5.0.2 svn rev. 9415
     Shape of augmentation charge: PSQ
     Using radial grid of 1121 points,  4 beta functions with:
                l(1) =   0
                l(2) =   0
                l(3) =   1
                l(4) =   1
     Q(r) pseudized with 0 coefficients

     PseudoPot. # 2 for Cl read from file:
     /projects/e20438/bin/espresso/pseudo/Cl.pbe-n-kjpaw_psl.0.1.UPF
     MD5 check sum: 39501d8aaca1fada178cfed307344fc1
     Pseudo is Projector augmented-wave + core cor, Zval =  7.0
     Generated using "atomic" code by A. Dal Corso  v.5.0.2 svn rev. 9415
     Shape of augmentation charge: PSQ
     Using radial grid of 1157 points,  4 beta functions with:
                l(1) =   0
                l(2) =   0
                l(3) =   1
                l(4) =   1
     Q(r) pseudized with 0 coefficients

     atomic species   valence    mass     pseudopotential
        Na             9.00    22.98977     Na( 1.00)
        Cl             7.00    35.45270     Cl( 1.00)

     No symmetry found

   Cartesian axes

     site n.     atom                  positions (alat units)
         1           Na  tau(   1) = (   1.1928017   0.3160515   0.2946521  )
         2           Cl  tau(   2) = (   0.6914838   0.7151443   0.8039259  )

     number of k points=    62
                       cart. coord. in units 2pi/alat
        k(    1) = (   0.0000000   0.0000000   0.0000000), wk =   0.0166667
        k(    2) = (  -0.0000240   0.0000146   0.1634935), wk =   0.0333333
        k(    3) = (  -0.0000481   0.0000293   0.3269871), wk =   0.0333333
        k(    4) = (   0.0000721  -0.0000439  -0.4904806), wk =   0.0166667
        k(    5) = (   0.0308396   0.2058459   0.0000308), wk =   0.0333333
        k(    6) = (   0.0308155   0.2058605   0.1635243), wk =   0.0333333
        k(    7) = (   0.0307915   0.2058752   0.3270178), wk =   0.0333333
        k(    8) = (   0.0309117   0.2058020  -0.4904498), wk =   0.0333333
        k(    9) = (   0.0308877   0.2058166  -0.3269563), wk =   0.0333333
        k(   10) = (   0.0308636   0.2058313  -0.1634628), wk =   0.0333333
        k(   11) = (   0.0616791   0.4116918   0.0000616), wk =   0.0333333
        k(   12) = (   0.0616551   0.4117064   0.1635551), wk =   0.0333333
        k(   13) = (   0.0616310   0.4117211   0.3270486), wk =   0.0333333
        k(   14) = (   0.0617513   0.4116479  -0.4904190), wk =   0.0333333
        k(   15) = (   0.0617272   0.4116625  -0.3269255), wk =   0.0333333
        k(   16) = (   0.0617032   0.4116771  -0.1634320), wk =   0.0333333
        k(   17) = (   0.2034363  -0.1620797  -0.0000708), wk =   0.0333333
        k(   18) = (   0.2034123  -0.1620651   0.1634227), wk =   0.0333333
        k(   19) = (   0.2033882  -0.1620505   0.3269163), wk =   0.0333333
        k(   20) = (   0.2035085  -0.1621237  -0.4905514), wk =   0.0333333
        k(   21) = (   0.2034844  -0.1621090  -0.3270579), wk =   0.0333333
        k(   22) = (   0.2034604  -0.1620944  -0.1635643), wk =   0.0333333
        k(   23) = (   0.2342759   0.0437662  -0.0000400), wk =   0.0333333
        k(   24) = (   0.2342518   0.0437808   0.1634535), wk =   0.0333333
        k(   25) = (   0.2342278   0.0437954   0.3269470), wk =   0.0333333
        k(   26) = (   0.2343480   0.0437222  -0.4905206), wk =   0.0333333
        k(   27) = (   0.2343240   0.0437369  -0.3270271), wk =   0.0333333
        k(   28) = (   0.2342999   0.0437515  -0.1635335), wk =   0.0333333
        k(   29) = (   0.2651154   0.2496121  -0.0000092), wk =   0.0333333
        k(   30) = (   0.2650914   0.2496267   0.1634843), wk =   0.0333333
        k(   31) = (   0.2650673   0.2496413   0.3269778), wk =   0.0333333
        k(   32) = (   0.2651876   0.2495681  -0.4904898), wk =   0.0333333
        k(   33) = (   0.2651635   0.2495828  -0.3269963), wk =   0.0333333
        k(   34) = (   0.2651395   0.2495974  -0.1635028), wk =   0.0333333
        k(   35) = (   0.1417572  -0.5737715  -0.0001323), wk =   0.0333333
        k(   36) = (   0.1417332  -0.5737569   0.1633612), wk =   0.0333333
        k(   37) = (   0.1417091  -0.5737422   0.3268547), wk =   0.0333333
        k(   38) = (   0.1418294  -0.5738154  -0.4906129), wk =   0.0333333
        k(   39) = (   0.1418053  -0.5738008  -0.3271194), wk =   0.0333333
        k(   40) = (   0.1417813  -0.5737862  -0.1636259), wk =   0.0333333
        k(   41) = (   0.1725968  -0.3679256  -0.0001016), wk =   0.0333333
        k(   42) = (   0.1725727  -0.3679110   0.1633920), wk =   0.0333333
        k(   43) = (   0.1725487  -0.3678964   0.3268855), wk =   0.0333333
        k(   44) = (   0.1726689  -0.3679695  -0.4905822), wk =   0.0333333
        k(   45) = (   0.1726449  -0.3679549  -0.3270886), wk =   0.0333333
        k(   46) = (   0.1726208  -0.3679403  -0.1635951), wk =   0.0333333
        k(   47) = (  -0.4068727   0.3241595   0.0001416), wk =   0.0166667
        k(   48) = (  -0.4068967   0.3241741   0.1636351), wk =   0.0333333
        k(   49) = (  -0.4069208   0.3241887   0.3271287), wk =   0.0333333
        k(   50) = (  -0.4068005   0.3241156  -0.4903390), wk =   0.0166667
        k(   51) = (  -0.3760331   0.5300054   0.0001724), wk =   0.0333333
        k(   52) = (  -0.3760572   0.5300200   0.1636659), wk =   0.0333333
        k(   53) = (  -0.3760812   0.5300346   0.3271594), wk =   0.0333333
        k(   54) = (  -0.3759610   0.5299614  -0.4903082), wk =   0.0333333
        k(   55) = (  -0.3759850   0.5299761  -0.3268147), wk =   0.0333333
        k(   56) = (  -0.3760091   0.5299907  -0.1633212), wk =   0.0333333
        k(   57) = (  -0.3451936   0.7358513   0.0002031), wk =   0.0333333
        k(   58) = (  -0.3452176   0.7358659   0.1636967), wk =   0.0333333
        k(   59) = (  -0.3452417   0.7358805   0.3271902), wk =   0.0333333
        k(   60) = (  -0.3451214   0.7358073  -0.4902774), wk =   0.0333333
        k(   61) = (  -0.3451455   0.7358220  -0.3267839), wk =   0.0333333
        k(   62) = (  -0.3451695   0.7358366  -0.1632904), wk =   0.0333333

     Largest allocated arrays     est. size (Mb)     dimensions
     Largest temporary arrays     est. size (Mb)     dimensions

     Check: negative/imaginary core charge=   -0.000005    0.000000

     Initial potential from superposition of free atoms

     starting charge   15.49915, renormalised to   16.00000
     Starting wfc are   12 randomized atomic wfcs
     Checking if some PAW data can be deallocated...

     Writing output data file NaCl_pegs+pwscf.save

     Self-consistent Calculation

[...]

     iteration # 25     ecut=    60.00 Ry     beta=0.70
     CG style diagonalization
     c_bands:  1 eigenvalues not converged
     ethr =  2.20E-10,  avg # of iterations =  5.9

[...]

     total energy              =    -188.84075397 Ry
     Harris-Foulkes estimate   =    -188.84075397 Ry
     estimated scf accuracy    <          1.6E-10 Ry

     iteration # 37     ecut=    60.00 Ry     beta=0.70
     CG style diagonalization
     ethr =  1.01E-12,  avg # of iterations =  7.6

     End of self-consistent calculation

[...]

          k = 0.1726-0.3679-0.1636 (  2504 PWs)   bands (ev):

[...]

          k =-0.3452 0.7358-0.1633 (  2504 PWs)   bands (ev):

   -48.4408 -20.3772 -20.3620 -20.3389 -11.4989  -0.8447   0.3247   0.5026

!    total energy              =    -188.84075397 Ry
     Harris-Foulkes estimate   =    -188.84075397 Ry
     estimated scf accuracy    <          5.3E-11 Ry

     total all-electron energy =     -1248.127746 Ry

     The total energy is the sum of the following terms:

     one-electron contribution =     -83.57186526 Ry
     hartree contribution      =      43.30853162 Ry
     xc contribution           =     -24.66636712 Ry
     ewald contribution        =     -67.29209397 Ry
     one-center paw contrib.   =     -56.61895925 Ry

     convergence has been achieved in  37 iterations

     Forces acting on atoms (Ry/au):

     atom    1 type  1   force =    -0.00001685    0.00002043   -0.00000900
     atom    2 type  2   force =     0.00001685   -0.00002043    0.00000900

     Total force =     0.000040     Total SCF correction =     0.000002

     entering subroutine stress ...

          total   stress  (Ry/bohr**3)                   (kbar)     P=   -0.21
  -0.00000265  -0.00000021  -0.00000012         -0.39     -0.03     -0.02
  -0.00000021  -0.00000297   0.00000009         -0.03     -0.44      0.01
  -0.00000012   0.00000009   0.00000131         -0.02      0.01      0.19

     Writing output data file NaCl_pegs+pwscf.save

     General routines

     Parallel routines

     PAW routines

   This run was terminated on:   0:16: 8  23Mar2018

   JOB DONE.