     Program PWSCF v.5.0.2 starts on 23Mar2018 at  0: 4:45

     Current dimensions of program PWSCF are:
     Max number of different atomic species (ntypx) = 10
     Max number of k-points (npk) =  40000
     Max angular momentum in pseudopotentials (lmaxx) =  3
     Waiting for input...
     Reading input from standard input
               file Na.pbe-spn-kjpaw_psl.0.2.UPF: wavefunction(s)  2P 3P renormalized
               file Cl.pbe-n-kjpaw_psl.0.1.UPF: wavefunction(s)  3S 3P renormalized

     bravais-lattice index     =            0
     lattice parameter (alat)  =       7.4472  a.u.
     unit-cell volume          =     304.5016 (a.u.)^3
     number of atoms/cell      =            2
     number of atomic types    =            2
     number of electrons       =        16.00
     number of Kohn-Sham states=            8
     kinetic-energy cutoff     =      60.0000  Ry
     charge density cutoff     =     240.0000  Ry
     convergence threshold     =      1.0E-08
     mixing beta               =       0.7000
     number of iterations used =            8  plain     mixing
     Exchange-correlation      =  SLA  PW   PBX  PBC ( 1 4 3 4 0)
     EXX-fraction              =        0.00
     nstep                     =           50

     celldm(1)=   7.447164  celldm(2)=   0.000000  celldm(3)=   0.000000
     celldm(4)=   0.000000  celldm(5)=   0.000000  celldm(6)=   0.000000

     crystal axes: (cart. coord. in units of alat)
               a(1) = (   1.000000   0.000000   0.000000 )
               a(2) = (  -0.000001   1.030904   0.000000 )
               a(3) = (   0.480211   0.577543   0.715153 )

     reciprocal axes: (cart. coord. in units 2 pi/alat)
               b(1) = (  1.000000  0.000001 -0.671481 )
               b(2) = (  0.000000  0.970023 -0.783370 )
               b(3) = (  0.000000  0.000000  1.398303 )

     PseudoPot. # 1 for Na read from file:
     /projects/e20438/bin/espresso/pseudo/Na.pbe-spn-kjpaw_psl.0.2.UPF
     MD5 check sum: af6cebf537ceac8ff9d4cdfd6fc7ff14
     Pseudo is Projector augmented-wave, Zval =  9.0
     Generated using "atomic" code by A. Dal Corso  v.5.0.2 svn rev. 9415
     Shape of augmentation charge: PSQ
     Using radial grid of 1121 points,  4 beta functions with:
                l(1) =   0
                l(2) =   0
                l(3) =   1
                l(4) =   1
     Q(r) pseudized with 0 coefficients

     PseudoPot. # 2 for Cl read from file:
     /projects/e20438/bin/espresso/pseudo/Cl.pbe-n-kjpaw_psl.0.1.UPF
     MD5 check sum: 39501d8aaca1fada178cfed307344fc1
     Pseudo is Projector augmented-wave + core cor, Zval =  7.0
     Generated using "atomic" code by A. Dal Corso  v.5.0.2 svn rev. 9415
     Shape of augmentation charge: PSQ
     Using radial grid of 1157 points,  4 beta functions with:
                l(1) =   0
                l(2) =   0
                l(3) =   1
                l(4) =   1
     Q(r) pseudized with 0 coefficients

     atomic species   valence    mass     pseudopotential
        Na             9.00    22.98977     Na( 1.00)
        Cl             7.00    35.45270     Cl( 1.00)

     No symmetry found
          (note:  1 additional sym.ops. were found but ignored
           their fractional translations are incommensurate with FFT grid)

   Cartesian axes

     site n.     atom                  positions (alat units)
         1           Na  tau(   1) = (   0.6996267   0.4112534   0.3855247  )
         2           Cl  tau(   2) = (   1.1996259   0.9267057   0.3855247  )

     number of k points=    62
                       cart. coord. in units 2pi/alat
        k(    1) = (   0.0000000   0.0000000   0.0000000), wk =   0.0166667
        k(    2) = (   0.0000000   0.0000000   0.2330505), wk =   0.0333333
        k(    3) = (   0.0000000   0.0000000   0.4661010), wk =   0.0333333
        k(    4) = (   0.0000000   0.0000000  -0.6991515), wk =   0.0166667
        k(    5) = (   0.0000000   0.1940045  -0.1566741), wk =   0.0333333
        k(    6) = (   0.0000000   0.1940045   0.0763764), wk =   0.0333333
        k(    7) = (   0.0000000   0.1940045   0.3094269), wk =   0.0333333
        k(    8) = (   0.0000000   0.1940045  -0.8558256), wk =   0.0333333
        k(    9) = (   0.0000000   0.1940045  -0.6227751), wk =   0.0333333
        k(   10) = (   0.0000000   0.1940045  -0.3897246), wk =   0.0333333
        k(   11) = (   0.0000000   0.3880091  -0.3133482), wk =   0.0333333
        k(   12) = (   0.0000000   0.3880091  -0.0802977), wk =   0.0333333
        k(   13) = (   0.0000000   0.3880091   0.1527528), wk =   0.0333333
        k(   14) = (   0.0000000   0.3880091  -1.0124997), wk =   0.0333333
        k(   15) = (   0.0000000   0.3880091  -0.7794492), wk =   0.0333333
        k(   16) = (   0.0000000   0.3880091  -0.5463987), wk =   0.0333333
        k(   17) = (   0.2500000   0.0000002  -0.1678702), wk =   0.0333333
        k(   18) = (   0.2500000   0.0000002   0.0651803), wk =   0.0333333
        k(   19) = (   0.2500000   0.0000002   0.2982308), wk =   0.0333333
        k(   20) = (   0.2500000   0.0000002  -0.8670217), wk =   0.0333333
        k(   21) = (   0.2500000   0.0000002  -0.6339712), wk =   0.0333333
        k(   22) = (   0.2500000   0.0000002  -0.4009207), wk =   0.0333333
        k(   23) = (   0.2500000   0.1940047  -0.3245443), wk =   0.0333333
        k(   24) = (   0.2500000   0.1940047  -0.0914938), wk =   0.0333333
        k(   25) = (   0.2500000   0.1940047   0.1415567), wk =   0.0333333
        k(   26) = (   0.2500000   0.1940047  -1.0236958), wk =   0.0333333
        k(   27) = (   0.2500000   0.1940047  -0.7906453), wk =   0.0333333
        k(   28) = (   0.2500000   0.1940047  -0.5575948), wk =   0.0333333
        k(   29) = (   0.2500000   0.3880093  -0.4812184), wk =   0.0333333
        k(   30) = (   0.2500000   0.3880093  -0.2481679), wk =   0.0333333
        k(   31) = (   0.2500000   0.3880093  -0.0151174), wk =   0.0333333
        k(   32) = (   0.2500000   0.3880093  -1.1803699), wk =   0.0333333
        k(   33) = (   0.2500000   0.3880093  -0.9473194), wk =   0.0333333
        k(   34) = (   0.2500000   0.3880093  -0.7142689), wk =   0.0333333
        k(   35) = (   0.2500000  -0.3880089   0.1454780), wk =   0.0333333
        k(   36) = (   0.2500000  -0.3880089   0.3785285), wk =   0.0333333
        k(   37) = (   0.2500000  -0.3880089   0.6115790), wk =   0.0333333
        k(   38) = (   0.2500000  -0.3880089  -0.5536735), wk =   0.0333333
        k(   39) = (   0.2500000  -0.3880089  -0.3206230), wk =   0.0333333
        k(   40) = (   0.2500000  -0.3880089  -0.0875725), wk =   0.0333333
        k(   41) = (   0.2500000  -0.1940044  -0.0111961), wk =   0.0333333
        k(   42) = (   0.2500000  -0.1940044   0.2218544), wk =   0.0333333
        k(   43) = (   0.2500000  -0.1940044   0.4549049), wk =   0.0333333
        k(   44) = (   0.2500000  -0.1940044  -0.7103476), wk =   0.0333333
        k(   45) = (   0.2500000  -0.1940044  -0.4772971), wk =   0.0333333
        k(   46) = (   0.2500000  -0.1940044  -0.2442466), wk =   0.0333333
        k(   47) = (  -0.5000000  -0.0000004   0.3357404), wk =   0.0166667
        k(   48) = (  -0.5000000  -0.0000004   0.5687909), wk =   0.0333333
        k(   49) = (  -0.5000000  -0.0000004   0.8018414), wk =   0.0333333
        k(   50) = (  -0.5000000  -0.0000004  -0.3634111), wk =   0.0166667
        k(   51) = (  -0.5000000   0.1940042   0.1790663), wk =   0.0333333
        k(   52) = (  -0.5000000   0.1940042   0.4121168), wk =   0.0333333
        k(   53) = (  -0.5000000   0.1940042   0.6451673), wk =   0.0333333
        k(   54) = (  -0.5000000   0.1940042  -0.5200852), wk =   0.0333333
        k(   55) = (  -0.5000000   0.1940042  -0.2870347), wk =   0.0333333
        k(   56) = (  -0.5000000   0.1940042  -0.0539842), wk =   0.0333333
        k(   57) = (  -0.5000000   0.3880087   0.0223922), wk =   0.0333333
        k(   58) = (  -0.5000000   0.3880087   0.2554427), wk =   0.0333333
        k(   59) = (  -0.5000000   0.3880087   0.4884932), wk =   0.0333333
        k(   60) = (  -0.5000000   0.3880087  -0.6767593), wk =   0.0333333
        k(   61) = (  -0.5000000   0.3880087  -0.4437088), wk =   0.0333333
        k(   62) = (  -0.5000000   0.3880087  -0.2106583), wk =   0.0333333

     Largest allocated arrays     est. size (Mb)     dimensions
     Largest temporary arrays     est. size (Mb)     dimensions

     Check: negative/imaginary core charge=   -0.000006    0.000000

     Initial potential from superposition of free atoms

     starting charge   15.49915, renormalised to   16.00000
     Starting wfc are   12 randomized atomic wfcs
     Checking if some PAW data can be deallocated...

     Self-consistent Calculation

     iteration #  1     ecut=    60.00 Ry     beta=0.70
     CG style diagonalization
     ethr =  1.00E-02,  avg # of iterations =  2.0

     total energy              =    -188.77271969 Ry
     Harris-Foulkes estimate   =    -188.92361685 Ry
     estimated scf accuracy    <       0.18124849 Ry

[...]

     iteration #  5     ecut=    60.00 Ry     beta=0.70
     CG style diagonalization
     c_bands:  1 eigenvalues not converged
     ethr =  1.17E-06,  avg # of iterations =  7.5

[...]

     End of self-consistent calculation

          k = 0.0000 0.0000 0.0000 (  2383 PWs)   bands (ev):

   -47.9456 -19.8624 -19.8580 -19.8484 -11.6352   0.8132   1.0601   1.1774

[...]

          k =-0.5000 0.0000 0.3357 (  2404 PWs)   bands (ev):

[...]

!    total energy              =    -188.84999064 Ry
     Harris-Foulkes estimate   =    -188.84999065 Ry
     estimated scf accuracy    <          8.5E-09 Ry

     total all-electron energy =     -1248.136983 Ry

     The total energy is the sum of the following terms:

     one-electron contribution =     -81.15758062 Ry
     hartree contribution      =      42.30661688 Ry
     xc contribution           =     -24.67762139 Ry
     ewald contribution        =     -68.70127204 Ry
     one-center paw contrib.   =     -56.62013347 Ry

     convergence has been achieved in  17 iterations

     Forces acting on atoms (Ry/au):

     atom    1 type  1   force =    -0.00000396    0.00000276    0.00000226
     atom    2 type  2   force =     0.00000396   -0.00000276   -0.00000226

     Total force =     0.000008     Total SCF correction =     0.000007
     SCF correction compared to forces is large: reduce conv_thr to get better values

     entering subroutine stress ...

          total   stress  (Ry/bohr**3)                   (kbar)     P=    6.33
   0.00007274  -0.00000217   0.00002301         10.70     -0.32      3.38
  -0.00000217   0.00000257  -0.00007765         -0.32      0.38    -11.42
   0.00002301  -0.00007765   0.00005383          3.38    -11.42      7.92

     BFGS Geometry Optimization

     number of scf cycles    =   1
     number of bfgs steps    =   0

     enthalpy new            =    -188.8499906439 Ry

     new trust radius        =       0.0084844272 bohr
     new conv_thr            =       0.0000000100 Ry

     new unit-cell volume =    305.48422 a.u.^3 (    45.26809 Ang^3 )

CELL_PARAMETERS (alat=  7.44716406)
[...]
     number of scf cycles    =  10
     number of bfgs steps    =   9

     enthalpy old            =    -188.8513342299 Ry
     enthalpy new            =    -188.8513614267 Ry

     CASE: enthalpy_new < enthalpy_old

     new trust radius        =       0.0059957351 bohr
     new conv_thr            =            1.0E-10 Ry

     new unit-cell volume =    311.57589 a.u.^3 (    46.17078 Ang^3 )

[...]

ATOMIC_POSITIONS (crystal)
Na       0.440727139   0.096905595   0.539120764
Cl       0.940781671   0.596927858   0.539039891

     Writing output data file NaCl_pegs+pwscf.save
     NEW-OLD atomic charge density approx. for the potential
     NEW k-points:
        k(    1) = (   0.0000000   0.0000000   0.0000000), wk =   0.0166667
        k(    2) = (  -0.0030946   0.0100603   0.2304205), wk =   0.0333333
        k(    3) = (  -0.0061892   0.0201207   0.4608409), wk =   0.0333333
        k(    4) = (   0.0092838  -0.0301810  -0.6912614), wk =   0.0166667
        k(    5) = (   0.0019688   0.1898656  -0.1465470), wk =   0.0333333
        k(    6) = (  -0.0011258   0.1999259   0.0838734), wk =   0.0333333
        k(    7) = (  -0.0042204   0.2099863   0.3142939), wk =   0.0333333
        k(    8) = (   0.0112527   0.1596845  -0.8378084), wk =   0.0333333
        k(    9) = (   0.0081581   0.1697449  -0.6073880), wk =   0.0333333
        k(   10) = (   0.0050634   0.1798052  -0.3769675), wk =   0.0333333
        k(   11) = (   0.0039377   0.3797311  -0.2930941), wk =   0.0333333
        k(   12) = (   0.0008430   0.3897915  -0.0626736), wk =   0.0333333
        k(   13) = (  -0.0022516   0.3998518   0.1677469), wk =   0.0333333
        k(   14) = (   0.0132215   0.3495501  -0.9843555), wk =   0.0333333
        k(   15) = (   0.0101269   0.3596105  -0.7539350), wk =   0.0333333
        k(   16) = (   0.0070323   0.3696708  -0.5235145), wk =   0.0333333
        k(   17) = (   0.2465416  -0.0074041  -0.1693063), wk =   0.0333333
        k(   18) = (   0.2434470   0.0026562   0.0611142), wk =   0.0333333
        k(   19) = (   0.2403523   0.0127166   0.2915346), wk =   0.0333333
        k(   20) = (   0.2558254  -0.0375852  -0.8605677), wk =   0.0333333
        k(   21) = (   0.2527308  -0.0275248  -0.6301472), wk =   0.0333333
        k(   22) = (   0.2496362  -0.0174645  -0.3997268), wk =   0.0333333
        k(   23) = (   0.2485104   0.1824615  -0.3158533), wk =   0.0333333
        k(   24) = (   0.2454158   0.1925218  -0.0854329), wk =   0.0333333
        k(   25) = (   0.2423212   0.2025822   0.1449876), wk =   0.0333333
        k(   26) = (   0.2577942   0.1522804  -1.0071147), wk =   0.0333333
        k(   27) = (   0.2546996   0.1623408  -0.7766943), wk =   0.0333333
        k(   28) = (   0.2516050   0.1724011  -0.5462738), wk =   0.0333333
        k(   29) = (   0.2504792   0.3723270  -0.4624004), wk =   0.0333333
        k(   30) = (   0.2473846   0.3823874  -0.2319799), wk =   0.0333333
        k(   31) = (   0.2442900   0.3924477  -0.0015594), wk =   0.0333333
        k(   32) = (   0.2597631   0.3421460  -1.1536618), wk =   0.0333333
        k(   33) = (   0.2566685   0.3522063  -0.9232413), wk =   0.0333333
        k(   34) = (   0.2535738   0.3622667  -0.6928208), wk =   0.0333333
        k(   35) = (   0.2426039  -0.3871353   0.1237878), wk =   0.0333333
        k(   36) = (   0.2395093  -0.3770749   0.3542082), wk =   0.0333333
        k(   37) = (   0.2364147  -0.3670146   0.5846287), wk =   0.0333333
        k(   38) = (   0.2518877  -0.4173163  -0.5674736), wk =   0.0333333
        k(   39) = (   0.2487931  -0.4072559  -0.3370532), wk =   0.0333333
        k(   40) = (   0.2456985  -0.3971956  -0.1066327), wk =   0.0333333
        k(   41) = (   0.2445727  -0.1972697  -0.0227593), wk =   0.0333333
        k(   42) = (   0.2414781  -0.1872093   0.2076612), wk =   0.0333333
        k(   43) = (   0.2383835  -0.1771490   0.4380817), wk =   0.0333333
        k(   44) = (   0.2538566  -0.2274507  -0.7140207), wk =   0.0333333
        k(   45) = (   0.2507620  -0.2173904  -0.4836002), wk =   0.0333333
        k(   46) = (   0.2476674  -0.2073300  -0.2531797), wk =   0.0333333
        k(   47) = (  -0.4930831   0.0148082   0.3386126), wk =   0.0166667
        k(   48) = (  -0.4961778   0.0248686   0.5690331), wk =   0.0333333
        k(   49) = (  -0.4992724   0.0349289   0.7994535), wk =   0.0333333
        k(   50) = (  -0.4837993  -0.0153728  -0.3526488), wk =   0.0166667
        k(   51) = (  -0.4911143   0.2046738   0.1920656), wk =   0.0333333
        k(   52) = (  -0.4942089   0.2147341   0.4224860), wk =   0.0333333
        k(   53) = (  -0.4973035   0.2247945   0.6529065), wk =   0.0333333
        k(   54) = (  -0.4818305   0.1744928  -0.4991958), wk =   0.0333333
        k(   55) = (  -0.4849251   0.1845531  -0.2687754), wk =   0.0333333
        k(   56) = (  -0.4880197   0.1946135  -0.0383549), wk =   0.0333333
        k(   57) = (  -0.4891455   0.3945394   0.0455185), wk =   0.0333333
        k(   58) = (  -0.4922401   0.4045997   0.2759390), wk =   0.0333333
        k(   59) = (  -0.4953347   0.4146601   0.5063595), wk =   0.0333333
        k(   60) = (  -0.4798616   0.3643583  -0.6457429), wk =   0.0333333
        k(   61) = (  -0.4829563   0.3744187  -0.4153224), wk =   0.0333333
        k(   62) = (  -0.4860509   0.3844790  -0.1849019), wk =   0.0333333

     Check: negative/imaginary core charge=   -0.000005    0.000000
     extrapolated charge   15.93089, renormalised to   16.00000

[...]

     bfgs converged in  11 scf cycles and  10 bfgs steps
     (criteria: energy < 0.10E-03, force < 0.10E-02, cell < 0.50E+00)

     End of BFGS Geometry Optimization

     Final enthalpy =    -188.8513673757 Ry
Begin final coordinates
     new unit-cell volume =    311.57589 a.u.^3 (    46.17078 Ang^3 )

CELL_PARAMETERS (alat=  7.44716406)
   1.023467124  -0.000003455   0.013745607
   0.000050321   1.019035922  -0.044491267
   0.501369385   0.540085938   0.706468311

ATOMIC_POSITIONS (crystal)
Na       0.440727139   0.096905595   0.539120764
Cl       0.940781671   0.596927858   0.539039891
End final coordinates

     A final scf calculation at the relaxed structure.
     The G-vectors are recalculated for the final unit cell
     Results may differ from those at the preceding step.

     bravais-lattice index     =            0
     lattice parameter (alat)  =       7.4472  a.u.
     unit-cell volume          =     311.5759 (a.u.)^3
     number of atoms/cell      =            2
     number of atomic types    =            2
     number of electrons       =        16.00
     number of Kohn-Sham states=            8
     kinetic-energy cutoff     =      60.0000  Ry
     charge density cutoff     =     240.0000  Ry
     convergence threshold     =      1.0E-10
     mixing beta               =       0.7000
     number of iterations used =            8  plain     mixing
     Exchange-correlation      =  SLA  PW   PBX  PBC ( 1 4 3 4 0)
     EXX-fraction              =        0.00

     celldm(1)=   7.447164  celldm(2)=   0.000000  celldm(3)=   0.000000
     celldm(4)=   0.000000  celldm(5)=   0.000000  celldm(6)=   0.000000

     crystal axes: (cart. coord. in units of alat)
               a(1) = (   1.023467  -0.000003   0.013746 )
               a(2) = (   0.000050   1.019036  -0.044491 )
               a(3) = (   0.501369   0.540086   0.706468 )

     reciprocal axes: (cart. coord. in units 2 pi/alat)
               b(1) = (  0.986166 -0.029616 -0.677225 )
               b(2) = (  0.009844  0.949328 -0.732735 )
               b(3) = ( -0.018568  0.060362  1.382523 )

     PseudoPot. # 1 for Na read from file:
     /projects/e20438/bin/espresso/pseudo/Na.pbe-spn-kjpaw_psl.0.2.UPF
     MD5 check sum: af6cebf537ceac8ff9d4cdfd6fc7ff14
     Pseudo is Projector augmented-wave, Zval =  9.0
     Generated using "atomic" code by A. Dal Corso  v.5.0.2 svn rev. 9415
     Shape of augmentation charge: PSQ
     Using radial grid of 1121 points,  4 beta functions with:
                l(1) =   0
                l(2) =   0
                l(3) =   1
                l(4) =   1
     Q(r) pseudized with 0 coefficients

     PseudoPot. # 2 for Cl read from file:
     /projects/e20438/bin/espresso/pseudo/Cl.pbe-n-kjpaw_psl.0.1.UPF
     MD5 check sum: 39501d8aaca1fada178cfed307344fc1
     Pseudo is Projector augmented-wave + core cor, Zval =  7.0
     Generated using "atomic" code by A. Dal Corso  v.5.0.2 svn rev. 9415
     Shape of augmentation charge: PSQ
     Using radial grid of 1157 points,  4 beta functions with:
                l(1) =   0
                l(2) =   0
                l(3) =   1
                l(4) =   1
     Q(r) pseudized with 0 coefficients

     atomic species   valence    mass     pseudopotential
        Na             9.00    22.98977     Na( 1.00)
        Cl             7.00    35.45270     Cl( 1.00)

     No symmetry found
          (note:  1 additional sym.ops. were found but ignored
           their fractional translations are incommensurate with FFT grid)

   Cartesian axes

     site n.     atom                  positions (alat units)
         1           Na  tau(   1) = (   0.7213733   0.3899203   0.3826183  )
         2           Cl  tau(   2) = (   1.2331472   0.8994155   0.3671881  )

     number of k points=    62
                       cart. coord. in units 2pi/alat
        k(    1) = (   0.0000000   0.0000000   0.0000000), wk =   0.0166667
        k(    2) = (  -0.0030946   0.0100603   0.2304205), wk =   0.0333333
        k(    3) = (  -0.0061892   0.0201207   0.4608409), wk =   0.0333333
        k(    4) = (   0.0092838  -0.0301810  -0.6912614), wk =   0.0166667
        k(    5) = (   0.0019688   0.1898656  -0.1465470), wk =   0.0333333
        k(    6) = (  -0.0011258   0.1999259   0.0838734), wk =   0.0333333
        k(    7) = (  -0.0042204   0.2099863   0.3142939), wk =   0.0333333
        k(    8) = (   0.0112527   0.1596845  -0.8378084), wk =   0.0333333
        k(    9) = (   0.0081581   0.1697449  -0.6073880), wk =   0.0333333
        k(   10) = (   0.0050634   0.1798052  -0.3769675), wk =   0.0333333
        k(   11) = (   0.0039377   0.3797311  -0.2930941), wk =   0.0333333
        k(   12) = (   0.0008430   0.3897915  -0.0626736), wk =   0.0333333
        k(   13) = (  -0.0022516   0.3998518   0.1677469), wk =   0.0333333
        k(   14) = (   0.0132215   0.3495501  -0.9843555), wk =   0.0333333
        k(   15) = (   0.0101269   0.3596105  -0.7539350), wk =   0.0333333
        k(   16) = (   0.0070323   0.3696708  -0.5235145), wk =   0.0333333
        k(   17) = (   0.2465416  -0.0074041  -0.1693063), wk =   0.0333333
        k(   18) = (   0.2434470   0.0026562   0.0611142), wk =   0.0333333
        k(   19) = (   0.2403523   0.0127166   0.2915346), wk =   0.0333333
        k(   20) = (   0.2558254  -0.0375852  -0.8605677), wk =   0.0333333
        k(   21) = (   0.2527308  -0.0275248  -0.6301472), wk =   0.0333333
        k(   22) = (   0.2496362  -0.0174645  -0.3997268), wk =   0.0333333
        k(   23) = (   0.2485104   0.1824615  -0.3158533), wk =   0.0333333
        k(   24) = (   0.2454158   0.1925218  -0.0854329), wk =   0.0333333
        k(   25) = (   0.2423212   0.2025822   0.1449876), wk =   0.0333333
        k(   26) = (   0.2577942   0.1522804  -1.0071147), wk =   0.0333333
        k(   27) = (   0.2546996   0.1623408  -0.7766943), wk =   0.0333333
        k(   28) = (   0.2516050   0.1724011  -0.5462738), wk =   0.0333333
        k(   29) = (   0.2504792   0.3723270  -0.4624004), wk =   0.0333333
        k(   30) = (   0.2473846   0.3823874  -0.2319799), wk =   0.0333333
        k(   31) = (   0.2442900   0.3924477  -0.0015594), wk =   0.0333333
        k(   32) = (   0.2597631   0.3421460  -1.1536618), wk =   0.0333333
        k(   33) = (   0.2566685   0.3522063  -0.9232413), wk =   0.0333333
        k(   34) = (   0.2535738   0.3622667  -0.6928208), wk =   0.0333333
        k(   35) = (   0.2426039  -0.3871353   0.1237878), wk =   0.0333333
        k(   36) = (   0.2395093  -0.3770749   0.3542082), wk =   0.0333333
        k(   37) = (   0.2364147  -0.3670146   0.5846287), wk =   0.0333333
        k(   38) = (   0.2518877  -0.4173163  -0.5674736), wk =   0.0333333
        k(   39) = (   0.2487931  -0.4072559  -0.3370532), wk =   0.0333333
        k(   40) = (   0.2456985  -0.3971956  -0.1066327), wk =   0.0333333
        k(   41) = (   0.2445727  -0.1972697  -0.0227593), wk =   0.0333333
        k(   42) = (   0.2414781  -0.1872093   0.2076612), wk =   0.0333333
        k(   43) = (   0.2383835  -0.1771490   0.4380817), wk =   0.0333333
        k(   44) = (   0.2538566  -0.2274507  -0.7140207), wk =   0.0333333
        k(   45) = (   0.2507620  -0.2173904  -0.4836002), wk =   0.0333333
        k(   46) = (   0.2476674  -0.2073300  -0.2531797), wk =   0.0333333
        k(   47) = (  -0.4930831   0.0148082   0.3386126), wk =   0.0166667
        k(   48) = (  -0.4961778   0.0248686   0.5690331), wk =   0.0333333
        k(   49) = (  -0.4992724   0.0349289   0.7994535), wk =   0.0333333
        k(   50) = (  -0.4837993  -0.0153728  -0.3526488), wk =   0.0166667
        k(   51) = (  -0.4911143   0.2046738   0.1920656), wk =   0.0333333
        k(   52) = (  -0.4942089   0.2147341   0.4224860), wk =   0.0333333
        k(   53) = (  -0.4973035   0.2247945   0.6529065), wk =   0.0333333
        k(   54) = (  -0.4818305   0.1744928  -0.4991958), wk =   0.0333333
        k(   55) = (  -0.4849251   0.1845531  -0.2687754), wk =   0.0333333
        k(   56) = (  -0.4880197   0.1946135  -0.0383549), wk =   0.0333333
        k(   57) = (  -0.4891455   0.3945394   0.0455185), wk =   0.0333333
        k(   58) = (  -0.4922401   0.4045997   0.2759390), wk =   0.0333333
        k(   59) = (  -0.4953347   0.4146601   0.5063595), wk =   0.0333333
        k(   60) = (  -0.4798616   0.3643583  -0.6457429), wk =   0.0333333
        k(   61) = (  -0.4829563   0.3744187  -0.4153224), wk =   0.0333333
        k(   62) = (  -0.4860509   0.3844790  -0.1849019), wk =   0.0333333

     Largest allocated arrays     est. size (Mb)     dimensions
     Largest temporary arrays     est. size (Mb)     dimensions

     Check: negative/imaginary core charge=   -0.000006    0.000000

     Initial potential from superposition of free atoms

     starting charge   15.49915, renormalised to   16.00000
     Starting wfc are   12 randomized atomic wfcs
     Checking if some PAW data can be deallocated...

     Writing output data file NaCl_pegs+pwscf.save

     Self-consistent Calculation

[...]

     iteration # 26     ecut=    60.00 Ry     beta=0.70
     CG style diagonalization
     c_bands:  1 eigenvalues not converged
     ethr =  5.74E-11,  avg # of iterations =  5.3

[...]

     total energy              =    -188.85138092 Ry
     Harris-Foulkes estimate   =    -188.85138092 Ry
     estimated scf accuracy    <          5.8E-10 Ry

     iteration # 32     ecut=    60.00 Ry     beta=0.70
     CG style diagonalization
     ethr =  3.60E-12,  avg # of iterations =  4.9

     End of self-consistent calculation

[...]

          k = 0.2477-0.2073-0.2532 (  2443 PWs)   bands (ev):

[...]

          k =-0.4861 0.3845-0.1849 (  2439 PWs)   bands (ev):

   -48.1401 -20.0678 -20.0613 -20.0579 -11.4164  -0.6289   0.0322   0.2755

!    total energy              =    -188.85138092 Ry
     Harris-Foulkes estimate   =    -188.85138092 Ry
     estimated scf accuracy    <          2.7E-11 Ry

     total all-electron energy =     -1248.138373 Ry

     The total energy is the sum of the following terms:

     one-electron contribution =     -82.07131894 Ry
     hartree contribution      =      42.65341558 Ry
     xc contribution           =     -24.66989235 Ry
     ewald contribution        =     -68.14439394 Ry
     one-center paw contrib.   =     -56.61919127 Ry

     convergence has been achieved in  32 iterations

     Forces acting on atoms (Ry/au):

     atom    1 type  1   force =     0.00000372   -0.00000398    0.00000200
     atom    2 type  2   force =    -0.00000372    0.00000398   -0.00000200

     Total force =     0.000008     Total SCF correction =     0.000002
     SCF correction compared to forces is large: reduce conv_thr to get better values

     entering subroutine stress ...

          total   stress  (Ry/bohr**3)                   (kbar)     P=   -0.06
  -0.00000270   0.00000068   0.00000080         -0.40      0.10      0.12
   0.00000068   0.00000243   0.00000090          0.10      0.36      0.13
   0.00000080   0.00000090  -0.00000099          0.12      0.13     -0.15

     Writing output data file NaCl_pegs+pwscf.save

     General routines

     Parallel routines

     PAW routines

   This run was terminated on:   0: 9: 5  23Mar2018

   JOB DONE.