     Program PWSCF v.5.0.2 starts on 23Mar2018 at  0: 4:46

     Current dimensions of program PWSCF are:
     Max number of different atomic species (ntypx) = 10
     Max number of k-points (npk) =  40000
     Max angular momentum in pseudopotentials (lmaxx) =  3
     Waiting for input...
     Reading input from standard input
               file Na.pbe-spn-kjpaw_psl.0.2.UPF: wavefunction(s)  2P 3P renormalized
               file Cl.pbe-n-kjpaw_psl.0.1.UPF: wavefunction(s)  3S 3P renormalized

     bravais-lattice index     =            0
     lattice parameter (alat)  =       7.2188  a.u.
     unit-cell volume          =     312.6565 (a.u.)^3
     number of atoms/cell      =            2
     number of atomic types    =            2
     number of electrons       =        16.00
     number of Kohn-Sham states=            8
     kinetic-energy cutoff     =      60.0000  Ry
     charge density cutoff     =     240.0000  Ry
     convergence threshold     =      1.0E-08
     mixing beta               =       0.7000
     number of iterations used =            8  plain     mixing
     Exchange-correlation      =  SLA  PW   PBX  PBC ( 1 4 3 4 0)
     EXX-fraction              =        0.00
     nstep                     =           50

     celldm(1)=   7.218790  celldm(2)=   0.000000  celldm(3)=   0.000000
     celldm(4)=   0.000000  celldm(5)=   0.000000  celldm(6)=   0.000000

     crystal axes: (cart. coord. in units of alat)
               a(1) = (   1.000000   0.000000   0.000000 )
               a(2) = (  -0.412600   0.943681   0.000000 )
               a(3) = (   1.412588  -0.297822   0.880743 )

     reciprocal axes: (cart. coord. in units 2 pi/alat)
               b(1) = (  1.000000  0.437224 -1.456013 )
               b(2) = (  0.000000  1.059681  0.358330 )
               b(3) = (  0.000000  0.000000  1.135405 )

     PseudoPot. # 1 for Na read from file:
     /projects/e20438/bin/espresso/pseudo/Na.pbe-spn-kjpaw_psl.0.2.UPF
     MD5 check sum: af6cebf537ceac8ff9d4cdfd6fc7ff14
     Pseudo is Projector augmented-wave, Zval =  9.0
     Generated using "atomic" code by A. Dal Corso  v.5.0.2 svn rev. 9415
     Shape of augmentation charge: PSQ
     Using radial grid of 1121 points,  4 beta functions with:
                l(1) =   0
                l(2) =   0
                l(3) =   1
                l(4) =   1
     Q(r) pseudized with 0 coefficients

     PseudoPot. # 2 for Cl read from file:
     /projects/e20438/bin/espresso/pseudo/Cl.pbe-n-kjpaw_psl.0.1.UPF
     MD5 check sum: 39501d8aaca1fada178cfed307344fc1
     Pseudo is Projector augmented-wave + core cor, Zval =  7.0
     Generated using "atomic" code by A. Dal Corso  v.5.0.2 svn rev. 9415
     Shape of augmentation charge: PSQ
     Using radial grid of 1157 points,  4 beta functions with:
                l(1) =   0
                l(2) =   0
                l(3) =   1
                l(4) =   1
     Q(r) pseudized with 0 coefficients

     atomic species   valence    mass     pseudopotential
        Na             9.00    22.98977     Na( 1.00)
        Cl             7.00    35.45270     Cl( 1.00)

     No symmetry found

   Cartesian axes

     site n.     atom                  positions (alat units)
         1           Na  tau(   1) = (   0.9168526   0.4251785   0.4641768  )
         2           Cl  tau(   2) = (   0.4168640   0.1227475   0.0087484  )

     number of k points=    31
                       cart. coord. in units 2pi/alat
        k(    1) = (   0.0000000   0.0000000   0.0000000), wk =   0.0333333
        k(    2) = (   0.0000000   0.0000000   0.2270810), wk =   0.0666667
        k(    3) = (   0.0000000   0.0000000   0.4541620), wk =   0.0666667
        k(    4) = (   0.0000000   0.2649201   0.0895824), wk =   0.0666667
        k(    5) = (   0.0000000   0.2649201   0.3166634), wk =   0.0666667
        k(    6) = (   0.0000000   0.2649201   0.5437444), wk =   0.0666667
        k(    7) = (   0.0000000   0.2649201  -0.3645797), wk =   0.0666667
        k(    8) = (   0.0000000   0.2649201  -0.1374986), wk =   0.0666667
        k(    9) = (   0.0000000  -0.5298403  -0.1791648), wk =   0.0333333
        k(   10) = (   0.0000000  -0.5298403   0.0479162), wk =   0.0666667
        k(   11) = (   0.0000000  -0.5298403   0.2749973), wk =   0.0666667
        k(   12) = (   0.3333333   0.1457413  -0.4853377), wk =   0.0666667
        k(   13) = (   0.3333333   0.1457413  -0.2582567), wk =   0.0666667
        k(   14) = (   0.3333333   0.1457413  -0.0311757), wk =   0.0666667
        k(   15) = (   0.3333333   0.1457413  -0.9394998), wk =   0.0666667
        k(   16) = (   0.3333333   0.1457413  -0.7124188), wk =   0.0666667
        k(   17) = (   0.3333333   0.4106614  -0.3957553), wk =   0.0666667
        k(   18) = (   0.3333333   0.4106614  -0.1686743), wk =   0.0666667
        k(   19) = (   0.3333333   0.4106614   0.0584067), wk =   0.0666667
        k(   20) = (   0.3333333   0.4106614  -0.8499174), wk =   0.0666667
        k(   21) = (   0.3333333   0.4106614  -0.6228364), wk =   0.0666667
        k(   22) = (   0.3333333  -0.3840990  -0.6645025), wk =   0.0666667
        k(   23) = (   0.3333333  -0.3840990  -0.4374215), wk =   0.0666667
        k(   24) = (   0.3333333  -0.3840990  -0.2103405), wk =   0.0666667
        k(   25) = (   0.3333333  -0.3840990  -1.1186646), wk =   0.0666667
        k(   26) = (   0.3333333  -0.3840990  -0.8915835), wk =   0.0666667
        k(   27) = (   0.3333333  -0.1191789  -0.5749201), wk =   0.0666667
        k(   28) = (   0.3333333  -0.1191789  -0.3478391), wk =   0.0666667
        k(   29) = (   0.3333333  -0.1191789  -0.1207581), wk =   0.0666667
        k(   30) = (   0.3333333  -0.1191789  -1.0290822), wk =   0.0666667
        k(   31) = (   0.3333333  -0.1191789  -0.8020011), wk =   0.0666667

     Largest allocated arrays     est. size (Mb)     dimensions
     Largest temporary arrays     est. size (Mb)     dimensions

     Check: negative/imaginary core charge=   -0.000006    0.000000

     Initial potential from superposition of free atoms

     starting charge   15.49915, renormalised to   16.00000
     Starting wfc are   12 randomized atomic wfcs
     Checking if some PAW data can be deallocated...

     Self-consistent Calculation

     iteration #  1     ecut=    60.00 Ry     beta=0.70
     CG style diagonalization
     ethr =  1.00E-02,  avg # of iterations =  2.0

     total energy              =    -188.77045674 Ry
     Harris-Foulkes estimate   =    -188.92240261 Ry
     estimated scf accuracy    <       0.18254867 Ry

[...]

     iteration #  5     ecut=    60.00 Ry     beta=0.70
     CG style diagonalization
     c_bands:  1 eigenvalues not converged
     ethr =  1.03E-06,  avg # of iterations =  7.2

[...]

     End of self-consistent calculation

          k = 0.0000 0.0000 0.0000 (  2439 PWs)   bands (ev):

   -48.2078 -20.1288 -20.1144 -20.1100 -11.7554   0.6771   0.7628   1.0950

[...]

!    total energy              =    -188.84798305 Ry
     Harris-Foulkes estimate   =    -188.84798305 Ry
     estimated scf accuracy    <          2.4E-09 Ry

     total all-electron energy =     -1248.134975 Ry

     The total energy is the sum of the following terms:

     one-electron contribution =     -82.13475159 Ry
     hartree contribution      =      42.67090504 Ry
     xc contribution           =     -24.66910740 Ry
     ewald contribution        =     -68.09589948 Ry
     one-center paw contrib.   =     -56.61912961 Ry

     convergence has been achieved in  17 iterations

     Forces acting on atoms (Ry/au):

     atom    1 type  1   force =     0.00018640    0.00208494   -0.00149359
     atom    2 type  2   force =    -0.00018640   -0.00208494    0.00149359

     Total force =     0.003637     Total SCF correction =     0.000005

     entering subroutine stress ...

          total   stress  (Ry/bohr**3)                   (kbar)     P=   -0.25
   0.00008654  -0.00006229   0.00004685         12.73     -9.16      6.89
  -0.00006229  -0.00005728  -0.00001501         -9.16     -8.43     -2.21
   0.00004685  -0.00001501  -0.00003436          6.89     -2.21     -5.05

     BFGS Geometry Optimization

     number of scf cycles    =   1
     number of bfgs steps    =   0

     enthalpy new            =    -188.8479830479 Ry

     new trust radius        =       0.0102964217 bohr
     new conv_thr            =       0.0000000100 Ry

     new unit-cell volume =    312.61422 a.u.^3 (    46.32465 Ang^3 )

CELL_PARAMETERS (alat=  7.21879047)
   1.002163375  -0.001557313   0.001171172
  -0.414961873   0.942971760  -0.000837418
   1.417139453  -0.299925959   0.881752540

ATOMIC_POSITIONS (crystal)
Na       0.427356516   0.617113540   0.526793795
Cl       0.457341008   0.132976000   0.010167886

     Writing output data file NaCl_pegs+pwscf.save
     NEW-OLD atomic charge density approx. for the potential
     NEW k-points:
        k(    1) = (   0.0000000   0.0000000   0.0000000), wk =   0.0333333
        k(    2) = (  -0.0002655   0.0000850   0.2272766), wk =   0.0666667
        k(    3) = (  -0.0005309   0.0001700   0.4545532), wk =   0.0666667
        k(    4) = (   0.0003074   0.2653343   0.0897587), wk =   0.0666667
        k(    5) = (   0.0000419   0.2654193   0.3170353), wk =   0.0666667
        k(    6) = (  -0.0002235   0.2655043   0.5443119), wk =   0.0666667
        k(    7) = (   0.0008384   0.2651643  -0.3647945), wk =   0.0666667
        k(    8) = (   0.0005729   0.2652493  -0.1375179), wk =   0.0666667
        k(    9) = (  -0.0006148  -0.5306686  -0.1795174), wk =   0.0333333
        k(   10) = (  -0.0008803  -0.5305835   0.0477591), wk =   0.0666667
        k(   11) = (  -0.0011458  -0.5304985   0.2750357), wk =   0.0666667
        k(   12) = (   0.3334092   0.1462875  -0.4860908), wk =   0.0666667
        k(   13) = (   0.3331437   0.1463726  -0.2588143), wk =   0.0666667
        k(   14) = (   0.3328782   0.1464576  -0.0315377), wk =   0.0666667
        k(   15) = (   0.3339401   0.1461175  -0.9406440), wk =   0.0666667
        k(   16) = (   0.3336746   0.1462025  -0.7133674), wk =   0.0666667
        k(   17) = (   0.3337166   0.4116218  -0.3963321), wk =   0.0666667
        k(   18) = (   0.3334511   0.4117068  -0.1690555), wk =   0.0666667
        k(   19) = (   0.3331856   0.4117919   0.0582211), wk =   0.0666667
        k(   20) = (   0.3342475   0.4114518  -0.8508853), wk =   0.0666667
        k(   21) = (   0.3339820   0.4115368  -0.6236087), wk =   0.0666667
        k(   22) = (   0.3327943  -0.3843810  -0.6656083), wk =   0.0666667
        k(   23) = (   0.3325288  -0.3842960  -0.4383317), wk =   0.0666667
        k(   24) = (   0.3322634  -0.3842110  -0.2110551), wk =   0.0666667
        k(   25) = (   0.3333253  -0.3845510  -1.1201615), wk =   0.0666667
        k(   26) = (   0.3330598  -0.3844660  -0.8928849), wk =   0.0666667
        k(   27) = (   0.3331017  -0.1190467  -0.5758496), wk =   0.0666667
        k(   28) = (   0.3328363  -0.1189617  -0.3485730), wk =   0.0666667
        k(   29) = (   0.3325708  -0.1188767  -0.1212964), wk =   0.0666667
        k(   30) = (   0.3336327  -0.1192168  -1.0304027), wk =   0.0666667
        k(   31) = (   0.3333672  -0.1191317  -0.8031262), wk =   0.0666667

     Check: negative/imaginary core charge=   -0.000006    0.000000
     extrapolated charge   15.99790, renormalised to   16.00000

[...]

          k =-0.0003 0.0001 0.2273 (  2441 PWs)   bands (ev):

[...]

     enthalpy old            =    -188.8479830479 Ry
     enthalpy new            =    -188.8481849597 Ry

     CASE: enthalpy_new < enthalpy_old

     WARNING: bfgs curvature condition failed, Theta= 0.824
     new trust radius        =       0.0154013491 bohr
     new conv_thr            =       0.0000000002 Ry

[...]

     Total force =     0.000060     Total SCF correction =     0.000010
     SCF correction compared to forces is large: reduce conv_thr to get better values

[...]

     Total force =     0.000009     Total SCF correction =     0.000005
     SCF correction compared to forces is large: reduce conv_thr to get better values

[...]

     number of scf cycles    =  15
     number of bfgs steps    =  14

     enthalpy old            =    -188.8511621878 Ry
     enthalpy new            =    -188.8511639026 Ry

     CASE: enthalpy_new < enthalpy_old

     new trust radius        =       0.0038798756 bohr
     new conv_thr            =            1.0E-10 Ry

     new unit-cell volume =    312.05691 a.u.^3 (    46.24206 Ang^3 )

[...]

ATOMIC_POSITIONS (crystal)
Na       0.442425779   0.625142538   0.518397150
Cl       0.442271746   0.124947002   0.018564532

     Writing output data file NaCl_pegs+pwscf.save
     NEW-OLD atomic charge density approx. for the potential
     NEW k-points:
        k(    1) = (   0.0000000   0.0000000   0.0000000), wk =   0.0333333
        k(    2) = (  -0.0079928   0.0025938   0.2325949), wk =   0.0666667
        k(    3) = (  -0.0159857   0.0051876   0.4651898), wk =   0.0666667
        k(    4) = (   0.0098445   0.2749816   0.0947492), wk =   0.0666667
        k(    5) = (   0.0018517   0.2775754   0.3273441), wk =   0.0666667
        k(    6) = (  -0.0061411   0.2801692   0.5599390), wk =   0.0666667
        k(    7) = (   0.0258302   0.2697939  -0.3704406), wk =   0.0666667
        k(    8) = (   0.0178374   0.2723878  -0.1378457), wk =   0.0666667
        k(    9) = (  -0.0196891  -0.5499631  -0.1894984), wk =   0.0333333
        k(   10) = (  -0.0276819  -0.5473693   0.0430965), wk =   0.0666667
        k(   11) = (  -0.0356748  -0.5447755   0.2756914), wk =   0.0666667
        k(   12) = (   0.3407848   0.1618717  -0.5073523), wk =   0.0666667
        k(   13) = (   0.3327919   0.1644655  -0.2747574), wk =   0.0666667
        k(   14) = (   0.3247991   0.1670593  -0.0421625), wk =   0.0666667
        k(   15) = (   0.3567704   0.1566841  -0.9725421), wk =   0.0666667
        k(   16) = (   0.3487776   0.1592779  -0.7399472), wk =   0.0666667
        k(   17) = (   0.3506293   0.4368533  -0.4126031), wk =   0.0666667
        k(   18) = (   0.3426365   0.4394471  -0.1800082), wk =   0.0666667
        k(   19) = (   0.3346436   0.4420409   0.0525867), wk =   0.0666667
        k(   20) = (   0.3666150   0.4316656  -0.8777929), wk =   0.0666667
        k(   21) = (   0.3586221   0.4342594  -0.6451980), wk =   0.0666667
        k(   22) = (   0.3210957  -0.3880915  -0.6968506), wk =   0.0666667
        k(   23) = (   0.3131028  -0.3854976  -0.4642557), wk =   0.0666667
        k(   24) = (   0.3051100  -0.3829038  -0.2316608), wk =   0.0666667
        k(   25) = (   0.3370813  -0.3932791  -1.1620404), wk =   0.0666667
        k(   26) = (   0.3290885  -0.3906853  -0.9294455), wk =   0.0666667
        k(   27) = (   0.3309402  -0.1131099  -0.6021014), wk =   0.0666667
        k(   28) = (   0.3229474  -0.1105161  -0.3695065), wk =   0.0666667
        k(   29) = (   0.3149545  -0.1079223  -0.1369116), wk =   0.0666667
        k(   30) = (   0.3469259  -0.1182975  -1.0672913), wk =   0.0666667
        k(   31) = (   0.3389330  -0.1157037  -0.8346964), wk =   0.0666667

     Check: negative/imaginary core charge=   -0.000006    0.000000
     extrapolated charge   15.98313, renormalised to   16.00000

[...]

     bfgs converged in  16 scf cycles and  15 bfgs steps
     (criteria: energy < 0.10E-03, force < 0.10E-02, cell < 0.50E+00)

     End of BFGS Geometry Optimization

     Final enthalpy =    -188.8511653867 Ry
Begin final coordinates
     new unit-cell volume =    312.05691 a.u.^3 (    46.24206 Ang^3 )

CELL_PARAMETERS (alat=  7.21879047)
   1.057066474  -0.050554306   0.036888555
  -0.484867667   0.935847539  -0.027098109
   1.541459808  -0.371142877   0.916973296

ATOMIC_POSITIONS (crystal)
Na       0.442425779   0.625142538   0.518397150
Cl       0.442271746   0.124947002   0.018564532
End final coordinates

     A final scf calculation at the relaxed structure.
     The G-vectors are recalculated for the final unit cell
     Results may differ from those at the preceding step.

     bravais-lattice index     =            0
     lattice parameter (alat)  =       7.2188  a.u.
     unit-cell volume          =     312.0569 (a.u.)^3
     number of atoms/cell      =            2
     number of atomic types    =            2
     number of electrons       =        16.00
     number of Kohn-Sham states=            8
     kinetic-energy cutoff     =      60.0000  Ry
     charge density cutoff     =     240.0000  Ry
     convergence threshold     =      1.0E-10
     mixing beta               =       0.7000
     number of iterations used =            8  plain     mixing
     Exchange-correlation      =  SLA  PW   PBX  PBC ( 1 4 3 4 0)
     EXX-fraction              =        0.00

     celldm(1)=   7.218790  celldm(2)=   0.000000  celldm(3)=   0.000000
     celldm(4)=   0.000000  celldm(5)=   0.000000  celldm(6)=   0.000000

     crystal axes: (cart. coord. in units of alat)
               a(1) = (   1.057066  -0.050554   0.036889 )
               a(2) = (  -0.484868   0.935848  -0.027098 )
               a(3) = (   1.541460  -0.371143   0.916973 )

     reciprocal axes: (cart. coord. in units 2 pi/alat)
               b(1) = (  1.022354  0.485615 -1.522057 )
               b(2) = (  0.039378  1.099926  0.378997 )
               b(3) = ( -0.039964  0.012969  1.162975 )

     PseudoPot. # 1 for Na read from file:
     /projects/e20438/bin/espresso/pseudo/Na.pbe-spn-kjpaw_psl.0.2.UPF
     MD5 check sum: af6cebf537ceac8ff9d4cdfd6fc7ff14
     Pseudo is Projector augmented-wave, Zval =  9.0
     Generated using "atomic" code by A. Dal Corso  v.5.0.2 svn rev. 9415
     Shape of augmentation charge: PSQ
     Using radial grid of 1121 points,  4 beta functions with:
                l(1) =   0
                l(2) =   0
                l(3) =   1
                l(4) =   1
     Q(r) pseudized with 0 coefficients

     PseudoPot. # 2 for Cl read from file:
     /projects/e20438/bin/espresso/pseudo/Cl.pbe-n-kjpaw_psl.0.1.UPF
     MD5 check sum: 39501d8aaca1fada178cfed307344fc1
     Pseudo is Projector augmented-wave + core cor, Zval =  7.0
     Generated using "atomic" code by A. Dal Corso  v.5.0.2 svn rev. 9415
     Shape of augmentation charge: PSQ
     Using radial grid of 1157 points,  4 beta functions with:
                l(1) =   0
                l(2) =   0
                l(3) =   1
                l(4) =   1
     Q(r) pseudized with 0 coefficients

     atomic species   valence    mass     pseudopotential
        Na             9.00    22.98977     Na( 1.00)
        Cl             7.00    35.45270     Cl( 1.00)

     No symmetry found

   Cartesian axes

     site n.     atom                  positions (alat units)
         1           Na  tau(   1) = (   0.9636504   0.3702722   0.4747366  )
         2           Cl  tau(   2) = (   0.4355444   0.0876825   0.0299521  )

     number of k points=    31
                       cart. coord. in units 2pi/alat
        k(    1) = (   0.0000000   0.0000000   0.0000000), wk =   0.0333333
        k(    2) = (  -0.0079928   0.0025938   0.2325949), wk =   0.0666667
        k(    3) = (  -0.0159857   0.0051876   0.4651898), wk =   0.0666667
        k(    4) = (   0.0098445   0.2749816   0.0947492), wk =   0.0666667
        k(    5) = (   0.0018517   0.2775754   0.3273441), wk =   0.0666667
        k(    6) = (  -0.0061411   0.2801692   0.5599390), wk =   0.0666667
        k(    7) = (   0.0258302   0.2697939  -0.3704406), wk =   0.0666667
        k(    8) = (   0.0178374   0.2723878  -0.1378457), wk =   0.0666667
        k(    9) = (  -0.0196891  -0.5499631  -0.1894984), wk =   0.0333333
        k(   10) = (  -0.0276819  -0.5473693   0.0430965), wk =   0.0666667
        k(   11) = (  -0.0356748  -0.5447755   0.2756914), wk =   0.0666667
        k(   12) = (   0.3407848   0.1618717  -0.5073523), wk =   0.0666667
        k(   13) = (   0.3327919   0.1644655  -0.2747574), wk =   0.0666667
        k(   14) = (   0.3247991   0.1670593  -0.0421625), wk =   0.0666667
        k(   15) = (   0.3567704   0.1566841  -0.9725421), wk =   0.0666667
        k(   16) = (   0.3487776   0.1592779  -0.7399472), wk =   0.0666667
        k(   17) = (   0.3506293   0.4368533  -0.4126031), wk =   0.0666667
        k(   18) = (   0.3426365   0.4394471  -0.1800082), wk =   0.0666667
        k(   19) = (   0.3346436   0.4420409   0.0525867), wk =   0.0666667
        k(   20) = (   0.3666150   0.4316656  -0.8777929), wk =   0.0666667
        k(   21) = (   0.3586221   0.4342594  -0.6451980), wk =   0.0666667
        k(   22) = (   0.3210957  -0.3880915  -0.6968506), wk =   0.0666667
        k(   23) = (   0.3131028  -0.3854976  -0.4642557), wk =   0.0666667
        k(   24) = (   0.3051100  -0.3829038  -0.2316608), wk =   0.0666667
        k(   25) = (   0.3370813  -0.3932791  -1.1620404), wk =   0.0666667
        k(   26) = (   0.3290885  -0.3906853  -0.9294455), wk =   0.0666667
        k(   27) = (   0.3309402  -0.1131099  -0.6021014), wk =   0.0666667
        k(   28) = (   0.3229474  -0.1105161  -0.3695065), wk =   0.0666667
        k(   29) = (   0.3149545  -0.1079223  -0.1369116), wk =   0.0666667
        k(   30) = (   0.3469259  -0.1182975  -1.0672913), wk =   0.0666667
        k(   31) = (   0.3389330  -0.1157037  -0.8346964), wk =   0.0666667

     Largest allocated arrays     est. size (Mb)     dimensions
     Largest temporary arrays     est. size (Mb)     dimensions

     Check: negative/imaginary core charge=   -0.000006    0.000000

     Initial potential from superposition of free atoms

     starting charge   15.49915, renormalised to   16.00000
     Starting wfc are   12 randomized atomic wfcs
     Checking if some PAW data can be deallocated...

     Writing output data file NaCl_pegs+pwscf.save

     Self-consistent Calculation

[...]

     iteration # 24     ecut=    60.00 Ry     beta=0.70
     CG style diagonalization
     ethr =  2.19E-11,  avg # of iterations =  5.2

     total energy              =    -188.85117357 Ry
     Harris-Foulkes estimate   =    -188.85117369 Ry
     estimated scf accuracy    <          1.9E-10 Ry

     iteration # 25     ecut=    60.00 Ry     beta=0.70
     CG style diagonalization
     c_bands:  1 eigenvalues not converged
     c_bands:  1 eigenvalues not converged
     ethr =  1.19E-12,  avg # of iterations =  8.6

     End of self-consistent calculation

[...]

          k =-0.0357-0.5448 0.2757 (  2450 PWs)   bands (ev):

[...]

          k = 0.3389-0.1157-0.8347 (  2448 PWs)   bands (ev):

   -48.1560 -20.0848 -20.0738 -20.0691 -11.4981  -0.6125   0.2439   0.5546

!    total energy              =    -188.85117359 Ry
     Harris-Foulkes estimate   =    -188.85117358 Ry
     estimated scf accuracy    <          9.1E-11 Ry

     total all-electron energy =     -1248.138166 Ry

     The total energy is the sum of the following terms:

     one-electron contribution =     -82.12815031 Ry
     hartree contribution      =      42.67529974 Ry
     xc contribution           =     -24.66982716 Ry
     ewald contribution        =     -68.10940445 Ry
     one-center paw contrib.   =     -56.61909142 Ry

     convergence has been achieved in  25 iterations

     Forces acting on atoms (Ry/au):

     atom    1 type  1   force =     0.00003327   -0.00004248    0.00002627
     atom    2 type  2   force =    -0.00003327    0.00004248   -0.00002627

     Total force =     0.000085     Total SCF correction =     0.000003

     entering subroutine stress ...

          total   stress  (Ry/bohr**3)                   (kbar)     P=   -0.20
  -0.00000330   0.00000007  -0.00000003         -0.48      0.01      0.00
   0.00000007   0.00000001   0.00000093          0.01      0.00      0.14
  -0.00000003   0.00000093  -0.00000079          0.00      0.14     -0.12

     Writing output data file NaCl_pegs+pwscf.save

     General routines

     Parallel routines

     PAW routines

   This run was terminated on:   0: 9:20  23Mar2018

   JOB DONE.