     Program PWSCF v.5.0.2 starts on 23Mar2018 at  0: 4:47

     Current dimensions of program PWSCF are:
     Max number of different atomic species (ntypx) = 10
     Max number of k-points (npk) =  40000
     Max angular momentum in pseudopotentials (lmaxx) =  3
     Waiting for input...
     Reading input from standard input
               file Na.pbe-spn-kjpaw_psl.0.2.UPF: wavefunction(s)  2P 3P renormalized
               file Cl.pbe-n-kjpaw_psl.0.1.UPF: wavefunction(s)  3S 3P renormalized

     bravais-lattice index     =            0
     lattice parameter (alat)  =       7.2978  a.u.
     unit-cell volume          =     313.4450 (a.u.)^3
     number of atoms/cell      =            2
     number of atomic types    =            2
     number of electrons       =        16.00
     number of Kohn-Sham states=            8
     kinetic-energy cutoff     =      60.0000  Ry
     charge density cutoff     =     240.0000  Ry
     convergence threshold     =      1.0E-08
     mixing beta               =       0.7000
     number of iterations used =            8  plain     mixing
     Exchange-correlation      =  SLA  PW   PBX  PBC ( 1 4 3 4 0)
     EXX-fraction              =        0.00
     nstep                     =           50

     celldm(1)=   7.297791  celldm(2)=   0.000000  celldm(3)=   0.000000
     celldm(4)=   0.000000  celldm(5)=   0.000000  celldm(6)=   0.000000

     crystal axes: (cart. coord. in units of alat)
               a(1) = (   1.000000   0.000000   0.000000 )
               a(2) = (   1.444125   0.911015   0.000000 )
               a(3) = (  -0.035573   0.657313   0.885241 )

     reciprocal axes: (cart. coord. in units 2 pi/alat)
               b(1) = (  1.000000 -1.585182  1.217221 )
               b(2) = (  0.000000  1.097677 -0.815052 )
               b(3) = (  0.000000  0.000000  1.129636 )

     PseudoPot. # 1 for Na read from file:
     /projects/e20438/bin/espresso/pseudo/Na.pbe-spn-kjpaw_psl.0.2.UPF
     MD5 check sum: af6cebf537ceac8ff9d4cdfd6fc7ff14
     Pseudo is Projector augmented-wave, Zval =  9.0
     Generated using "atomic" code by A. Dal Corso  v.5.0.2 svn rev. 9415
     Shape of augmentation charge: PSQ
     Using radial grid of 1121 points,  4 beta functions with:
                l(1) =   0
                l(2) =   0
                l(3) =   1
                l(4) =   1
     Q(r) pseudized with 0 coefficients

     PseudoPot. # 2 for Cl read from file:
     /projects/e20438/bin/espresso/pseudo/Cl.pbe-n-kjpaw_psl.0.1.UPF
     MD5 check sum: 39501d8aaca1fada178cfed307344fc1
     Pseudo is Projector augmented-wave + core cor, Zval =  7.0
     Generated using "atomic" code by A. Dal Corso  v.5.0.2 svn rev. 9415
     Shape of augmentation charge: PSQ
     Using radial grid of 1157 points,  4 beta functions with:
                l(1) =   0
                l(2) =   0
                l(3) =   1
                l(4) =   1
     Q(r) pseudized with 0 coefficients

     atomic species   valence    mass     pseudopotential
        Na             9.00    22.98977     Na( 1.00)
        Cl             7.00    35.45270     Cl( 1.00)

     No symmetry found

   Cartesian axes

     site n.     atom                  positions (alat units)
         1           Na  tau(   1) = (   1.4579462   0.7422162   0.0507967  )
         2           Cl  tau(   2) = (   1.9223734   1.0795696   0.5063368  )

     number of k points=    31
                       cart. coord. in units 2pi/alat
        k(    1) = (   0.0000000   0.0000000   0.0000000), wk =   0.0333333
        k(    2) = (   0.0000000   0.0000000   0.2259272), wk =   0.0666667
        k(    3) = (   0.0000000   0.0000000   0.4518544), wk =   0.0666667
        k(    4) = (   0.0000000   0.2744192  -0.2037629), wk =   0.0666667
        k(    5) = (   0.0000000   0.2744192   0.0221643), wk =   0.0666667
        k(    6) = (   0.0000000   0.2744192   0.2480915), wk =   0.0666667
        k(    7) = (   0.0000000   0.2744192  -0.6556173), wk =   0.0666667
        k(    8) = (   0.0000000   0.2744192  -0.4296901), wk =   0.0666667
        k(    9) = (   0.0000000  -0.5488383   0.4075258), wk =   0.0333333
        k(   10) = (   0.0000000  -0.5488383   0.6334530), wk =   0.0666667
        k(   11) = (   0.0000000  -0.5488383   0.8593802), wk =   0.0666667
        k(   12) = (   0.3333333  -0.5283939   0.4057403), wk =   0.0666667
        k(   13) = (   0.3333333  -0.5283939   0.6316674), wk =   0.0666667
        k(   14) = (   0.3333333  -0.5283939   0.8575946), wk =   0.0666667
        k(   15) = (   0.3333333  -0.5283939  -0.0461141), wk =   0.0666667
        k(   16) = (   0.3333333  -0.5283939   0.1798131), wk =   0.0666667
        k(   17) = (   0.3333333  -0.2539748   0.2019773), wk =   0.0666667
        k(   18) = (   0.3333333  -0.2539748   0.4279045), wk =   0.0666667
        k(   19) = (   0.3333333  -0.2539748   0.6538317), wk =   0.0666667
        k(   20) = (   0.3333333  -0.2539748  -0.2498770), wk =   0.0666667
        k(   21) = (   0.3333333  -0.2539748  -0.0239498), wk =   0.0666667
        k(   22) = (   0.3333333  -1.0772322   0.8132661), wk =   0.0666667
        k(   23) = (   0.3333333  -1.0772322   1.0391933), wk =   0.0666667
        k(   24) = (   0.3333333  -1.0772322   1.2651205), wk =   0.0666667
        k(   25) = (   0.3333333  -1.0772322   0.3614117), wk =   0.0666667
        k(   26) = (   0.3333333  -1.0772322   0.5873389), wk =   0.0666667
        k(   27) = (   0.3333333  -0.8028131   0.6095032), wk =   0.0666667
        k(   28) = (   0.3333333  -0.8028131   0.8354304), wk =   0.0666667
        k(   29) = (   0.3333333  -0.8028131   1.0613575), wk =   0.0666667
        k(   30) = (   0.3333333  -0.8028131   0.1576488), wk =   0.0666667
        k(   31) = (   0.3333333  -0.8028131   0.3835760), wk =   0.0666667

     Largest allocated arrays     est. size (Mb)     dimensions
     Largest temporary arrays     est. size (Mb)     dimensions

     Check: negative/imaginary core charge=   -0.000005    0.000000

     Initial potential from superposition of free atoms

     starting charge   15.49915, renormalised to   16.00000
     Starting wfc are   12 randomized atomic wfcs
     Checking if some PAW data can be deallocated...

     Self-consistent Calculation

     iteration #  1     ecut=    60.00 Ry     beta=0.70
     CG style diagonalization
     ethr =  1.00E-02,  avg # of iterations =  2.0

     total energy              =    -188.77142502 Ry
     Harris-Foulkes estimate   =    -188.92336307 Ry
     estimated scf accuracy    <       0.18252477 Ry

[...]

     iteration #  6     ecut=    60.00 Ry     beta=0.70
     CG style diagonalization
     c_bands:  1 eigenvalues not converged
     ethr =  9.99E-07,  avg # of iterations =  5.3

[...]

     End of self-consistent calculation

          k = 0.0000 0.0000 0.0000 (  2451 PWs)   bands (ev):

   -48.2167 -20.1362 -20.1245 -20.1202 -11.7793   0.6510   0.7675   1.0128

[...]

!    total energy              =    -188.84904008 Ry
     Harris-Foulkes estimate   =    -188.84904009 Ry
     estimated scf accuracy    <          2.5E-09 Ry

     total all-electron energy =     -1248.136033 Ry

     The total energy is the sum of the following terms:

     one-electron contribution =     -82.28096797 Ry
     hartree contribution      =      42.73226346 Ry
     xc contribution           =     -24.66866895 Ry
     ewald contribution        =     -68.01261231 Ry
     one-center paw contrib.   =     -56.61905431 Ry

     convergence has been achieved in  21 iterations

     Forces acting on atoms (Ry/au):

     atom    1 type  1   force =    -0.00177883    0.00103920    0.00137116
     atom    2 type  2   force =     0.00177883   -0.00103920   -0.00137116

     Total force =     0.003500     Total SCF correction =     0.000026

     entering subroutine stress ...

          total   stress  (Ry/bohr**3)                   (kbar)     P=   -0.41
   0.00007682   0.00004543   0.00000184         11.30      6.68      0.27
   0.00004543  -0.00001572  -0.00004000          6.68     -2.31     -5.88
   0.00000184  -0.00004000  -0.00006938          0.27     -5.88    -10.21

     BFGS Geometry Optimization

     number of scf cycles    =   1
     number of bfgs steps    =   0

     enthalpy new            =    -188.8490400847 Ry

     new trust radius        =       0.0079020302 bohr
     new conv_thr            =       0.0000000100 Ry

     new unit-cell volume =    313.37827 a.u.^3 (    46.43787 Ang^3 )

CELL_PARAMETERS (alat=  7.29779094)
   1.001920444   0.001135821   0.000045975
   1.447932623   0.912297310  -0.000844722
  -0.034854178   0.656128901   0.883046430

ATOMIC_POSITIONS (crystal)
Na       0.342988746   0.773314558   0.057594014
Cl       0.827623787   0.772324510   0.571763961

     Writing output data file NaCl_pegs+pwscf.save
     NEW-OLD atomic charge density approx. for the potential
     NEW k-points:
        k(    1) = (   0.0000000   0.0000000   0.0000000), wk =   0.0333333
        k(    2) = (  -0.0000106   0.0002264   0.2263200), wk =   0.0666667
        k(    3) = (  -0.0000213   0.0004529   0.4526400), wk =   0.0666667
        k(    4) = (  -0.0003016   0.2743235  -0.2038421), wk =   0.0666667
        k(    5) = (  -0.0003123   0.2745499   0.0224779), wk =   0.0666667
        k(    6) = (  -0.0003229   0.2747763   0.2487978), wk =   0.0666667
        k(    7) = (  -0.0002803   0.2738706  -0.6564821), wk =   0.0666667
        k(    8) = (  -0.0002910   0.2740970  -0.4301621), wk =   0.0666667
        k(    9) = (   0.0006033  -0.5486469   0.4076843), wk =   0.0333333
        k(   10) = (   0.0005926  -0.5484205   0.6340042), wk =   0.0666667
        k(   11) = (   0.0005820  -0.5481940   0.8603242), wk =   0.0666667
        k(   12) = (   0.3332750  -0.5285743   0.4059004), wk =   0.0666667
        k(   13) = (   0.3332644  -0.5283478   0.6322204), wk =   0.0666667
        k(   14) = (   0.3332537  -0.5281214   0.8585403), wk =   0.0666667
        k(   15) = (   0.3332963  -0.5290272  -0.0467396), wk =   0.0666667
        k(   16) = (   0.3332856  -0.5288007   0.1795804), wk =   0.0666667
        k(   17) = (   0.3329734  -0.2542508   0.2020582), wk =   0.0666667
        k(   18) = (   0.3329627  -0.2540244   0.4283782), wk =   0.0666667
        k(   19) = (   0.3329521  -0.2537979   0.6546982), wk =   0.0666667
        k(   20) = (   0.3329947  -0.2547037  -0.2505817), wk =   0.0666667
        k(   21) = (   0.3329840  -0.2544772  -0.0242617), wk =   0.0666667
        k(   22) = (   0.3338783  -1.0772212   0.8135846), wk =   0.0666667
        k(   23) = (   0.3338676  -1.0769947   1.0399046), wk =   0.0666667
        k(   24) = (   0.3338570  -1.0767683   1.2662246), wk =   0.0666667
        k(   25) = (   0.3338995  -1.0776741   0.3609447), wk =   0.0666667
        k(   26) = (   0.3338889  -1.0774476   0.5872646), wk =   0.0666667
        k(   27) = (   0.3335766  -0.8028977   0.6097425), wk =   0.0666667
        k(   28) = (   0.3335660  -0.8026713   0.8360625), wk =   0.0666667
        k(   29) = (   0.3335553  -0.8024448   1.0623825), wk =   0.0666667
        k(   30) = (   0.3335979  -0.8033506   0.1571025), wk =   0.0666667
        k(   31) = (   0.3335873  -0.8031242   0.3834225), wk =   0.0666667

     Check: negative/imaginary core charge=   -0.000005    0.000000
     extrapolated charge   15.99670, renormalised to   16.00000

[...]

          k =-0.0003 0.2743-0.2038 (  2445 PWs)   bands (ev):

[...]

     enthalpy old            =    -188.8490400847 Ry
     enthalpy new            =    -188.8491927818 Ry

     CASE: enthalpy_new < enthalpy_old

     WARNING: bfgs curvature condition failed, Theta= 0.830
     new trust radius        =       0.0118246533 bohr
     new conv_thr            =       0.0000000002 Ry

[...]

     Threshold (ethr) on eigenvalues was too large:
     Diagonalizing with lowered threshold

     CG style diagonalization
     ethr =  7.44E-08,  avg # of iterations =  4.6

[...]

     WARNING: bfgs curvature condition failed, Theta= 0.836
     new trust radius        =       0.0007691592 bohr
     new conv_thr            =            1.0E-10 Ry

[...]

     Threshold (ethr) on eigenvalues was too large:
     Diagonalizing with lowered threshold

     CG style diagonalization
     ethr =  6.13E-08,  avg # of iterations =  5.0

[...]

     number of scf cycles    =  16
     number of bfgs steps    =  15

     enthalpy old            =    -188.8511678806 Ry
     enthalpy new            =    -188.8511687206 Ry

     CASE: enthalpy_new < enthalpy_old

     new trust radius        =       0.0025970927 bohr
     new conv_thr            =            1.0E-10 Ry

     new unit-cell volume =    312.13856 a.u.^3 (    46.25416 Ang^3 )

[...]

ATOMIC_POSITIONS (crystal)
Na       0.335220736   0.772768915   0.064684835
Cl       0.835391797   0.772870153   0.564673141

     Writing output data file NaCl_pegs+pwscf.save
     NEW-OLD atomic charge density approx. for the potential
     NEW k-points:
        k(    1) = (   0.0000000   0.0000000   0.0000000), wk =   0.0333333
        k(    2) = (   0.0003310   0.0068177   0.2351309), wk =   0.0666667
        k(    3) = (   0.0006620   0.0136354   0.4702618), wk =   0.0666667
        k(    4) = (  -0.0089792   0.2710832  -0.2037036), wk =   0.0666667
        k(    5) = (  -0.0086482   0.2779009   0.0314273), wk =   0.0666667
        k(    6) = (  -0.0083172   0.2847185   0.2665582), wk =   0.0666667
        k(    7) = (  -0.0096412   0.2574478  -0.6739653), wk =   0.0666667
        k(    8) = (  -0.0093102   0.2642655  -0.4388345), wk =   0.0666667
        k(    9) = (   0.0179583  -0.5421663   0.4074071), wk =   0.0333333
        k(   10) = (   0.0182893  -0.5353487   0.6425380), wk =   0.0666667
        k(   11) = (   0.0186203  -0.5285310   0.8776689), wk =   0.0666667
        k(   12) = (   0.3362845  -0.5321649   0.4067499), wk =   0.0666667
        k(   13) = (   0.3366155  -0.5253473   0.6418808), wk =   0.0666667
        k(   14) = (   0.3369465  -0.5185296   0.8770117), wk =   0.0666667
        k(   15) = (   0.3356225  -0.5458003  -0.0635119), wk =   0.0666667
        k(   16) = (   0.3359535  -0.5389826   0.1716190), wk =   0.0666667
        k(   17) = (   0.3273054  -0.2610818   0.2030463), wk =   0.0666667
        k(   18) = (   0.3276363  -0.2542641   0.4381772), wk =   0.0666667
        k(   19) = (   0.3279673  -0.2474464   0.6733081), wk =   0.0666667
        k(   20) = (   0.3266434  -0.2747171  -0.2672154), wk =   0.0666667
        k(   21) = (   0.3269744  -0.2678995  -0.0320846), wk =   0.0666667
        k(   22) = (   0.3542429  -1.0743313   0.8141570), wk =   0.0666667
        k(   23) = (   0.3545739  -1.0675136   1.0492879), wk =   0.0666667
        k(   24) = (   0.3549049  -1.0606959   1.2844188), wk =   0.0666667
        k(   25) = (   0.3535809  -1.0879667   0.3438953), wk =   0.0666667
        k(   26) = (   0.3539119  -1.0811490   0.5790262), wk =   0.0666667
        k(   27) = (   0.3452637  -0.8032481   0.6104535), wk =   0.0666667
        k(   28) = (   0.3455947  -0.7964304   0.8455844), wk =   0.0666667
        k(   29) = (   0.3459257  -0.7896127   1.0807152), wk =   0.0666667
        k(   30) = (   0.3446017  -0.8168835   0.1401917), wk =   0.0666667
        k(   31) = (   0.3449327  -0.8100658   0.3753226), wk =   0.0666667

     Check: negative/imaginary core charge=   -0.000005    0.000000
     extrapolated charge   15.98482, renormalised to   16.00000

[...]

     bfgs converged in  17 scf cycles and  16 bfgs steps
     (criteria: energy < 0.10E-03, force < 0.10E-02, cell < 0.50E+00)

     End of BFGS Geometry Optimization

     Final enthalpy =    -188.8511694606 Ry
Begin final coordinates
     new unit-cell volume =    312.13856 a.u.^3 (    46.25416 Ang^3 )

CELL_PARAMETERS (alat=  7.29779094)
   1.046107516   0.032828706  -0.002424464
   1.540778048   0.950913262  -0.029740927
  -0.017917159   0.624978304   0.832493890

ATOMIC_POSITIONS (crystal)
Na       0.335220736   0.772768915   0.064684835
Cl       0.835391797   0.772870153   0.564673141
End final coordinates

     A final scf calculation at the relaxed structure.
     The G-vectors are recalculated for the final unit cell
     Results may differ from those at the preceding step.

     bravais-lattice index     =            0
     lattice parameter (alat)  =       7.2978  a.u.
     unit-cell volume          =     312.1386 (a.u.)^3
     number of atoms/cell      =            2
     number of atomic types    =            2
     number of electrons       =        16.00
     number of Kohn-Sham states=            8
     kinetic-energy cutoff     =      60.0000  Ry
     charge density cutoff     =     240.0000  Ry
     convergence threshold     =      1.0E-10
     mixing beta               =       0.7000
     number of iterations used =            8  plain     mixing
     Exchange-correlation      =  SLA  PW   PBX  PBC ( 1 4 3 4 0)
     EXX-fraction              =        0.00

     celldm(1)=   7.297791  celldm(2)=   0.000000  celldm(3)=   0.000000
     celldm(4)=   0.000000  celldm(5)=   0.000000  celldm(6)=   0.000000

     crystal axes: (cart. coord. in units of alat)
               a(1) = (   1.046108   0.032829  -0.002424 )
               a(2) = (   1.540778   0.950913  -0.029741 )
               a(3) = (  -0.017917   0.624978   0.832494 )

     reciprocal axes: (cart. coord. in units 2 pi/alat)
               b(1) = (  1.008854 -1.596495  1.220250 )
               b(2) = ( -0.035917  1.084333 -0.814814 )
               b(3) = (  0.001655  0.034088  1.175654 )

     PseudoPot. # 1 for Na read from file:
     /projects/e20438/bin/espresso/pseudo/Na.pbe-spn-kjpaw_psl.0.2.UPF
     MD5 check sum: af6cebf537ceac8ff9d4cdfd6fc7ff14
     Pseudo is Projector augmented-wave, Zval =  9.0
     Generated using "atomic" code by A. Dal Corso  v.5.0.2 svn rev. 9415
     Shape of augmentation charge: PSQ
     Using radial grid of 1121 points,  4 beta functions with:
                l(1) =   0
                l(2) =   0
                l(3) =   1
                l(4) =   1
     Q(r) pseudized with 0 coefficients

     PseudoPot. # 2 for Cl read from file:
     /projects/e20438/bin/espresso/pseudo/Cl.pbe-n-kjpaw_psl.0.1.UPF
     MD5 check sum: 39501d8aaca1fada178cfed307344fc1
     Pseudo is Projector augmented-wave + core cor, Zval =  7.0
     Generated using "atomic" code by A. Dal Corso  v.5.0.2 svn rev. 9415
     Shape of augmentation charge: PSQ
     Using radial grid of 1157 points,  4 beta functions with:
                l(1) =   0
                l(2) =   0
                l(3) =   1
                l(4) =   1
     Q(r) pseudized with 0 coefficients

     atomic species   valence    mass     pseudopotential
        Na             9.00    22.98977     Na( 1.00)
        Cl             7.00    35.45270     Cl( 1.00)

     No symmetry found

   Cartesian axes

     site n.     atom                  positions (alat units)
         1           Na  tau(   1) = (   1.5401833   0.7862677   0.0300541  )
         2           Cl  tau(   2) = (   2.0546137   1.1152658   0.4450757  )

     number of k points=    31
                       cart. coord. in units 2pi/alat
        k(    1) = (   0.0000000   0.0000000   0.0000000), wk =   0.0333333
        k(    2) = (   0.0003310   0.0068177   0.2351309), wk =   0.0666667
        k(    3) = (   0.0006620   0.0136354   0.4702618), wk =   0.0666667
        k(    4) = (  -0.0089792   0.2710832  -0.2037036), wk =   0.0666667
        k(    5) = (  -0.0086482   0.2779009   0.0314273), wk =   0.0666667
        k(    6) = (  -0.0083172   0.2847185   0.2665582), wk =   0.0666667
        k(    7) = (  -0.0096412   0.2574478  -0.6739653), wk =   0.0666667
        k(    8) = (  -0.0093102   0.2642655  -0.4388345), wk =   0.0666667
        k(    9) = (   0.0179583  -0.5421663   0.4074071), wk =   0.0333333
        k(   10) = (   0.0182893  -0.5353487   0.6425380), wk =   0.0666667
        k(   11) = (   0.0186203  -0.5285310   0.8776689), wk =   0.0666667
        k(   12) = (   0.3362845  -0.5321649   0.4067499), wk =   0.0666667
        k(   13) = (   0.3366155  -0.5253473   0.6418808), wk =   0.0666667
        k(   14) = (   0.3369465  -0.5185296   0.8770117), wk =   0.0666667
        k(   15) = (   0.3356225  -0.5458003  -0.0635119), wk =   0.0666667
        k(   16) = (   0.3359535  -0.5389826   0.1716190), wk =   0.0666667
        k(   17) = (   0.3273054  -0.2610818   0.2030463), wk =   0.0666667
        k(   18) = (   0.3276363  -0.2542641   0.4381772), wk =   0.0666667
        k(   19) = (   0.3279673  -0.2474464   0.6733081), wk =   0.0666667
        k(   20) = (   0.3266434  -0.2747171  -0.2672154), wk =   0.0666667
        k(   21) = (   0.3269744  -0.2678995  -0.0320846), wk =   0.0666667
        k(   22) = (   0.3542429  -1.0743313   0.8141570), wk =   0.0666667
        k(   23) = (   0.3545739  -1.0675136   1.0492879), wk =   0.0666667
        k(   24) = (   0.3549049  -1.0606959   1.2844188), wk =   0.0666667
        k(   25) = (   0.3535809  -1.0879667   0.3438953), wk =   0.0666667
        k(   26) = (   0.3539119  -1.0811490   0.5790262), wk =   0.0666667
        k(   27) = (   0.3452637  -0.8032481   0.6104535), wk =   0.0666667
        k(   28) = (   0.3455947  -0.7964304   0.8455844), wk =   0.0666667
        k(   29) = (   0.3459257  -0.7896127   1.0807152), wk =   0.0666667
        k(   30) = (   0.3446017  -0.8168835   0.1401917), wk =   0.0666667
        k(   31) = (   0.3449327  -0.8100658   0.3753226), wk =   0.0666667

     Largest allocated arrays     est. size (Mb)     dimensions
     Largest temporary arrays     est. size (Mb)     dimensions

     Check: negative/imaginary core charge=   -0.000006    0.000000

     Initial potential from superposition of free atoms

     starting charge   15.49915, renormalised to   16.00000
     Starting wfc are   12 randomized atomic wfcs
     Checking if some PAW data can be deallocated...

     Writing output data file NaCl_pegs+pwscf.save

     Self-consistent Calculation

[...]

     iteration # 14     ecut=    60.00 Ry     beta=0.70
     CG style diagonalization
     c_bands:  1 eigenvalues not converged
     ethr =  6.88E-09,  avg # of iterations =  5.5

[...]

     total energy              =    -188.85117734 Ry
     Harris-Foulkes estimate   =    -188.85117735 Ry
     estimated scf accuracy    <          1.1E-10 Ry

     iteration # 27     ecut=    60.00 Ry     beta=0.70
     CG style diagonalization
     ethr =  6.77E-13,  avg # of iterations =  5.2

     End of self-consistent calculation

[...]

          k =-0.0093 0.2643-0.4388 (  2453 PWs)   bands (ev):

[...]

          k = 0.3449-0.8101 0.3753 (  2451 PWs)   bands (ev):

   -48.1583 -20.0878 -20.0790 -20.0734 -11.4379  -0.6533  -0.0493   0.4272

!    total energy              =    -188.85117735 Ry
     Harris-Foulkes estimate   =    -188.85117734 Ry
     estimated scf accuracy    <          2.0E-11 Ry

     total all-electron energy =     -1248.138170 Ry

     The total energy is the sum of the following terms:

     one-electron contribution =     -82.13786772 Ry
     hartree contribution      =      42.67889919 Ry
     xc contribution           =     -24.66972146 Ry
     ewald contribution        =     -68.10341851 Ry
     one-center paw contrib.   =     -56.61906885 Ry

     convergence has been achieved in  27 iterations

     Forces acting on atoms (Ry/au):

     atom    1 type  1   force =     0.00004592    0.00001184   -0.00000397
     atom    2 type  2   force =    -0.00004592   -0.00001184    0.00000397

     Total force =     0.000067     Total SCF correction =     0.000001

     entering subroutine stress ...

          total   stress  (Ry/bohr**3)                   (kbar)     P=   -0.20
  -0.00000171   0.00000008   0.00000025         -0.25      0.01      0.04
   0.00000008  -0.00000139   0.00000047          0.01     -0.20      0.07
   0.00000025   0.00000047  -0.00000105          0.04      0.07     -0.15

     Writing output data file NaCl_pegs+pwscf.save

     General routines

     Parallel routines

     PAW routines

   This run was terminated on:   0: 9:29  23Mar2018

   JOB DONE.