     Program PWSCF v.5.0.2 starts on 23Mar2018 at  0: 4:47

     Current dimensions of program PWSCF are:
     Max number of different atomic species (ntypx) = 10
     Max number of k-points (npk) =  40000
     Max angular momentum in pseudopotentials (lmaxx) =  3
     Waiting for input...
     Reading input from standard input
               file Na.pbe-spn-kjpaw_psl.0.2.UPF: wavefunction(s)  2P 3P renormalized
               file Cl.pbe-n-kjpaw_psl.0.1.UPF: wavefunction(s)  3S 3P renormalized

     bravais-lattice index     =            0
     lattice parameter (alat)  =       7.7758  a.u.
     unit-cell volume          =     305.4113 (a.u.)^3
     number of atoms/cell      =            2
     number of atomic types    =            2
     number of electrons       =        16.00
     number of Kohn-Sham states=            8
     kinetic-energy cutoff     =      60.0000  Ry
     charge density cutoff     =     240.0000  Ry
     convergence threshold     =      1.0E-08
     mixing beta               =       0.7000
     number of iterations used =            8  plain     mixing
     Exchange-correlation      =  SLA  PW   PBX  PBC ( 1 4 3 4 0)
     EXX-fraction              =        0.00
     nstep                     =           50

     celldm(1)=   7.775823  celldm(2)=   0.000000  celldm(3)=   0.000000
     celldm(4)=   0.000000  celldm(5)=   0.000000  celldm(6)=   0.000000

     crystal axes: (cart. coord. in units of alat)
               a(1) = (   1.000000   0.000000   0.000000 )
               a(2) = (   0.492957   0.834054   0.000000 )
               a(3) = (   0.999940   0.534408   0.778847 )

     reciprocal axes: (cart. coord. in units 2 pi/alat)
               b(1) = (  1.000000 -0.591038 -0.878330 )
               b(2) = (  0.000000  1.198964 -0.822672 )
               b(3) = (  0.000000  0.000000  1.283949 )

     PseudoPot. # 1 for Na read from file:
     /projects/e20438/bin/espresso/pseudo/Na.pbe-spn-kjpaw_psl.0.2.UPF
     MD5 check sum: af6cebf537ceac8ff9d4cdfd6fc7ff14
     Pseudo is Projector augmented-wave, Zval =  9.0
     Generated using "atomic" code by A. Dal Corso  v.5.0.2 svn rev. 9415
     Shape of augmentation charge: PSQ
     Using radial grid of 1121 points,  4 beta functions with:
                l(1) =   0
                l(2) =   0
                l(3) =   1
                l(4) =   1
     Q(r) pseudized with 0 coefficients

     PseudoPot. # 2 for Cl read from file:
     /projects/e20438/bin/espresso/pseudo/Cl.pbe-n-kjpaw_psl.0.1.UPF
     MD5 check sum: 39501d8aaca1fada178cfed307344fc1
     Pseudo is Projector augmented-wave + core cor, Zval =  7.0
     Generated using "atomic" code by A. Dal Corso  v.5.0.2 svn rev. 9415
     Shape of augmentation charge: PSQ
     Using radial grid of 1157 points,  4 beta functions with:
                l(1) =   0
                l(2) =   0
                l(3) =   1
                l(4) =   1
     Q(r) pseudized with 0 coefficients

     atomic species   valence    mass     pseudopotential
        Na             9.00    22.98977     Na( 1.00)
        Cl             7.00    35.45270     Cl( 1.00)

     No symmetry found

   Cartesian axes

     site n.     atom                  positions (alat units)
         1           Na  tau(   1) = (   0.8132858   0.0171026   0.0127293  )
         2           Cl  tau(   2) = (   1.3132857   0.2842887   0.4021261  )

     number of k points=    62
                       cart. coord. in units 2pi/alat
        k(    1) = (   0.0000000   0.0000000   0.0000000), wk =   0.0166667
        k(    2) = (   0.0000000   0.0000000   0.2139916), wk =   0.0333333
        k(    3) = (   0.0000000   0.0000000   0.4279832), wk =   0.0333333
        k(    4) = (   0.0000000   0.0000000  -0.6419747), wk =   0.0166667
        k(    5) = (   0.0000000   0.2397927  -0.1645345), wk =   0.0333333
        k(    6) = (   0.0000000   0.2397927   0.0494571), wk =   0.0333333
        k(    7) = (   0.0000000   0.2397927   0.2634487), wk =   0.0333333
        k(    8) = (   0.0000000   0.2397927  -0.8065092), wk =   0.0333333
        k(    9) = (   0.0000000   0.2397927  -0.5925177), wk =   0.0333333
        k(   10) = (   0.0000000   0.2397927  -0.3785261), wk =   0.0333333
        k(   11) = (   0.0000000   0.4795855  -0.3290690), wk =   0.0333333
        k(   12) = (   0.0000000   0.4795855  -0.1150774), wk =   0.0333333
        k(   13) = (   0.0000000   0.4795855   0.0989142), wk =   0.0333333
        k(   14) = (   0.0000000   0.4795855  -0.9710437), wk =   0.0333333
        k(   15) = (   0.0000000   0.4795855  -0.7570521), wk =   0.0333333
        k(   16) = (   0.0000000   0.4795855  -0.5430606), wk =   0.0333333
        k(   17) = (   0.2500000  -0.1477595  -0.2195824), wk =   0.0333333
        k(   18) = (   0.2500000  -0.1477595  -0.0055908), wk =   0.0333333
        k(   19) = (   0.2500000  -0.1477595   0.2084008), wk =   0.0333333
        k(   20) = (   0.2500000  -0.1477595  -0.8615571), wk =   0.0333333
        k(   21) = (   0.2500000  -0.1477595  -0.6475656), wk =   0.0333333
        k(   22) = (   0.2500000  -0.1477595  -0.4335740), wk =   0.0333333
        k(   23) = (   0.2500000   0.0920332  -0.3841169), wk =   0.0333333
        k(   24) = (   0.2500000   0.0920332  -0.1701253), wk =   0.0333333
        k(   25) = (   0.2500000   0.0920332   0.0438663), wk =   0.0333333
        k(   26) = (   0.2500000   0.0920332  -1.0260916), wk =   0.0333333
        k(   27) = (   0.2500000   0.0920332  -0.8121000), wk =   0.0333333
        k(   28) = (   0.2500000   0.0920332  -0.5981085), wk =   0.0333333
        k(   29) = (   0.2500000   0.3318260  -0.5486514), wk =   0.0333333
        k(   30) = (   0.2500000   0.3318260  -0.3346598), wk =   0.0333333
        k(   31) = (   0.2500000   0.3318260  -0.1206682), wk =   0.0333333
        k(   32) = (   0.2500000   0.3318260  -1.1906261), wk =   0.0333333
        k(   33) = (   0.2500000   0.3318260  -0.9766345), wk =   0.0333333
        k(   34) = (   0.2500000   0.3318260  -0.7626429), wk =   0.0333333
        k(   35) = (   0.2500000  -0.6273449   0.1094866), wk =   0.0333333
        k(   36) = (   0.2500000  -0.6273449   0.3234782), wk =   0.0333333
        k(   37) = (   0.2500000  -0.6273449   0.5374698), wk =   0.0333333
        k(   38) = (   0.2500000  -0.6273449  -0.5324882), wk =   0.0333333
        k(   39) = (   0.2500000  -0.6273449  -0.3184966), wk =   0.0333333
        k(   40) = (   0.2500000  -0.6273449  -0.1045050), wk =   0.0333333
        k(   41) = (   0.2500000  -0.3875522  -0.0550479), wk =   0.0333333
        k(   42) = (   0.2500000  -0.3875522   0.1589437), wk =   0.0333333
        k(   43) = (   0.2500000  -0.3875522   0.3729353), wk =   0.0333333
        k(   44) = (   0.2500000  -0.3875522  -0.6970226), wk =   0.0333333
        k(   45) = (   0.2500000  -0.3875522  -0.4830311), wk =   0.0333333
        k(   46) = (   0.2500000  -0.3875522  -0.2690395), wk =   0.0333333
        k(   47) = (  -0.5000000   0.2955190   0.4391648), wk =   0.0166667
        k(   48) = (  -0.5000000   0.2955190   0.6531564), wk =   0.0333333
        k(   49) = (  -0.5000000   0.2955190   0.8671479), wk =   0.0333333
        k(   50) = (  -0.5000000   0.2955190  -0.2028100), wk =   0.0166667
        k(   51) = (  -0.5000000   0.5353117   0.2746303), wk =   0.0333333
        k(   52) = (  -0.5000000   0.5353117   0.4886219), wk =   0.0333333
        k(   53) = (  -0.5000000   0.5353117   0.7026135), wk =   0.0333333
        k(   54) = (  -0.5000000   0.5353117  -0.3673445), wk =   0.0333333
        k(   55) = (  -0.5000000   0.5353117  -0.1533529), wk =   0.0333333
        k(   56) = (  -0.5000000   0.5353117   0.0606387), wk =   0.0333333
        k(   57) = (  -0.5000000   0.7751044   0.1100958), wk =   0.0333333
        k(   58) = (  -0.5000000   0.7751044   0.3240874), wk =   0.0333333
        k(   59) = (  -0.5000000   0.7751044   0.5380790), wk =   0.0333333
        k(   60) = (  -0.5000000   0.7751044  -0.5318789), wk =   0.0333333
        k(   61) = (  -0.5000000   0.7751044  -0.3178874), wk =   0.0333333
        k(   62) = (  -0.5000000   0.7751044  -0.1038958), wk =   0.0333333

     Largest allocated arrays     est. size (Mb)     dimensions
     Largest temporary arrays     est. size (Mb)     dimensions

     Check: negative/imaginary core charge=   -0.000006    0.000000

     Initial potential from superposition of free atoms

     starting charge   15.49915, renormalised to   16.00000
     Starting wfc are   12 randomized atomic wfcs
     Checking if some PAW data can be deallocated...

     Self-consistent Calculation

     iteration #  1     ecut=    60.00 Ry     beta=0.70
     CG style diagonalization
     ethr =  1.00E-02,  avg # of iterations =  2.0

     total energy              =    -188.77329170 Ry
     Harris-Foulkes estimate   =    -188.92397620 Ry
     estimated scf accuracy    <       0.18095613 Ry

[...]

     iteration #  5     ecut=    60.00 Ry     beta=0.70
     CG style diagonalization
     c_bands:  1 eigenvalues not converged
     c_bands:  1 eigenvalues not converged
     ethr =  8.87E-07,  avg # of iterations =  7.9

[...]

     End of self-consistent calculation

          k = 0.0000 0.0000 0.0000 (  2413 PWs)   bands (ev):

   -47.9611 -19.8762 -19.8720 -19.8678 -11.6604   0.8750   0.9768   1.0881

[...]

          k =-0.5000 0.2955 0.4392 (  2402 PWs)   bands (ev):

[...]

!    total energy              =    -188.85084495 Ry
     Harris-Foulkes estimate   =    -188.85084496 Ry
     estimated scf accuracy    <          8.0E-09 Ry

     total all-electron energy =     -1248.137837 Ry

     The total energy is the sum of the following terms:

     one-electron contribution =     -81.31065458 Ry
     hartree contribution      =      42.36895024 Ry
     xc contribution           =     -24.67696781 Ry
     ewald contribution        =     -68.61211896 Ry
     one-center paw contrib.   =     -56.62005383 Ry

     convergence has been achieved in  19 iterations

     Forces acting on atoms (Ry/au):

     atom    1 type  1   force =     0.00000684   -0.00000440   -0.00000174
     atom    2 type  2   force =    -0.00000684    0.00000440    0.00000174

     Total force =     0.000012     Total SCF correction =     0.000036
     SCF correction compared to forces is large: reduce conv_thr to get better values

     entering subroutine stress ...

          total   stress  (Ry/bohr**3)                   (kbar)     P=    5.63
  -0.00000833   0.00000799  -0.00000539         -1.23      1.18     -0.79
   0.00000799   0.00005222   0.00002547          1.18      7.68      3.75
  -0.00000539   0.00002547   0.00007089         -0.79      3.75     10.43

     BFGS Geometry Optimization

     number of scf cycles    =   1
     number of bfgs steps    =   0

     enthalpy new            =    -188.8508449522 Ry

     new trust radius        =       0.0065990141 bohr
     new conv_thr            =       0.0000000100 Ry

     new unit-cell volume =    306.28803 a.u.^3 (    45.38720 Ang^3 )

CELL_PARAMETERS (alat=  7.77582279)
   0.999791717   0.000199716  -0.000134871
   0.493021233   0.835240885   0.000464588
[...]

[...]

     number of scf cycles    =  10
     number of bfgs steps    =   9

     enthalpy old            =    -188.8513618584 Ry
     enthalpy new            =    -188.8513708728 Ry

     CASE: enthalpy_new < enthalpy_old

     new trust radius        =       0.0044837309 bohr
     new conv_thr            =            1.0E-10 Ry

     new unit-cell volume =    311.59733 a.u.^3 (    46.17396 Ang^3 )

[...]

ATOMIC_POSITIONS (crystal)
Na       0.792018660   0.010039211   0.016330260
Cl       0.792039401   0.010027910   0.516323115

     Writing output data file NaCl_pegs+pwscf.save
     NEW-OLD atomic charge density approx. for the potential
     NEW k-points:
        k(    1) = (   0.0000000   0.0000000   0.0000000), wk =   0.0166667
        k(    2) = (   0.0006365  -0.0029219   0.2085742), wk =   0.0333333
        k(    3) = (   0.0012729  -0.0058437   0.4171484), wk =   0.0333333
        k(    4) = (  -0.0019094   0.0087656  -0.6257227), wk =   0.0166667
        k(    5) = (  -0.0015394   0.2383437  -0.1636431), wk =   0.0333333
        k(    6) = (  -0.0009029   0.2354218   0.0449311), wk =   0.0333333
        k(    7) = (  -0.0002665   0.2324999   0.2535053), wk =   0.0333333
        k(    8) = (  -0.0034488   0.2471093  -0.7893658), wk =   0.0333333
        k(    9) = (  -0.0028123   0.2441874  -0.5807916), wk =   0.0333333
        k(   10) = (  -0.0021759   0.2412655  -0.3722174), wk =   0.0333333
        k(   11) = (  -0.0030788   0.4766874  -0.3272863), wk =   0.0333333
        k(   12) = (  -0.0024423   0.4737655  -0.1187121), wk =   0.0333333
        k(   13) = (  -0.0018059   0.4708436   0.0898622), wk =   0.0333333
        k(   14) = (  -0.0049882   0.4854530  -0.9530090), wk =   0.0333333
        k(   15) = (  -0.0043517   0.4825311  -0.7444347), wk =   0.0333333
        k(   16) = (  -0.0037153   0.4796092  -0.5358605), wk =   0.0333333
        k(   17) = (   0.2553870  -0.1435814  -0.2112610), wk =   0.0333333
        k(   18) = (   0.2560235  -0.1465032  -0.0026867), wk =   0.0333333
        k(   19) = (   0.2566600  -0.1494251   0.2058875), wk =   0.0333333
        k(   20) = (   0.2534776  -0.1348158  -0.8369836), wk =   0.0333333
        k(   21) = (   0.2541141  -0.1377376  -0.6284094), wk =   0.0333333
        k(   22) = (   0.2547506  -0.1406595  -0.4198352), wk =   0.0333333
        k(   23) = (   0.2538476   0.0947623  -0.3749041), wk =   0.0333333
        k(   24) = (   0.2544841   0.0918405  -0.1663299), wk =   0.0333333
        k(   25) = (   0.2551206   0.0889186   0.0422443), wk =   0.0333333
        k(   26) = (   0.2519382   0.1035279  -1.0006268), wk =   0.0333333
        k(   27) = (   0.2525747   0.1006061  -0.7920525), wk =   0.0333333
        k(   28) = (   0.2532112   0.0976842  -0.5834783), wk =   0.0333333
        k(   29) = (   0.2523082   0.3331060  -0.5385472), wk =   0.0333333
        k(   30) = (   0.2529447   0.3301841  -0.3299730), wk =   0.0333333
        k(   31) = (   0.2535812   0.3272623  -0.1213988), wk =   0.0333333
        k(   32) = (   0.2503988   0.3418716  -1.1642699), wk =   0.0333333
        k(   33) = (   0.2510353   0.3389497  -0.9556957), wk =   0.0333333
        k(   34) = (   0.2516718   0.3360279  -0.7471215), wk =   0.0333333
        k(   35) = (   0.2584658  -0.6202687   0.1160253), wk =   0.0333333
        k(   36) = (   0.2591023  -0.6231906   0.3245996), wk =   0.0333333
        k(   37) = (   0.2597388  -0.6261124   0.5331738), wk =   0.0333333
        k(   38) = (   0.2565564  -0.6115031  -0.5096973), wk =   0.0333333
        k(   39) = (   0.2571929  -0.6144250  -0.3011231), wk =   0.0333333
        k(   40) = (   0.2578294  -0.6173468  -0.0925489), wk =   0.0333333
        k(   41) = (   0.2569264  -0.3819250  -0.0476178), wk =   0.0333333
        k(   42) = (   0.2575629  -0.3848469   0.1609564), wk =   0.0333333
        k(   43) = (   0.2581994  -0.3877688   0.3695306), wk =   0.0333333
        k(   44) = (   0.2550170  -0.3731594  -0.6733405), wk =   0.0333333
        k(   45) = (   0.2556535  -0.3760813  -0.4647663), wk =   0.0333333
        k(   46) = (   0.2562900  -0.3790032  -0.2561920), wk =   0.0333333
        k(   47) = (  -0.5107741   0.2871627   0.4225219), wk =   0.0166667
        k(   48) = (  -0.5101376   0.2842408   0.6310961), wk =   0.0333333
        k(   49) = (  -0.5095011   0.2813190   0.8396704), wk =   0.0333333
        k(   50) = (  -0.5126835   0.2959283  -0.2032008), wk =   0.0166667
        k(   51) = (  -0.5123135   0.5255064   0.2588788), wk =   0.0333333
        k(   52) = (  -0.5116770   0.5225845   0.4674530), wk =   0.0333333
        k(   53) = (  -0.5110405   0.5196627   0.6760272), wk =   0.0333333
        k(   54) = (  -0.5142229   0.5342720  -0.3668439), wk =   0.0333333
        k(   55) = (  -0.5135864   0.5313501  -0.1582697), wk =   0.0333333
        k(   56) = (  -0.5129499   0.5284283   0.0503045), wk =   0.0333333
        k(   57) = (  -0.5138529   0.7638501   0.0952356), wk =   0.0333333
        k(   58) = (  -0.5132164   0.7609282   0.3038099), wk =   0.0333333
        k(   59) = (  -0.5125799   0.7580063   0.5123841), wk =   0.0333333
        k(   60) = (  -0.5157623   0.7726157  -0.5304870), wk =   0.0333333
        k(   61) = (  -0.5151258   0.7696938  -0.3219128), wk =   0.0333333
        k(   62) = (  -0.5144893   0.7667719  -0.1133386), wk =   0.0333333

     Check: negative/imaginary core charge=   -0.000005    0.000000
     extrapolated charge   15.96839, renormalised to   16.00000

[...]

     Total force =     0.000002     Total SCF correction =     0.000000

[...]

     bfgs converged in  11 scf cycles and  10 bfgs steps
     (criteria: energy < 0.10E-03, force < 0.10E-02, cell < 0.50E+00)

     End of BFGS Geometry Optimization

     Final enthalpy =    -188.8513728941 Ry
Begin final coordinates
     new unit-cell volume =    311.59733 a.u.^3 (    46.17396 Ang^3 )

CELL_PARAMETERS (alat=  7.77582279)
   0.978910173   0.004313062  -0.002926757
   0.486166772   0.849415708   0.010415706
   0.978877180   0.558274488   0.803909702

ATOMIC_POSITIONS (crystal)
Na       0.792018660   0.010039211   0.016330260
Cl       0.792039401   0.010027910   0.516323115
End final coordinates

     A final scf calculation at the relaxed structure.
     The G-vectors are recalculated for the final unit cell
     Results may differ from those at the preceding step.

     bravais-lattice index     =            0
     lattice parameter (alat)  =       7.7758  a.u.
     unit-cell volume          =     311.5973 (a.u.)^3
     number of atoms/cell      =            2
     number of atomic types    =            2
     number of electrons       =        16.00
     number of Kohn-Sham states=            8
     kinetic-energy cutoff     =      60.0000  Ry
     charge density cutoff     =     240.0000  Ry
     convergence threshold     =      1.0E-10
     mixing beta               =       0.7000
     number of iterations used =            8  plain     mixing
     Exchange-correlation      =  SLA  PW   PBX  PBC ( 1 4 3 4 0)
     EXX-fraction              =        0.00

     celldm(1)=   7.775823  celldm(2)=   0.000000  celldm(3)=   0.000000
     celldm(4)=   0.000000  celldm(5)=   0.000000  celldm(6)=   0.000000

     crystal axes: (cart. coord. in units of alat)
               a(1) = (   0.978910   0.004313  -0.002927 )
               a(2) = (   0.486167   0.849416   0.010416 )
               a(3) = (   0.978877   0.558274   0.803910 )

     reciprocal axes: (cart. coord. in units 2 pi/alat)
               b(1) = (  1.021548 -0.574325 -0.845044 )
               b(2) = ( -0.007697  1.191718 -0.818216 )
               b(3) = (  0.003819 -0.017531  1.251445 )

     PseudoPot. # 1 for Na read from file:
     /projects/e20438/bin/espresso/pseudo/Na.pbe-spn-kjpaw_psl.0.2.UPF
     MD5 check sum: af6cebf537ceac8ff9d4cdfd6fc7ff14
     Pseudo is Projector augmented-wave, Zval =  9.0
     Generated using "atomic" code by A. Dal Corso  v.5.0.2 svn rev. 9415
     Shape of augmentation charge: PSQ
     Using radial grid of 1121 points,  4 beta functions with:
                l(1) =   0
                l(2) =   0
                l(3) =   1
                l(4) =   1
     Q(r) pseudized with 0 coefficients

     PseudoPot. # 2 for Cl read from file:
     /projects/e20438/bin/espresso/pseudo/Cl.pbe-n-kjpaw_psl.0.1.UPF
     MD5 check sum: 39501d8aaca1fada178cfed307344fc1
     Pseudo is Projector augmented-wave + core cor, Zval =  7.0
     Generated using "atomic" code by A. Dal Corso  v.5.0.2 svn rev. 9415
     Shape of augmentation charge: PSQ
     Using radial grid of 1157 points,  4 beta functions with:
                l(1) =   0
                l(2) =   0
                l(3) =   1
                l(4) =   1
     Q(r) pseudized with 0 coefficients

     atomic species   valence    mass     pseudopotential
        Na             9.00    22.98977     Na( 1.00)
        Cl             7.00    35.45270     Cl( 1.00)

     No symmetry found

   Cartesian axes

     site n.     atom                  positions (alat units)
         1           Na  tau(   1) = (   0.7961812   0.0210603   0.0109146  )
         2           Cl  tau(   2) = (   1.2856276   0.3001840   0.4128635  )

     number of k points=    62
                       cart. coord. in units 2pi/alat
        k(    1) = (   0.0000000   0.0000000   0.0000000), wk =   0.0166667
        k(    2) = (   0.0006365  -0.0029219   0.2085742), wk =   0.0333333
        k(    3) = (   0.0012729  -0.0058437   0.4171484), wk =   0.0333333
        k(    4) = (  -0.0019094   0.0087656  -0.6257227), wk =   0.0166667
        k(    5) = (  -0.0015394   0.2383437  -0.1636431), wk =   0.0333333
        k(    6) = (  -0.0009029   0.2354218   0.0449311), wk =   0.0333333
        k(    7) = (  -0.0002665   0.2324999   0.2535053), wk =   0.0333333
        k(    8) = (  -0.0034488   0.2471093  -0.7893658), wk =   0.0333333
        k(    9) = (  -0.0028123   0.2441874  -0.5807916), wk =   0.0333333
        k(   10) = (  -0.0021759   0.2412655  -0.3722174), wk =   0.0333333
        k(   11) = (  -0.0030788   0.4766874  -0.3272863), wk =   0.0333333
        k(   12) = (  -0.0024423   0.4737655  -0.1187121), wk =   0.0333333
        k(   13) = (  -0.0018059   0.4708436   0.0898622), wk =   0.0333333
        k(   14) = (  -0.0049882   0.4854530  -0.9530090), wk =   0.0333333
        k(   15) = (  -0.0043517   0.4825311  -0.7444347), wk =   0.0333333
        k(   16) = (  -0.0037153   0.4796092  -0.5358605), wk =   0.0333333
        k(   17) = (   0.2553870  -0.1435814  -0.2112610), wk =   0.0333333
        k(   18) = (   0.2560235  -0.1465032  -0.0026867), wk =   0.0333333
        k(   19) = (   0.2566600  -0.1494251   0.2058875), wk =   0.0333333
        k(   20) = (   0.2534776  -0.1348158  -0.8369836), wk =   0.0333333
        k(   21) = (   0.2541141  -0.1377376  -0.6284094), wk =   0.0333333
        k(   22) = (   0.2547506  -0.1406595  -0.4198352), wk =   0.0333333
        k(   23) = (   0.2538476   0.0947623  -0.3749041), wk =   0.0333333
        k(   24) = (   0.2544841   0.0918405  -0.1663299), wk =   0.0333333
        k(   25) = (   0.2551206   0.0889186   0.0422443), wk =   0.0333333
        k(   26) = (   0.2519382   0.1035279  -1.0006268), wk =   0.0333333
        k(   27) = (   0.2525747   0.1006061  -0.7920525), wk =   0.0333333
        k(   28) = (   0.2532112   0.0976842  -0.5834783), wk =   0.0333333
        k(   29) = (   0.2523082   0.3331060  -0.5385472), wk =   0.0333333
        k(   30) = (   0.2529447   0.3301841  -0.3299730), wk =   0.0333333
        k(   31) = (   0.2535812   0.3272623  -0.1213988), wk =   0.0333333
        k(   32) = (   0.2503988   0.3418716  -1.1642699), wk =   0.0333333
        k(   33) = (   0.2510353   0.3389497  -0.9556957), wk =   0.0333333
        k(   34) = (   0.2516718   0.3360279  -0.7471215), wk =   0.0333333
        k(   35) = (   0.2584658  -0.6202687   0.1160253), wk =   0.0333333
        k(   36) = (   0.2591023  -0.6231906   0.3245996), wk =   0.0333333
        k(   37) = (   0.2597388  -0.6261124   0.5331738), wk =   0.0333333
        k(   38) = (   0.2565564  -0.6115031  -0.5096973), wk =   0.0333333
        k(   39) = (   0.2571929  -0.6144250  -0.3011231), wk =   0.0333333
        k(   40) = (   0.2578294  -0.6173468  -0.0925489), wk =   0.0333333
        k(   41) = (   0.2569264  -0.3819250  -0.0476178), wk =   0.0333333
        k(   42) = (   0.2575629  -0.3848469   0.1609564), wk =   0.0333333
        k(   43) = (   0.2581994  -0.3877688   0.3695306), wk =   0.0333333
        k(   44) = (   0.2550170  -0.3731594  -0.6733405), wk =   0.0333333
        k(   45) = (   0.2556535  -0.3760813  -0.4647663), wk =   0.0333333
        k(   46) = (   0.2562900  -0.3790032  -0.2561920), wk =   0.0333333
        k(   47) = (  -0.5107741   0.2871627   0.4225219), wk =   0.0166667
        k(   48) = (  -0.5101376   0.2842408   0.6310961), wk =   0.0333333
        k(   49) = (  -0.5095011   0.2813190   0.8396704), wk =   0.0333333
        k(   50) = (  -0.5126835   0.2959283  -0.2032008), wk =   0.0166667
        k(   51) = (  -0.5123135   0.5255064   0.2588788), wk =   0.0333333
        k(   52) = (  -0.5116770   0.5225845   0.4674530), wk =   0.0333333
        k(   53) = (  -0.5110405   0.5196627   0.6760272), wk =   0.0333333
        k(   54) = (  -0.5142229   0.5342720  -0.3668439), wk =   0.0333333
        k(   55) = (  -0.5135864   0.5313501  -0.1582697), wk =   0.0333333
        k(   56) = (  -0.5129499   0.5284283   0.0503045), wk =   0.0333333
        k(   57) = (  -0.5138529   0.7638501   0.0952356), wk =   0.0333333
        k(   58) = (  -0.5132164   0.7609282   0.3038099), wk =   0.0333333
        k(   59) = (  -0.5125799   0.7580063   0.5123841), wk =   0.0333333
        k(   60) = (  -0.5157623   0.7726157  -0.5304870), wk =   0.0333333
        k(   61) = (  -0.5151258   0.7696938  -0.3219128), wk =   0.0333333
        k(   62) = (  -0.5144893   0.7667719  -0.1133386), wk =   0.0333333

     Largest allocated arrays     est. size (Mb)     dimensions
     Largest temporary arrays     est. size (Mb)     dimensions

     Check: negative/imaginary core charge=   -0.000006    0.000000

     Initial potential from superposition of free atoms

     starting charge   15.49915, renormalised to   16.00000
     Starting wfc are   12 randomized atomic wfcs
     Checking if some PAW data can be deallocated...

     Writing output data file NaCl_pegs+pwscf.save

     Self-consistent Calculation

[...]

     iteration # 30     ecut=    60.00 Ry     beta=0.70
     CG style diagonalization
     c_bands:  1 eigenvalues not converged
     ethr =  1.67E-11,  avg # of iterations =  7.7

[...]

     total energy              =    -188.85138241 Ry
     Harris-Foulkes estimate   =    -188.85138241 Ry
     estimated scf accuracy    <          6.7E-10 Ry

     iteration # 34     ecut=    60.00 Ry     beta=0.70
     CG style diagonalization
     ethr =  2.59E-12,  avg # of iterations =  4.4

     End of self-consistent calculation

[...]

          k = 0.2563-0.3790-0.2562 (  2442 PWs)   bands (ev):

[...]

          k =-0.5145 0.7668-0.1133 (  2442 PWs)   bands (ev):

   -48.1407 -20.0689 -20.0597 -20.0589 -11.4329  -0.6624   0.1990   0.2779

!    total energy              =    -188.85138241 Ry
     Harris-Foulkes estimate   =    -188.85138241 Ry
     estimated scf accuracy    <          7.9E-11 Ry

     total all-electron energy =     -1248.138375 Ry

     The total energy is the sum of the following terms:

     one-electron contribution =     -82.07395105 Ry
     hartree contribution      =      42.65439541 Ry
     xc contribution           =     -24.66986439 Ry
     ewald contribution        =     -68.14277752 Ry
     one-center paw contrib.   =     -56.61918485 Ry

     convergence has been achieved in  34 iterations

     Forces acting on atoms (Ry/au):

     atom    1 type  1   force =    -0.00000160    0.00000046    0.00000020
     atom    2 type  2   force =     0.00000160   -0.00000046   -0.00000020

     Total force =     0.000002     Total SCF correction =     0.000001
     SCF correction compared to forces is large: reduce conv_thr to get better values

     entering subroutine stress ...

          total   stress  (Ry/bohr**3)                   (kbar)     P=   -0.08
  -0.00000053  -0.00000043   0.00000029         -0.08     -0.06      0.04
  -0.00000043  -0.00000029  -0.00000048         -0.06     -0.04     -0.07
   0.00000029  -0.00000048  -0.00000073          0.04     -0.07     -0.11

     Writing output data file NaCl_pegs+pwscf.save

     General routines

     Parallel routines

     PAW routines

   This run was terminated on:   0:11:55  23Mar2018

   JOB DONE.