     Program PWSCF v.5.0.2 starts on 23Mar2018 at  0: 4:48

     Current dimensions of program PWSCF are:
     Max number of different atomic species (ntypx) = 10
     Max number of k-points (npk) =  40000
     Max angular momentum in pseudopotentials (lmaxx) =  3
     Waiting for input...
     Reading input from standard input
               file Na.pbe-spn-kjpaw_psl.0.2.UPF: wavefunction(s)  2P 3P renormalized
               file Cl.pbe-n-kjpaw_psl.0.1.UPF: wavefunction(s)  3S 3P renormalized

     bravais-lattice index     =            0
     lattice parameter (alat)  =       7.7049  a.u.
     unit-cell volume          =     307.0695 (a.u.)^3
     number of atoms/cell      =            2
     number of atomic types    =            2
     number of electrons       =        16.00
     number of Kohn-Sham states=            8
     kinetic-energy cutoff     =      60.0000  Ry
     charge density cutoff     =     240.0000  Ry
     convergence threshold     =      1.0E-08
     mixing beta               =       0.7000
     number of iterations used =            8  plain     mixing
     Exchange-correlation      =  SLA  PW   PBX  PBC ( 1 4 3 4 0)
     EXX-fraction              =        0.00
     nstep                     =           50

     celldm(1)=   7.704894  celldm(2)=   0.000000  celldm(3)=   0.000000
     celldm(4)=   0.000000  celldm(5)=   0.000000  celldm(6)=   0.000000

     crystal axes: (cart. coord. in units of alat)
               a(1) = (   1.000000   0.000000   0.000000 )
               a(2) = (   0.581013   0.827514   0.000000 )
               a(3) = (   0.174886   1.112669   0.811262 )

     reciprocal axes: (cart. coord. in units 2 pi/alat)
               b(1) = (  1.000000 -0.702119  0.747403 )
               b(2) = (  0.000000  1.208439 -1.657408 )
               b(3) = (  0.000000  0.000000  1.232647 )

     PseudoPot. # 1 for Na read from file:
     /projects/e20438/bin/espresso/pseudo/Na.pbe-spn-kjpaw_psl.0.2.UPF
     MD5 check sum: af6cebf537ceac8ff9d4cdfd6fc7ff14
     Pseudo is Projector augmented-wave, Zval =  9.0
     Generated using "atomic" code by A. Dal Corso  v.5.0.2 svn rev. 9415
     Shape of augmentation charge: PSQ
     Using radial grid of 1121 points,  4 beta functions with:
                l(1) =   0
                l(2) =   0
                l(3) =   1
                l(4) =   1
     Q(r) pseudized with 0 coefficients

     PseudoPot. # 2 for Cl read from file:
     /projects/e20438/bin/espresso/pseudo/Cl.pbe-n-kjpaw_psl.0.1.UPF
     MD5 check sum: 39501d8aaca1fada178cfed307344fc1
     Pseudo is Projector augmented-wave + core cor, Zval =  7.0
     Generated using "atomic" code by A. Dal Corso  v.5.0.2 svn rev. 9415
     Shape of augmentation charge: PSQ
     Using radial grid of 1157 points,  4 beta functions with:
                l(1) =   0
                l(2) =   0
                l(3) =   1
                l(4) =   1
     Q(r) pseudized with 0 coefficients

     atomic species   valence    mass     pseudopotential
        Na             9.00    22.98977     Na( 1.00)
        Cl             7.00    35.45270     Cl( 1.00)

     No symmetry found

   Cartesian axes

     site n.     atom                  positions (alat units)
         1           Na  tau(   1) = (   0.6625011   1.2948393   0.4169399  )
         2           Cl  tau(   2) = (   0.5686281   0.7430269   0.0065033  )

     number of k points=    31
                       cart. coord. in units 2pi/alat
        k(    1) = (   0.0000000   0.0000000   0.0000000), wk =   0.0333333
        k(    2) = (   0.0000000   0.0000000   0.2465293), wk =   0.0666667
        k(    3) = (   0.0000000   0.0000000   0.4930587), wk =   0.0666667
        k(    4) = (   0.0000000   0.3021098  -0.4143520), wk =   0.0666667
        k(    5) = (   0.0000000   0.3021098  -0.1678227), wk =   0.0666667
        k(    6) = (   0.0000000   0.3021098   0.0787067), wk =   0.0666667
        k(    7) = (   0.0000000   0.3021098  -0.9074107), wk =   0.0666667
        k(    8) = (   0.0000000   0.3021098  -0.6608814), wk =   0.0666667
        k(    9) = (   0.0000000  -0.6042196   0.8287040), wk =   0.0333333
        k(   10) = (   0.0000000  -0.6042196   1.0752334), wk =   0.0666667
        k(   11) = (   0.0000000  -0.6042196   1.3217627), wk =   0.0666667
        k(   12) = (   0.3333333  -0.2340397   0.2491344), wk =   0.0666667
        k(   13) = (   0.3333333  -0.2340397   0.4956637), wk =   0.0666667
        k(   14) = (   0.3333333  -0.2340397   0.7421930), wk =   0.0666667
        k(   15) = (   0.3333333  -0.2340397  -0.2439243), wk =   0.0666667
        k(   16) = (   0.3333333  -0.2340397   0.0026050), wk =   0.0666667
        k(   17) = (   0.3333333   0.0680701  -0.1652177), wk =   0.0666667
        k(   18) = (   0.3333333   0.0680701   0.0813117), wk =   0.0666667
        k(   19) = (   0.3333333   0.0680701   0.3278410), wk =   0.0666667
        k(   20) = (   0.3333333   0.0680701  -0.6582763), wk =   0.0666667
        k(   21) = (   0.3333333   0.0680701  -0.4117470), wk =   0.0666667
        k(   22) = (   0.3333333  -0.8382593   1.0778384), wk =   0.0666667
        k(   23) = (   0.3333333  -0.8382593   1.3243677), wk =   0.0666667
        k(   24) = (   0.3333333  -0.8382593   1.5708971), wk =   0.0666667
        k(   25) = (   0.3333333  -0.8382593   0.5847797), wk =   0.0666667
        k(   26) = (   0.3333333  -0.8382593   0.8313091), wk =   0.0666667
        k(   27) = (   0.3333333  -0.5361495   0.6634864), wk =   0.0666667
        k(   28) = (   0.3333333  -0.5361495   0.9100157), wk =   0.0666667
        k(   29) = (   0.3333333  -0.5361495   1.1565451), wk =   0.0666667
        k(   30) = (   0.3333333  -0.5361495   0.1704277), wk =   0.0666667
        k(   31) = (   0.3333333  -0.5361495   0.4169570), wk =   0.0666667

     Largest allocated arrays     est. size (Mb)     dimensions
     Largest temporary arrays     est. size (Mb)     dimensions

     Check: negative/imaginary core charge=   -0.000006    0.000000

     Initial potential from superposition of free atoms

     starting charge   15.49915, renormalised to   16.00000
     Starting wfc are   12 randomized atomic wfcs
     Checking if some PAW data can be deallocated...

     Self-consistent Calculation

     iteration #  1     ecut=    60.00 Ry     beta=0.70
     CG style diagonalization
     ethr =  1.00E-02,  avg # of iterations =  2.0

     total energy              =    -188.77094506 Ry
     Harris-Foulkes estimate   =    -188.92239236 Ry
     estimated scf accuracy    <       0.18190472 Ry

[...]

     iteration # 18     ecut=    60.00 Ry     beta=0.70
     CG style diagonalization
     c_bands:  1 eigenvalues not converged
     ethr =  1.27E-10,  avg # of iterations =  6.6

     End of self-consistent calculation

          k = 0.0000 0.0000 0.0000 (  2413 PWs)   bands (ev):

   -48.0425 -19.9621 -19.9540 -19.9418 -11.6639   0.7056   1.0071   1.2181

[...]

!    total energy              =    -188.84857517 Ry
     Harris-Foulkes estimate   =    -188.84857517 Ry
     estimated scf accuracy    <          1.6E-09 Ry

     total all-electron energy =     -1248.135568 Ry

     The total energy is the sum of the following terms:

     one-electron contribution =     -81.41643974 Ry
     hartree contribution      =      42.39580689 Ry
     xc contribution           =     -24.67433689 Ry
     ewald contribution        =     -68.53391452 Ry
     one-center paw contrib.   =     -56.61969091 Ry

     convergence has been achieved in  18 iterations

     Forces acting on atoms (Ry/au):

     atom    1 type  1   force =    -0.00103463    0.00062398   -0.00082599
     atom    2 type  2   force =     0.00103463   -0.00062398    0.00082599

     Total force =     0.002070     Total SCF correction =     0.000030

     entering subroutine stress ...

          total   stress  (Ry/bohr**3)                   (kbar)     P=    3.73
  -0.00002543  -0.00008650  -0.00006899         -3.74    -12.72    -10.15
  -0.00008650   0.00008348  -0.00000664        -12.72     12.28     -0.98
  -0.00006899  -0.00000664   0.00001808        -10.15     -0.98      2.66

     BFGS Geometry Optimization

     number of scf cycles    =   1
     number of bfgs steps    =   0

     enthalpy new            =    -188.8485751733 Ry

     new trust radius        =       0.0105483319 bohr
     new conv_thr            =       0.0000000100 Ry

     new unit-cell volume =    307.65129 a.u.^3 (    45.58922 Ang^3 )

CELL_PARAMETERS (alat=  7.70489413)
   0.999364230  -0.002162431  -0.001724634
   0.578854412   0.827984284  -0.001139497
   0.170969860   1.114478238   0.811142705

ATOMIC_POSITIONS (crystal)
Na       0.064720634   0.873970334   0.513807501
Cl       0.052066534   0.886848674   0.008148389

     Writing output data file NaCl_pegs+pwscf.save
     NEW-OLD atomic charge density approx. for the potential
     NEW k-points:
        k(    1) = (   0.0000000   0.0000000   0.0000000), wk =   0.0333333
        k(    2) = (   0.0004253   0.0000418   0.2464187), wk =   0.0666667
        k(    3) = (   0.0008507   0.0000835   0.4928374), wk =   0.0666667
        k(    4) = (  -0.0000625   0.3014118  -0.4141149), wk =   0.0666667
        k(    5) = (   0.0003629   0.3014536  -0.1676962), wk =   0.0666667
        k(    6) = (   0.0007882   0.3014954   0.0787225), wk =   0.0666667
        k(    7) = (  -0.0009131   0.3013283  -0.9069523), wk =   0.0666667
        k(    8) = (  -0.0004878   0.3013701  -0.6605336), wk =   0.0666667
        k(    9) = (   0.0001249  -0.6028237   0.8282298), wk =   0.0333333
        k(   10) = (   0.0005503  -0.6027819   1.0746485), wk =   0.0666667
        k(   11) = (   0.0009756  -0.6027402   1.3210672), wk =   0.0666667
        k(   12) = (   0.3334723  -0.2327913   0.2495580), wk =   0.0666667
        k(   13) = (   0.3338977  -0.2327496   0.4959767), wk =   0.0666667
        k(   14) = (   0.3343230  -0.2327078   0.7423954), wk =   0.0666667
        k(   15) = (   0.3326217  -0.2328749  -0.2432794), wk =   0.0666667
        k(   16) = (   0.3330470  -0.2328331   0.0031393), wk =   0.0666667
        k(   17) = (   0.3334099   0.0686205  -0.1645569), wk =   0.0666667
        k(   18) = (   0.3338352   0.0686623   0.0818618), wk =   0.0666667
        k(   19) = (   0.3342606   0.0687040   0.3282805), wk =   0.0666667
        k(   20) = (   0.3325592   0.0685370  -0.6573943), wk =   0.0666667
        k(   21) = (   0.3329845   0.0685787  -0.4109756), wk =   0.0666667
        k(   22) = (   0.3335973  -0.8356150   1.0777878), wk =   0.0666667
        k(   23) = (   0.3340226  -0.8355733   1.3242065), wk =   0.0666667
        k(   24) = (   0.3344479  -0.8355315   1.5706252), wk =   0.0666667
        k(   25) = (   0.3327466  -0.8356986   0.5849504), wk =   0.0666667
        k(   26) = (   0.3331719  -0.8356568   0.8313691), wk =   0.0666667
        k(   27) = (   0.3335348  -0.5342032   0.6636729), wk =   0.0666667
        k(   28) = (   0.3339601  -0.5341614   0.9100916), wk =   0.0666667
        k(   29) = (   0.3343855  -0.5341196   1.1565103), wk =   0.0666667
        k(   30) = (   0.3326841  -0.5342867   0.1708355), wk =   0.0666667
        k(   31) = (   0.3331095  -0.5342449   0.4172542), wk =   0.0666667

     Check: negative/imaginary core charge=   -0.000006    0.000000
     extrapolated charge   16.02931, renormalised to   16.00000

[...]

          k =-0.0001 0.3014-0.4141 (  2410 PWs)   bands (ev):

[...]

     enthalpy old            =    -188.8485751733 Ry
     enthalpy new            =    -188.8488206236 Ry

     CASE: enthalpy_new < enthalpy_old

     WARNING: bfgs curvature condition failed, Theta= 0.840
     new trust radius        =       0.0157948167 bohr
     new conv_thr            =            1.0E-10 Ry

[...]

     Total force =     0.000047     Total SCF correction =     0.000005
     SCF correction compared to forces is large: reduce conv_thr to get better values

[...]

     Threshold (ethr) on eigenvalues was too large:
     Diagonalizing with lowered threshold

     CG style diagonalization
     ethr =  3.83E-08,  avg # of iterations =  5.2

[...]

     number of scf cycles    =  14
     number of bfgs steps    =  13

     enthalpy old            =    -188.8511553422 Ry
     enthalpy new            =    -188.8511569515 Ry

     CASE: enthalpy_new < enthalpy_old

     new trust radius        =       0.0034207918 bohr
     new conv_thr            =            1.0E-10 Ry

     new unit-cell volume =    311.61420 a.u.^3 (    46.17646 Ang^3 )

[...]

ATOMIC_POSITIONS (crystal)
Na       0.058540616   0.880245129   0.511052336
Cl       0.058246552   0.880573878   0.010903554

     Writing output data file NaCl_pegs+pwscf.save
     NEW-OLD atomic charge density approx. for the potential
     NEW k-points:
        k(    1) = (   0.0000000   0.0000000   0.0000000), wk =   0.0333333
        k(    2) = (   0.0100373   0.0012375   0.2480159), wk =   0.0666667
        k(    3) = (   0.0200745   0.0024750   0.4960317), wk =   0.0666667
        k(    4) = (  -0.0030340   0.2903296  -0.4153681), wk =   0.0666667
        k(    5) = (   0.0070033   0.2915671  -0.1673522), wk =   0.0666667
        k(    6) = (   0.0170406   0.2928046   0.0806637), wk =   0.0666667
        k(    7) = (  -0.0231085   0.2878547  -0.9113998), wk =   0.0666667
        k(    8) = (  -0.0130712   0.2890922  -0.6633839), wk =   0.0666667
        k(    9) = (   0.0060679  -0.5806593   0.8307361), wk =   0.0333333
        k(   10) = (   0.0161052  -0.5794218   1.0787520), wk =   0.0666667
        k(   11) = (   0.0261425  -0.5781843   1.3267679), wk =   0.0666667
        k(   12) = (   0.3380198  -0.2101357   0.2628836), wk =   0.0666667
        k(   13) = (   0.3480571  -0.2088983   0.5108994), wk =   0.0666667
        k(   14) = (   0.3580943  -0.2076608   0.7589153), wk =   0.0666667
        k(   15) = (   0.3179453  -0.2126107  -0.2331482), wk =   0.0666667
        k(   16) = (   0.3279825  -0.2113732   0.0148677), wk =   0.0666667
        k(   17) = (   0.3349858   0.0801939  -0.1524845), wk =   0.0666667
        k(   18) = (   0.3450231   0.0814314   0.0955314), wk =   0.0666667
        k(   19) = (   0.3550604   0.0826689   0.3435472), wk =   0.0666667
        k(   20) = (   0.3149113   0.0777189  -0.6485162), wk =   0.0666667
        k(   21) = (   0.3249486   0.0789564  -0.4005004), wk =   0.0666667
        k(   22) = (   0.3440877  -0.7907950   1.0936197), wk =   0.0666667
        k(   23) = (   0.3541250  -0.7895576   1.3416355), wk =   0.0666667
        k(   24) = (   0.3641623  -0.7883201   1.5896514), wk =   0.0666667
        k(   25) = (   0.3240132  -0.7932700   0.5975879), wk =   0.0666667
        k(   26) = (   0.3340505  -0.7920325   0.8456038), wk =   0.0666667
        k(   27) = (   0.3410538  -0.5004654   0.6782516), wk =   0.0666667
        k(   28) = (   0.3510910  -0.4992279   0.9262675), wk =   0.0666667
        k(   29) = (   0.3611283  -0.4979904   1.1742834), wk =   0.0666667
        k(   30) = (   0.3209792  -0.5029404   0.1822199), wk =   0.0666667
        k(   31) = (   0.3310165  -0.5017029   0.4302357), wk =   0.0666667

     Check: negative/imaginary core charge=   -0.000005    0.000000
     extrapolated charge   16.00651, renormalised to   16.00000

[...]

     Threshold (ethr) on eigenvalues was too large:
     Diagonalizing with lowered threshold

     CG style diagonalization
     ethr =  6.35E-08,  avg # of iterations =  5.3

[...]

     Total force =     0.000042     Total SCF correction =     0.000004
     SCF correction compared to forces is large: reduce conv_thr to get better values

[...]

     bfgs converged in  15 scf cycles and  14 bfgs steps
     (criteria: energy < 0.10E-03, force < 0.10E-02, cell < 0.50E+00)

     End of BFGS Geometry Optimization

     Final enthalpy =    -188.8511583049 Ry
Begin final coordinates
     new unit-cell volume =    311.61420 a.u.^3 (    46.17646 Ang^3 )

CELL_PARAMETERS (alat=  7.70489413)
   0.988114403  -0.046553499  -0.039756957
   0.535908088   0.829738419  -0.025828334
   0.089606620   1.141299349   0.797079054

ATOMIC_POSITIONS (crystal)
Na       0.058540616   0.880245129   0.511052336
Cl       0.058246552   0.880573878   0.010903554
End final coordinates

     A final scf calculation at the relaxed structure.
     The G-vectors are recalculated for the final unit cell
     Results may differ from those at the preceding step.

     bravais-lattice index     =            0
     lattice parameter (alat)  =       7.7049  a.u.
     unit-cell volume          =     311.6142 (a.u.)^3
     number of atoms/cell      =            2
     number of atomic types    =            2
     number of electrons       =        16.00
     number of Kohn-Sham states=            8
     kinetic-energy cutoff     =      60.0000  Ry
     charge density cutoff     =     240.0000  Ry
     convergence threshold     =      1.0E-10
     mixing beta               =       0.7000
     number of iterations used =            8  plain     mixing
     Exchange-correlation      =  SLA  PW   PBX  PBC ( 1 4 3 4 0)
     EXX-fraction              =        0.00

     celldm(1)=   7.704894  celldm(2)=   0.000000  celldm(3)=   0.000000
     celldm(4)=   0.000000  celldm(5)=   0.000000  celldm(6)=   0.000000

     crystal axes: (cart. coord. in units of alat)
               a(1) = (   0.988114  -0.046553  -0.039757 )
               a(2) = (   0.535908   0.829738  -0.025828 )
               a(3) = (   0.089607   1.141299   0.797079 )

     reciprocal axes: (cart. coord. in units 2 pi/alat)
               b(1) = (  1.014059 -0.630407  0.788651 )
               b(2) = ( -0.012136  1.161319 -1.661472 )
               b(3) = (  0.050186  0.006187  1.240079 )

     PseudoPot. # 1 for Na read from file:
     /projects/e20438/bin/espresso/pseudo/Na.pbe-spn-kjpaw_psl.0.2.UPF
     MD5 check sum: af6cebf537ceac8ff9d4cdfd6fc7ff14
     Pseudo is Projector augmented-wave, Zval =  9.0
     Generated using "atomic" code by A. Dal Corso  v.5.0.2 svn rev. 9415
     Shape of augmentation charge: PSQ
     Using radial grid of 1121 points,  4 beta functions with:
                l(1) =   0
                l(2) =   0
                l(3) =   1
                l(4) =   1
     Q(r) pseudized with 0 coefficients

     PseudoPot. # 2 for Cl read from file:
     /projects/e20438/bin/espresso/pseudo/Cl.pbe-n-kjpaw_psl.0.1.UPF
     MD5 check sum: 39501d8aaca1fada178cfed307344fc1
     Pseudo is Projector augmented-wave + core cor, Zval =  7.0
     Generated using "atomic" code by A. Dal Corso  v.5.0.2 svn rev. 9415
     Shape of augmentation charge: PSQ
     Using radial grid of 1157 points,  4 beta functions with:
                l(1) =   0
                l(2) =   0
                l(3) =   1
                l(4) =   1
     Q(r) pseudized with 0 coefficients

     atomic species   valence    mass     pseudopotential
        Na             9.00    22.98977     Na( 1.00)
        Cl             7.00    35.45270     Cl( 1.00)

     No symmetry found

   Cartesian axes

     site n.     atom                  positions (alat units)
         1           Na  tau(   1) = (   0.5753690   1.3109116   0.3822865  )
         2           Cl  tau(   2) = (   0.5304380   0.7403786  -0.0163685  )

     number of k points=    31
                       cart. coord. in units 2pi/alat
        k(    1) = (   0.0000000   0.0000000   0.0000000), wk =   0.0333333
        k(    2) = (   0.0100373   0.0012375   0.2480159), wk =   0.0666667
        k(    3) = (   0.0200745   0.0024750   0.4960317), wk =   0.0666667
        k(    4) = (  -0.0030340   0.2903296  -0.4153681), wk =   0.0666667
        k(    5) = (   0.0070033   0.2915671  -0.1673522), wk =   0.0666667
        k(    6) = (   0.0170406   0.2928046   0.0806637), wk =   0.0666667
        k(    7) = (  -0.0231085   0.2878547  -0.9113998), wk =   0.0666667
        k(    8) = (  -0.0130712   0.2890922  -0.6633839), wk =   0.0666667
        k(    9) = (   0.0060679  -0.5806593   0.8307361), wk =   0.0333333
        k(   10) = (   0.0161052  -0.5794218   1.0787520), wk =   0.0666667
        k(   11) = (   0.0261425  -0.5781843   1.3267679), wk =   0.0666667
        k(   12) = (   0.3380198  -0.2101357   0.2628836), wk =   0.0666667
        k(   13) = (   0.3480571  -0.2088983   0.5108994), wk =   0.0666667
        k(   14) = (   0.3580943  -0.2076608   0.7589153), wk =   0.0666667
        k(   15) = (   0.3179453  -0.2126107  -0.2331482), wk =   0.0666667
        k(   16) = (   0.3279825  -0.2113732   0.0148677), wk =   0.0666667
        k(   17) = (   0.3349858   0.0801939  -0.1524845), wk =   0.0666667
        k(   18) = (   0.3450231   0.0814314   0.0955314), wk =   0.0666667
        k(   19) = (   0.3550604   0.0826689   0.3435472), wk =   0.0666667
        k(   20) = (   0.3149113   0.0777189  -0.6485162), wk =   0.0666667
        k(   21) = (   0.3249486   0.0789564  -0.4005004), wk =   0.0666667
        k(   22) = (   0.3440877  -0.7907950   1.0936197), wk =   0.0666667
        k(   23) = (   0.3541250  -0.7895576   1.3416355), wk =   0.0666667
        k(   24) = (   0.3641623  -0.7883201   1.5896514), wk =   0.0666667
        k(   25) = (   0.3240132  -0.7932700   0.5975879), wk =   0.0666667
        k(   26) = (   0.3340505  -0.7920325   0.8456038), wk =   0.0666667
        k(   27) = (   0.3410538  -0.5004654   0.6782516), wk =   0.0666667
        k(   28) = (   0.3510910  -0.4992279   0.9262675), wk =   0.0666667
        k(   29) = (   0.3611283  -0.4979904   1.1742834), wk =   0.0666667
        k(   30) = (   0.3209792  -0.5029404   0.1822199), wk =   0.0666667
        k(   31) = (   0.3310165  -0.5017029   0.4302357), wk =   0.0666667

     Largest allocated arrays     est. size (Mb)     dimensions
     Largest temporary arrays     est. size (Mb)     dimensions

     Check: negative/imaginary core charge=   -0.000006    0.000000

     Initial potential from superposition of free atoms

     starting charge   15.49915, renormalised to   16.00000
     Starting wfc are   12 randomized atomic wfcs
     Checking if some PAW data can be deallocated...

     Writing output data file NaCl_pegs+pwscf.save

     Self-consistent Calculation

[...]

     iteration # 18     ecut=    60.00 Ry     beta=0.70
     CG style diagonalization
     c_bands:  1 eigenvalues not converged
     ethr =  1.06E-10,  avg # of iterations =  6.4

[...]

     total energy              =    -188.85117224 Ry
     Harris-Foulkes estimate   =    -188.85117224 Ry
     estimated scf accuracy    <          1.6E-09 Ry

     iteration # 25     ecut=    60.00 Ry     beta=0.70
     CG style diagonalization
     ethr =  1.01E-11,  avg # of iterations =  4.8

     End of self-consistent calculation

[...]

          k =-0.0131 0.2891-0.6634 (  2433 PWs)   bands (ev):

[...]

          k = 0.3310-0.5017 0.4302 (  2439 PWs)   bands (ev):

   -48.1425 -20.0693 -20.0660 -20.0595 -11.4075  -0.5108  -0.2199   0.3431

!    total energy              =    -188.85117224 Ry
     Harris-Foulkes estimate   =    -188.85117224 Ry
     estimated scf accuracy    <          6.7E-11 Ry

     total all-electron energy =     -1248.138165 Ry

     The total energy is the sum of the following terms:

     one-electron contribution =     -82.07623710 Ry
     hartree contribution      =      42.65610073 Ry
     xc contribution           =     -24.67034532 Ry
     ewald contribution        =     -68.14153674 Ry
     one-center paw contrib.   =     -56.61915381 Ry

     convergence has been achieved in  25 iterations

     Forces acting on atoms (Ry/au):

     atom    1 type  1   force =    -0.00002261    0.00001592   -0.00001866
     atom    2 type  2   force =     0.00002261   -0.00001592    0.00001866

     Total force =     0.000047     Total SCF correction =     0.000003

     entering subroutine stress ...

          total   stress  (Ry/bohr**3)                   (kbar)     P=    0.14
   0.00000164  -0.00000160  -0.00000136          0.24     -0.24     -0.20
  -0.00000160   0.00000177   0.00000063         -0.24      0.26      0.09
  -0.00000136   0.00000063  -0.00000049         -0.20      0.09     -0.07

     Writing output data file NaCl_pegs+pwscf.save

     General routines

     Parallel routines

     PAW routines

   This run was terminated on:   0: 8:27  23Mar2018

   JOB DONE.