     Program PWSCF v.5.0.2 starts on 22Mar2018 at 12:13:50

     Current dimensions of program PWSCF are:
     Max number of different atomic species (ntypx) = 10
     Max number of k-points (npk) =  40000
     Max angular momentum in pseudopotentials (lmaxx) =  3
     Waiting for input...
     Reading input from standard input

     Subspace diagonalization in iterative solution of the eigenvalue problem:
     a serial algorithm will be used

     bravais-lattice index     =            0
     lattice parameter (alat)  =      12.0168  a.u.
     unit-cell volume          =    1187.3413 (a.u.)^3
     number of atoms/cell      =            8
     number of atomic types    =            2
     number of electrons       =       182.00
     number of Kohn-Sham states=          109
     kinetic-energy cutoff     =      40.0000  Ry
     charge density cutoff     =     160.0000  Ry
     convergence threshold     =      1.0E-04
     mixing beta               =       0.7000
     number of iterations used =            8  plain     mixing
     Exchange-correlation      = SLA-PZ-NOGX-NOGC ( 1 1 0 0 0)
     EXX-fraction              =        0.00
     nstep                     =           50

     celldm(1)=  12.016801  celldm(2)=   0.000000  celldm(3)=   0.000000
     celldm(4)=   0.000000  celldm(5)=   0.000000  celldm(6)=   0.000000

     crystal axes: (cart. coord. in units of alat)
               a(1) = (   1.000000   0.000000   0.000000 )
               a(2) = (  -0.500000   0.866025   0.000000 )
               a(3) = (   0.000000   0.000000   0.790093 )

     reciprocal axes: (cart. coord. in units 2 pi/alat)
               b(1) = (  1.000000  0.577350  0.000000 )
               b(2) = (  0.000000  1.154701  0.000000 )
               b(3) = (  0.000000  0.000000  1.265674 )

     PseudoPot. # 1 for Yb read from file:
     /home/jld5415/pp.La/Yb.UPF
     MD5 check sum: 3e859b81cc28c53ec6aa3a2e888efcdf
     Pseudo is Norm-conserving, Zval = 24.0
     Generated in analytical, separable form
     Using radial grid of 1269 points,  6 beta functions with:
                l(1) =   0
                l(2) =   0
                l(3) =   1
                l(4) =   1
                l(5) =   2
                l(6) =   3

     PseudoPot. # 2 for Tb read from file:
     /home/jld5415/pp.La/Tb.UPF
     MD5 check sum: 3d6088a3f0cf7fd2e110c43f7f8e95c2
     Pseudo is Norm-conserving, Zval = 19.0
     Generated in analytical, separable form
     Using radial grid of 1263 points,  6 beta functions with:
                l(1) =   0
                l(2) =   0
                l(3) =   1
                l(4) =   1
                l(5) =   2
                l(6) =   3

     atomic species   valence    mass     pseudopotential
        Mg            24.00    24.30500     Yb( 1.00)
        Cd            19.00   112.41100     Tb( 1.00)

     24 Sym. Ops., with inversion, found (12 have fractional translation)

   Cartesian axes

     site n.     atom                  positions (alat units)
         1           Mg  tau(   1) = (   0.2478935   0.7204716   0.1975233  )
         2           Mg  tau(   2) = (   0.7478935   0.1455538   0.5925699  )
         3           Mg  tau(   3) = (   0.2521065   0.1455538   0.5925699  )
         4           Mg  tau(   4) = (  -0.2478935   0.7204716   0.1975233  )
         5           Mg  tau(   5) = (   0.0000000   0.2911075   0.1975233  )
         6           Mg  tau(   6) = (   0.5000000   0.5749179   0.5925699  )
         7           Cd  tau(   7) = (   0.5000005   0.2886748   0.1975233  )
         8           Cd  tau(   8) = (  -0.0000005   0.5773506   0.5925699  )

     number of k points=    64  gaussian smearing, width (Ry)=  0.1000
                       cart. coord. in units 2pi/alat
        k(    1) = (   0.0000000   0.0000000   0.0000000), wk =   0.0095238
        k(    2) = (   0.0000000   0.0000000   0.1808105), wk =   0.0190476
        k(    3) = (   0.0000000   0.0000000   0.3616210), wk =   0.0190476
        k(    4) = (   0.0000000   0.0000000   0.5424315), wk =   0.0190476
        k(    5) = (   0.0000000   0.1924501   0.0000000), wk =   0.0190476
        k(    6) = (   0.0000000   0.1924501   0.1808105), wk =   0.0380952
        k(    7) = (   0.0000000   0.1924501   0.3616210), wk =   0.0380952
        k(    8) = (   0.0000000   0.1924501   0.5424315), wk =   0.0380952
        k(    9) = (   0.0000000   0.3849002   0.0000000), wk =   0.0190476
        k(   10) = (   0.0000000   0.3849002   0.1808105), wk =   0.0380952
        k(   11) = (   0.0000000   0.3849002   0.3616210), wk =   0.0380952
        k(   12) = (   0.0000000   0.3849002   0.5424315), wk =   0.0380952
        k(   13) = (   0.0000000  -0.5773503   0.0000000), wk =   0.0095238
        k(   14) = (   0.0000000  -0.5773503   0.1808105), wk =   0.0190476
        k(   15) = (   0.0000000  -0.5773503   0.3616210), wk =   0.0190476
        k(   16) = (   0.0000000  -0.5773503   0.5424315), wk =   0.0190476
        k(   17) = (   0.2000000   0.1154701   0.0000000), wk =   0.0190476
        k(   18) = (   0.2000000   0.1154701   0.1808105), wk =   0.0380952
        k(   19) = (   0.2000000   0.1154701   0.3616210), wk =   0.0380952
        k(   20) = (   0.2000000   0.1154701   0.5424315), wk =   0.0380952
        k(   21) = (   0.2000000   0.3079201   0.0000000), wk =   0.0190476
        k(   22) = (   0.2000000   0.3079201   0.1808105), wk =   0.0380952
        k(   23) = (   0.2000000   0.3079201   0.3616210), wk =   0.0380952
        k(   24) = (   0.2000000   0.3079201   0.5424315), wk =   0.0380952
        k(   25) = (   0.2000000   0.5003702   0.0000000), wk =   0.0190476
        k(   26) = (   0.2000000   0.5003702   0.1808105), wk =   0.0380952
        k(   27) = (   0.2000000   0.5003702   0.3616210), wk =   0.0380952
        k(   28) = (   0.2000000   0.5003702   0.5424315), wk =   0.0380952
        k(   29) = (   0.2000000  -0.4618802   0.0000000), wk =   0.0190476
        k(   30) = (   0.2000000  -0.4618802   0.1808105), wk =   0.0380952
        k(   31) = (   0.2000000  -0.4618802   0.3616210), wk =   0.0380952
        k(   32) = (   0.2000000  -0.4618802   0.5424315), wk =   0.0380952
        k(   33) = (   0.2000000  -0.2694301   0.0000000), wk =   0.0190476
        k(   34) = (   0.2000000  -0.2694301   0.1808105), wk =   0.0380952
        k(   35) = (   0.2000000  -0.2694301   0.3616210), wk =   0.0380952
        k(   36) = (   0.2000000  -0.2694301   0.5424315), wk =   0.0380952
        k(   37) = (   0.2000000  -0.0769800   0.0000000), wk =   0.0190476
        k(   38) = (   0.2000000  -0.0769800   0.1808105), wk =   0.0380952
        k(   39) = (   0.2000000  -0.0769800   0.3616210), wk =   0.0380952
        k(   40) = (   0.2000000  -0.0769800   0.5424315), wk =   0.0380952
        k(   41) = (   0.4000000   0.2309401   0.0000000), wk =   0.0190476
        k(   42) = (   0.4000000   0.2309401   0.1808105), wk =   0.0380952
        k(   43) = (   0.4000000   0.2309401   0.3616210), wk =   0.0380952
        k(   44) = (   0.4000000   0.2309401   0.5424315), wk =   0.0380952
        k(   45) = (   0.4000000   0.4233902   0.0000000), wk =   0.0190476
        k(   46) = (   0.4000000   0.4233902   0.1808105), wk =   0.0380952
        k(   47) = (   0.4000000   0.4233902   0.3616210), wk =   0.0380952
        k(   48) = (   0.4000000   0.4233902   0.5424315), wk =   0.0380952
        k(   49) = (   0.4000000   0.6158403   0.0000000), wk =   0.0190476
        k(   50) = (   0.4000000   0.6158403   0.1808105), wk =   0.0380952
        k(   51) = (   0.4000000   0.6158403   0.3616210), wk =   0.0380952
        k(   52) = (   0.4000000   0.6158403   0.5424315), wk =   0.0380952
        k(   53) = (   0.4000000  -0.3464102   0.0000000), wk =   0.0190476
        k(   54) = (   0.4000000  -0.3464102   0.1808105), wk =   0.0380952
        k(   55) = (   0.4000000  -0.3464102   0.3616210), wk =   0.0380952
        k(   56) = (   0.4000000  -0.3464102   0.5424315), wk =   0.0380952
        k(   57) = (   0.4000000  -0.1539601   0.0000000), wk =   0.0190476
        k(   58) = (   0.4000000  -0.1539601   0.1808105), wk =   0.0380952
        k(   59) = (   0.4000000  -0.1539601   0.3616210), wk =   0.0380952
        k(   60) = (   0.4000000  -0.1539601   0.5424315), wk =   0.0380952
        k(   61) = (   0.4000000   0.0384900   0.0000000), wk =   0.0190476
        k(   62) = (   0.4000000   0.0384900   0.1808105), wk =   0.0380952
        k(   63) = (   0.4000000   0.0384900   0.3616210), wk =   0.0380952
        k(   64) = (   0.4000000   0.0384900   0.5424315), wk =   0.0380952

     Largest allocated arrays     est. size (Mb)     dimensions
     Largest temporary arrays     est. size (Mb)     dimensions

     Initial potential from superposition of free atoms

     Starting from uniform charge
     Starting wfc are    0 randomized atomic wfcs

     Self-consistent Calculation

     iteration #  1     ecut=    40.00 Ry     beta=0.70
     CG style diagonalization
     ethr =  1.00E-02,  avg # of iterations = 19.5

     total energy              =   -2369.06290010 Ry
     Harris-Foulkes estimate   =   -3826.19589466 Ry
     estimated scf accuracy    <    1788.37002043 Ry

     iteration #  2     ecut=    40.00 Ry     beta=0.70
     CG style diagonalization
     c_bands:  1 eigenvalues not converged
     c_bands:  1 eigenvalues not converged
     c_bands:  1 eigenvalues not converged
     c_bands:  1 eigenvalues not converged
     c_bands:  1 eigenvalues not converged
     c_bands:  1 eigenvalues not converged
     c_bands:  1 eigenvalues not converged
     c_bands:  1 eigenvalues not converged
     c_bands:  1 eigenvalues not converged
     ethr =  1.00E-02,  avg # of iterations = 11.9

[...]

     End of self-consistent calculation

          k = 0.0000 0.0000 0.0000 (  5047 PWs)   bands (ev):

   -97.7361 -97.7360 -97.7301 -97.6722 -97.6721 -97.6341 -56.5534 -56.5308
   -56.5308 -56.5142 -56.5131 -56.5058 -56.5058 -56.5033 -56.5033 -56.5026
   -56.5025 -56.4980 -56.4895 -56.4767 -56.4767 -56.4747 -56.4747 -56.4705
   -49.1365 -49.1350 -17.5581 -17.5493 -17.4970 -17.4970 -17.4901 -17.4900
     1.0516   1.0972   1.0972   1.1485   1.2416   1.2664   1.2904   1.2905
     1.3263   1.3264   1.3670   1.3997   1.3997   1.5525   1.6038   1.6039
     1.6368   1.6515   1.6516   1.7095   1.7096   1.7471   1.7472   1.8361
     1.8362   1.9355   1.9398   1.9398   2.0080   2.0118  10.0164  14.2542
    14.2543  14.4557  16.1857  16.1858  16.7086  17.9962  19.2357  19.2358
    19.3797  19.3847  19.3847  20.2956  20.2957  20.6427  20.9160  20.9160
    21.6218  21.7662  21.7663  22.3680  22.3681  23.3373  23.3374  24.5985
    25.2334  25.6742  27.0680  27.0680  27.5230  27.6071  27.6071  27.9308
    29.4067  29.4067  29.9600  31.2191  31.2192  31.4110  31.8774  32.7171
    32.8066  32.8225  32.8226  33.7202  34.3495

[...]

     the Fermi energy is    26.7324 ev

!    total energy              =   -2916.23205145 Ry
     Harris-Foulkes estimate   =   -2916.23205261 Ry
     estimated scf accuracy    <       0.00000140 Ry

     The total energy is the sum of the following terms:

[...]
        k(   15) = (   0.0000000  -0.5963673   0.3729525), wk =   0.0190476
        k(   16) = (   0.0000000  -0.5963673   0.5594288), wk =   0.0190476
        k(   17) = (   0.2065877   0.1192735   0.0000000), wk =   0.0190476
        k(   18) = (   0.2065877   0.1192735   0.1864763), wk =   0.0380952
        k(   19) = (   0.2065877   0.1192735   0.3729525), wk =   0.0380952
        k(   20) = (   0.2065877   0.1192735   0.5594288), wk =   0.0380952
        k(   21) = (   0.2065877   0.3180626   0.0000000), wk =   0.0190476
        k(   22) = (   0.2065877   0.3180626   0.1864763), wk =   0.0380952
        k(   23) = (   0.2065877   0.3180626   0.3729525), wk =   0.0380952
        k(   24) = (   0.2065877   0.3180626   0.5594288), wk =   0.0380952
        k(   25) = (   0.2065877   0.5168517   0.0000000), wk =   0.0190476
        k(   26) = (   0.2065877   0.5168517   0.1864763), wk =   0.0380952
        k(   27) = (   0.2065877   0.5168517   0.3729525), wk =   0.0380952
        k(   28) = (   0.2065877   0.5168517   0.5594288), wk =   0.0380952
        k(   29) = (   0.2065877  -0.4770939   0.0000000), wk =   0.0190476
        k(   30) = (   0.2065877  -0.4770939   0.1864763), wk =   0.0380952
        k(   31) = (   0.2065877  -0.4770939   0.3729525), wk =   0.0380952
        k(   32) = (   0.2065877  -0.4770939   0.5594288), wk =   0.0380952
        k(   33) = (   0.2065877  -0.2783048   0.0000000), wk =   0.0190476
        k(   34) = (   0.2065877  -0.2783048   0.1864763), wk =   0.0380952
        k(   35) = (   0.2065877  -0.2783048   0.3729525), wk =   0.0380952
        k(   36) = (   0.2065877  -0.2783048   0.5594288), wk =   0.0380952
        k(   37) = (   0.2065877  -0.0795156   0.0000000), wk =   0.0190476
        k(   38) = (   0.2065877  -0.0795156   0.1864763), wk =   0.0380952
        k(   39) = (   0.2065877  -0.0795156   0.3729525), wk =   0.0380952
        k(   40) = (   0.2065877  -0.0795156   0.5594288), wk =   0.0380952
        k(   41) = (   0.4131754   0.2385469   0.0000000), wk =   0.0190476
        k(   42) = (   0.4131754   0.2385469   0.1864763), wk =   0.0380952
        k(   43) = (   0.4131754   0.2385469   0.3729525), wk =   0.0380952
        k(   44) = (   0.4131754   0.2385469   0.5594288), wk =   0.0380952
        k(   45) = (   0.4131754   0.4373360   0.0000000), wk =   0.0190476
        k(   46) = (   0.4131754   0.4373360   0.1864763), wk =   0.0380952
        k(   47) = (   0.4131754   0.4373360   0.3729525), wk =   0.0380952
        k(   48) = (   0.4131754   0.4373360   0.5594288), wk =   0.0380952
        k(   49) = (   0.4131754   0.6361251   0.0000000), wk =   0.0190476
        k(   50) = (   0.4131754   0.6361251   0.1864763), wk =   0.0380952
        k(   51) = (   0.4131754   0.6361251   0.3729525), wk =   0.0380952
        k(   52) = (   0.4131754   0.6361251   0.5594288), wk =   0.0380952
        k(   53) = (   0.4131754  -0.3578204   0.0000000), wk =   0.0190476
        k(   54) = (   0.4131754  -0.3578204   0.1864763), wk =   0.0380952
        k(   55) = (   0.4131754  -0.3578204   0.3729525), wk =   0.0380952
        k(   56) = (   0.4131754  -0.3578204   0.5594288), wk =   0.0380952
        k(   57) = (   0.4131754  -0.1590313   0.0000000), wk =   0.0190476
        k(   58) = (   0.4131754  -0.1590313   0.1864763), wk =   0.0380952
        k(   59) = (   0.4131754  -0.1590313   0.3729525), wk =   0.0380952
        k(   60) = (   0.4131754  -0.1590313   0.5594288), wk =   0.0380952
        k(   61) = (   0.4131754   0.0397578   0.0000000), wk =   0.0190476
        k(   62) = (   0.4131754   0.0397578   0.1864763), wk =   0.0380952
        k(   63) = (   0.4131754   0.0397578   0.3729525), wk =   0.0380952
        k(   64) = (   0.4131754   0.0397578   0.5594288), wk =   0.0380952

[...]

     The maximum number of steps has been reached.

     End of BFGS Geometry Optimization
Begin final coordinates
     new unit-cell volume =   1079.01317 a.u.^3 (   159.89325 Ang^3 )

CELL_PARAMETERS (alat= 12.01680127)
   0.968111845   0.000000000   0.000000000
  -0.484055922   0.838409451   0.000000000
   0.000000000   0.000000000   0.766087558

ATOMIC_POSITIONS (crystal)
Mg       0.661423930   0.830711965   0.250000000
Mg       0.830711965   0.169288035   0.750000000
Mg       0.338576070   0.169288035   0.750000000
Mg       0.169288035   0.830711965   0.250000000
Mg       0.169288035   0.338576070   0.250000000
Mg       0.830711965   0.661423930   0.750000000
Cd       0.666667000   0.333333000   0.250000000
Cd       0.333333000   0.666667000   0.750000000
End final coordinates

     A final scf calculation at the relaxed structure.
     The G-vectors are recalculated for the final unit cell
     Results may differ from those at the preceding step.

     bravais-lattice index     =            0
     lattice parameter (alat)  =      12.0168  a.u.
     unit-cell volume          =    1079.0132 (a.u.)^3
     number of atoms/cell      =            8
     number of atomic types    =            2
     number of electrons       =       182.00
     number of Kohn-Sham states=          109
     kinetic-energy cutoff     =      40.0000  Ry
     charge density cutoff     =     160.0000  Ry
     convergence threshold     =      1.0E-04
     mixing beta               =       0.7000
     number of iterations used =            8  plain     mixing
     Exchange-correlation      = SLA-PZ-NOGX-NOGC ( 1 1 0 0 0)
     EXX-fraction              =        0.00

     celldm(1)=  12.016801  celldm(2)=   0.000000  celldm(3)=   0.000000
     celldm(4)=   0.000000  celldm(5)=   0.000000  celldm(6)=   0.000000

     crystal axes: (cart. coord. in units of alat)
               a(1) = (   0.968112   0.000000   0.000000 )
               a(2) = (  -0.484056   0.838409   0.000000 )
               a(3) = (   0.000000   0.000000   0.766088 )

     reciprocal axes: (cart. coord. in units 2 pi/alat)
               b(1) = (  1.032939  0.596367  0.000000 )
               b(2) = (  0.000000  1.192735  0.000000 )
               b(3) = (  0.000000  0.000000  1.305334 )

     PseudoPot. # 1 for Yb read from file:
     /home/jld5415/pp.La/Yb.UPF
     MD5 check sum: 3e859b81cc28c53ec6aa3a2e888efcdf
     Pseudo is Norm-conserving, Zval = 24.0
     Generated in analytical, separable form
     Using radial grid of 1269 points,  6 beta functions with:
                l(1) =   0
                l(2) =   0
                l(3) =   1
                l(4) =   1
                l(5) =   2
                l(6) =   3

     PseudoPot. # 2 for Tb read from file:
     /home/jld5415/pp.La/Tb.UPF
     MD5 check sum: 3d6088a3f0cf7fd2e110c43f7f8e95c2
     Pseudo is Norm-conserving, Zval = 19.0
     Generated in analytical, separable form
     Using radial grid of 1263 points,  6 beta functions with:
                l(1) =   0
                l(2) =   0
                l(3) =   1
                l(4) =   1
                l(5) =   2
                l(6) =   3

     atomic species   valence    mass     pseudopotential
        Mg            24.00    24.30500     Yb( 1.00)
        Cd            19.00   112.41100     Tb( 1.00)

     24 Sym. Ops., with inversion, found (12 have fractional translation)

   Cartesian axes

     site n.     atom                  positions (alat units)
         1           Mg  tau(   1) = (   0.2382213   0.6964768   0.1915219  )
         2           Mg  tau(   2) = (   0.7222772   0.1419327   0.5745657  )
         3           Mg  tau(   3) = (   0.2458346   0.1419327   0.5745657  )
         4           Mg  tau(   4) = (  -0.2382213   0.6964768   0.1915219  )
         5           Mg  tau(   5) = (   0.0000000   0.2838654   0.1915219  )
         6           Mg  tau(   6) = (   0.4840559   0.5545441   0.5745657  )
         7           Cd  tau(   7) = (   0.4840564   0.2794695   0.1915219  )
         8           Cd  tau(   8) = (  -0.0000005   0.5589399   0.5745657  )

     number of k points=    64  gaussian smearing, width (Ry)=  0.1000
                       cart. coord. in units 2pi/alat
        k(    1) = (   0.0000000   0.0000000   0.0000000), wk =   0.0095238
        k(    2) = (   0.0000000   0.0000000   0.1864763), wk =   0.0190476
        k(    3) = (   0.0000000   0.0000000   0.3729525), wk =   0.0190476
        k(    4) = (   0.0000000   0.0000000   0.5594288), wk =   0.0190476
        k(    5) = (   0.0000000   0.1987891   0.0000000), wk =   0.0190476
        k(    6) = (   0.0000000   0.1987891   0.1864763), wk =   0.0380952
        k(    7) = (   0.0000000   0.1987891   0.3729525), wk =   0.0380952
        k(    8) = (   0.0000000   0.1987891   0.5594288), wk =   0.0380952
        k(    9) = (   0.0000000   0.3975782   0.0000000), wk =   0.0190476
        k(   10) = (   0.0000000   0.3975782   0.1864763), wk =   0.0380952
        k(   11) = (   0.0000000   0.3975782   0.3729525), wk =   0.0380952
        k(   12) = (   0.0000000   0.3975782   0.5594288), wk =   0.0380952
        k(   13) = (   0.0000000  -0.5963673   0.0000000), wk =   0.0095238
        k(   14) = (   0.0000000  -0.5963673   0.1864763), wk =   0.0190476
        k(   15) = (   0.0000000  -0.5963673   0.3729525), wk =   0.0190476
        k(   16) = (   0.0000000  -0.5963673   0.5594288), wk =   0.0190476
        k(   17) = (   0.2065877   0.1192735   0.0000000), wk =   0.0190476
        k(   18) = (   0.2065877   0.1192735   0.1864763), wk =   0.0380952
        k(   19) = (   0.2065877   0.1192735   0.3729525), wk =   0.0380952
        k(   20) = (   0.2065877   0.1192735   0.5594288), wk =   0.0380952
        k(   21) = (   0.2065877   0.3180626   0.0000000), wk =   0.0190476
        k(   22) = (   0.2065877   0.3180626   0.1864763), wk =   0.0380952
        k(   23) = (   0.2065877   0.3180626   0.3729525), wk =   0.0380952
        k(   24) = (   0.2065877   0.3180626   0.5594288), wk =   0.0380952
        k(   25) = (   0.2065877   0.5168517   0.0000000), wk =   0.0190476
        k(   26) = (   0.2065877   0.5168517   0.1864763), wk =   0.0380952
        k(   27) = (   0.2065877   0.5168517   0.3729525), wk =   0.0380952
        k(   28) = (   0.2065877   0.5168517   0.5594288), wk =   0.0380952
        k(   29) = (   0.2065877  -0.4770939   0.0000000), wk =   0.0190476
        k(   30) = (   0.2065877  -0.4770939   0.1864763), wk =   0.0380952
        k(   31) = (   0.2065877  -0.4770939   0.3729525), wk =   0.0380952
        k(   32) = (   0.2065877  -0.4770939   0.5594288), wk =   0.0380952
        k(   33) = (   0.2065877  -0.2783048   0.0000000), wk =   0.0190476
        k(   34) = (   0.2065877  -0.2783048   0.1864763), wk =   0.0380952
        k(   35) = (   0.2065877  -0.2783048   0.3729525), wk =   0.0380952
        k(   36) = (   0.2065877  -0.2783048   0.5594288), wk =   0.0380952
        k(   37) = (   0.2065877  -0.0795156   0.0000000), wk =   0.0190476
        k(   38) = (   0.2065877  -0.0795156   0.1864763), wk =   0.0380952
        k(   39) = (   0.2065877  -0.0795156   0.3729525), wk =   0.0380952
        k(   40) = (   0.2065877  -0.0795156   0.5594288), wk =   0.0380952
        k(   41) = (   0.4131754   0.2385469   0.0000000), wk =   0.0190476
        k(   42) = (   0.4131754   0.2385469   0.1864763), wk =   0.0380952
        k(   43) = (   0.4131754   0.2385469   0.3729525), wk =   0.0380952
        k(   44) = (   0.4131754   0.2385469   0.5594288), wk =   0.0380952
        k(   45) = (   0.4131754   0.4373360   0.0000000), wk =   0.0190476
        k(   46) = (   0.4131754   0.4373360   0.1864763), wk =   0.0380952
        k(   47) = (   0.4131754   0.4373360   0.3729525), wk =   0.0380952
        k(   48) = (   0.4131754   0.4373360   0.5594288), wk =   0.0380952
        k(   49) = (   0.4131754   0.6361251   0.0000000), wk =   0.0190476
        k(   50) = (   0.4131754   0.6361251   0.1864763), wk =   0.0380952
        k(   51) = (   0.4131754   0.6361251   0.3729525), wk =   0.0380952
        k(   52) = (   0.4131754   0.6361251   0.5594288), wk =   0.0380952
        k(   53) = (   0.4131754  -0.3578204   0.0000000), wk =   0.0190476
        k(   54) = (   0.4131754  -0.3578204   0.1864763), wk =   0.0380952
        k(   55) = (   0.4131754  -0.3578204   0.3729525), wk =   0.0380952
        k(   56) = (   0.4131754  -0.3578204   0.5594288), wk =   0.0380952
        k(   57) = (   0.4131754  -0.1590313   0.0000000), wk =   0.0190476
        k(   58) = (   0.4131754  -0.1590313   0.1864763), wk =   0.0380952
        k(   59) = (   0.4131754  -0.1590313   0.3729525), wk =   0.0380952
        k(   60) = (   0.4131754  -0.1590313   0.5594288), wk =   0.0380952
        k(   61) = (   0.4131754   0.0397578   0.0000000), wk =   0.0190476
        k(   62) = (   0.4131754   0.0397578   0.1864763), wk =   0.0380952
        k(   63) = (   0.4131754   0.0397578   0.3729525), wk =   0.0380952
        k(   64) = (   0.4131754   0.0397578   0.5594288), wk =   0.0380952

     Largest allocated arrays     est. size (Mb)     dimensions
     Largest temporary arrays     est. size (Mb)     dimensions

     Initial potential from superposition of free atoms

     Starting from uniform charge
     Starting wfc are    0 randomized atomic wfcs

     Writing output data file Prototype-La-hP8-Mg3Cd.save

     Self-consistent Calculation

[...]

     iteration # 10     ecut=    40.00 Ry     beta=0.70
     CG style diagonalization
     c_bands:  1 eigenvalues not converged
     c_bands:  1 eigenvalues not converged
     ethr =  1.29E-07,  avg # of iterations =  4.0

     total energy              =   -2915.54879828 Ry
     Harris-Foulkes estimate   =   -2915.54886957 Ry
     estimated scf accuracy    <       0.00011545 Ry

     iteration # 11     ecut=    40.00 Ry     beta=0.70
     CG style diagonalization
     ethr =  6.34E-08,  avg # of iterations =  3.6

     End of self-consistent calculation

[...]

          k = 0.4132 0.0398 0.5594 (  4607 PWs)   bands (ev):

   -94.7533 -94.7388 -94.7228 -94.7126 -94.7032 -94.6963 -53.5577 -53.5487
   -53.5456 -53.5441 -53.5400 -53.5357 -53.5330 -53.5326 -53.5226 -53.5218
   -53.5175 -53.5169 -53.5135 -53.5075 -53.5054 -53.5025 -53.5001 -53.4994
   -46.4905 -46.4887 -14.9606 -14.9525 -14.8994 -14.8930 -14.8910 -14.8891
     3.9047   3.9118   3.9893   4.0200   4.0398   4.0517   4.1194   4.1754
     4.1813   4.1837   4.2761   4.2977   4.3284   4.4390   4.4525   4.4604
     4.4743   4.5309   4.5512   4.5673   4.6095   4.6554   4.6652   4.6688
     4.7266   4.7516   4.8579   4.8765   4.9245   4.9748  14.0652  15.0222
    16.0542  16.5238  17.3693  17.7844  20.1867  20.6175  20.7473  21.0223
    21.8221  22.0779  22.2162  22.3782  22.8135  22.9728  23.5037  23.5706
    23.9147  24.4083  25.6208  26.0827  27.1888  27.3278  28.1063  28.3738
    29.2669  29.8122  30.1947  30.4172  30.9385  31.4068  31.7209  31.7736
    32.5291  32.9886  33.4075  33.8746  33.9303  34.2423  34.9540  35.3049
    35.4920  35.9192  36.2226  36.7504  37.2648

     the Fermi energy is    29.9850 ev

!    total energy              =   -2915.54882147 Ry
     Harris-Foulkes estimate   =   -2915.54882312 Ry
     estimated scf accuracy    <       0.00000206 Ry

     The total energy is the sum of the following terms:

     one-electron contribution =    -847.77235295 Ry
     hartree contribution      =     511.09339029 Ry
     xc contribution           =    -236.12468985 Ry
     ewald contribution        =   -2342.47574083 Ry
     smearing contrib. (-TS)   =      -0.26942813 Ry

     convergence has been achieved in  11 iterations

     Forces acting on atoms (Ry/au):

     atom    1 type  1   force =    -0.00013232   -0.00007639    0.00000000
     atom    2 type  1   force =    -0.00013232    0.00007639    0.00000000
     atom    3 type  1   force =     0.00013232    0.00007639    0.00000000
     atom    4 type  1   force =     0.00013232   -0.00007639    0.00000000
     atom    5 type  1   force =     0.00000000    0.00015279    0.00000000
     atom    6 type  1   force =     0.00000000   -0.00015279    0.00000000
     atom    7 type  2   force =     0.00000000    0.00000000    0.00000000
     atom    8 type  2   force =     0.00000000    0.00000000    0.00000000

     Total force =     0.000374     Total SCF correction =     0.000000

     entering subroutine stress ...

          total   stress  (Ry/bohr**3)                   (kbar)     P=  122.54
   0.00079936   0.00000000   0.00000000        117.59      0.00      0.00
   0.00000000   0.00079936   0.00000000          0.00    117.59      0.00
   0.00000000   0.00000000   0.00090024          0.00      0.00    132.43

     Writing output data file Prototype-La-hP8-Mg3Cd.save

     General routines

     Parallel routines

   This run was terminated on:  13:14:33  22Mar2018

   JOB DONE.