     Program PWSCF v.5.0.2 starts on 22Mar2018 at 12:13:51

     Current dimensions of program PWSCF are:
     Max number of different atomic species (ntypx) = 10
     Max number of k-points (npk) =  40000
     Max angular momentum in pseudopotentials (lmaxx) =  3
     Waiting for input...
     Reading input from standard input

     Subspace diagonalization in iterative solution of the eigenvalue problem:
     a serial algorithm will be used

     bravais-lattice index     =            0
     lattice parameter (alat)  =       7.0151  a.u.
     unit-cell volume          =     862.2778 (a.u.)^3
     number of atoms/cell      =           12
     number of atomic types    =            2
     number of electrons       =       268.00
     number of Kohn-Sham states=          161
     kinetic-energy cutoff     =      40.0000  Ry
     charge density cutoff     =     160.0000  Ry
     convergence threshold     =      1.0E-04
     mixing beta               =       0.7000
     number of iterations used =            8  plain     mixing
     Exchange-correlation      = SLA-PZ-NOGX-NOGC ( 1 1 0 0 0)
     EXX-fraction              =        0.00
     nstep                     =           50

     celldm(1)=   7.015105  celldm(2)=   0.000000  celldm(3)=   0.000000
     celldm(4)=   0.000000  celldm(5)=   0.000000  celldm(6)=   0.000000

     crystal axes: (cart. coord. in units of alat)
               a(1) = (   1.000000   0.000000   0.000000 )
               a(2) = (   0.000000   1.315963   0.000000 )
               a(3) = (   0.000000   0.000000   1.898020 )

     reciprocal axes: (cart. coord. in units 2 pi/alat)
               b(1) = (  1.000000  0.000000  0.000000 )
               b(2) = (  0.000000  0.759900  0.000000 )
               b(3) = (  0.000000  0.000000  0.526865 )

     PseudoPot. # 1 for Yb read from file:
     /home/jld5415/pp.La/Yb.UPF
     MD5 check sum: 3e859b81cc28c53ec6aa3a2e888efcdf
     Pseudo is Norm-conserving, Zval = 24.0
     Generated in analytical, separable form
     Using radial grid of 1269 points,  6 beta functions with:
                l(1) =   0
                l(2) =   0
                l(3) =   1
                l(4) =   1
                l(5) =   2
                l(6) =   3

     PseudoPot. # 2 for Tb read from file:
     /home/jld5415/pp.La/Tb.UPF
     MD5 check sum: 3d6088a3f0cf7fd2e110c43f7f8e95c2
     Pseudo is Norm-conserving, Zval = 19.0
     Generated in analytical, separable form
     Using radial grid of 1263 points,  6 beta functions with:
                l(1) =   0
                l(2) =   0
                l(3) =   1
                l(4) =   1
                l(5) =   2
                l(6) =   3

     atomic species   valence    mass     pseudopotential
        Co            24.00    58.93320     Yb( 1.00)
        Si            19.00    28.08550     Tb( 1.00)

      8 Sym. Ops., with inversion, found ( 6 have fractional translation)

   Cartesian axes

     site n.     atom                  positions (alat units)
         1           Co  tau(   1) = (   0.7500000   1.0875135   0.8270358  )
         2           Co  tau(   2) = (   0.2500000   0.2284499   1.0709846  )
         3           Co  tau(   3) = (   0.7500000   0.4295318   0.1219744  )
         4           Co  tau(   4) = (   0.2500000   0.8864316   1.7760460  )
         5           Co  tau(   5) = (   0.2500000   0.7067855   0.5358966  )
         6           Co  tau(   6) = (   0.7500000   0.6091779   1.3621238  )
         7           Co  tau(   7) = (   0.2500000   0.0488038   0.4131136  )
         8           Co  tau(   8) = (   0.7500000   1.2671596   1.4849068  )
         9           Si  tau(   9) = (   0.2500000   0.2669484   1.6960710  )
        10           Si  tau(  10) = (   0.7500000   1.0490149   0.2019494  )
        11           Si  tau(  11) = (   0.2500000   0.9249301   1.1509596  )
        12           Si  tau(  12) = (   0.7500000   0.3910333   0.7470608  )

     number of k points=    12  gaussian smearing, width (Ry)=  0.1000
                       cart. coord. in units 2pi/alat
        k(    1) = (   0.0000000   0.0000000   0.0000000), wk =   0.0833333
        k(    2) = (   0.0000000   0.0000000   0.1317162), wk =   0.1666667
        k(    3) = (   0.0000000   0.0000000  -0.2634324), wk =   0.0833333
        k(    4) = (   0.0000000   0.2532999   0.0000000), wk =   0.1666667
        k(    5) = (   0.0000000   0.2532999   0.1317162), wk =   0.3333333
        k(    6) = (   0.0000000   0.2532999  -0.2634324), wk =   0.1666667
        k(    7) = (  -0.5000000   0.0000000   0.0000000), wk =   0.0833333
        k(    8) = (  -0.5000000   0.0000000   0.1317162), wk =   0.1666667
        k(    9) = (  -0.5000000   0.0000000  -0.2634324), wk =   0.0833333
        k(   10) = (  -0.5000000   0.2532999   0.0000000), wk =   0.1666667
        k(   11) = (  -0.5000000   0.2532999   0.1317162), wk =   0.3333333
        k(   12) = (  -0.5000000   0.2532999  -0.2634324), wk =   0.1666667

     Largest allocated arrays     est. size (Mb)     dimensions
     Largest temporary arrays     est. size (Mb)     dimensions

     Initial potential from superposition of free atoms

     Starting from uniform charge
     Starting wfc are    0 randomized atomic wfcs

     Self-consistent Calculation

     iteration #  1     ecut=    40.00 Ry     beta=0.70
     CG style diagonalization
     c_bands:  5 eigenvalues not converged
     c_bands:  4 eigenvalues not converged
     c_bands:  4 eigenvalues not converged
     c_bands:  2 eigenvalues not converged
     ethr =  1.00E-02,  avg # of iterations = 15.5

     total energy              =   -3410.31166188 Ry
     Harris-Foulkes estimate   =   -4867.92361842 Ry
     estimated scf accuracy    <    1803.24914237 Ry

[...]

     iteration #  3     ecut=    40.00 Ry     beta=0.70
     CG style diagonalization
     ethr =  1.00E-02,  avg # of iterations = 10.2

[...]

     End of self-consistent calculation

          k = 0.0000 0.0000 0.0000 (  3675 PWs)   bands (ev):

   -68.7236 -68.7207 -68.7056 -68.6672 -68.5273 -68.4762 -68.4302 -68.4253
   -28.0102 -27.9474 -27.9454 -27.9169 -27.8553 -27.8303 -27.8082 -27.7950
   -27.7920 -27.7518 -27.7269 -27.6507 -27.6422 -27.6398 -27.5567 -27.5565
   -27.5222 -27.5164 -27.4782 -27.4748 -27.4689 -27.3758 -27.2577 -27.2513
   -23.9771 -23.9140 -23.8918 -23.8913   6.4437   6.5939   6.6040   6.6223
     6.6509   6.6518   6.7081   6.7284   7.0408   7.1714   7.2083   7.3731
    26.3981  26.4742  26.4994  26.5538  26.5789  26.8793  26.9038  26.9811
    27.3770  27.4673  27.6268  27.6500  27.8752  28.2164  28.2258  28.6930
    28.7450  28.7843  28.7977  28.8406  28.9549  28.9755  29.1034  29.2447
    29.3577  29.4364  29.6413  29.6603  29.8704  29.9745  29.9969  30.1008
    30.2649  30.2864  30.9035  31.0853  31.0856  31.3346  31.4153  31.4194
    31.6511  35.9578  36.3182  36.4040  39.4454  39.9962  40.4277  40.7971
    40.8410  41.9664  42.3309  42.6715  42.7605  42.9176  43.2029  43.2661
    43.5430  44.2213  44.7340  44.7748  45.2366  45.3829  45.4253  45.5312
    45.9017  47.9866  48.7117  48.7657  49.0062  49.8158  50.5888  53.0403
    53.2940  54.0865  54.6248  54.8743  54.9845  55.1081  55.5064  55.6935
    56.0129  56.8136  56.8270  57.2081  57.2336  57.3319  57.4291  57.6445
    57.8181  57.8295  58.2351  58.5172  58.5348  58.6836  59.3098  59.4059
    59.4172  59.9438  60.5441  60.7868  61.8727  62.1376  62.3628  62.3637
    62.5379  62.9421  63.1806  63.4621  63.6892  63.7745  63.8222  65.3788
    65.4556

[...]

          k =-0.5000 0.0000 0.0000 (  3722 PWs)   bands (ev):

[...]

     the Fermi energy is    57.8834 ev

!    total energy              =   -4173.65162402 Ry
     Harris-Foulkes estimate   =   -4173.65164084 Ry
     estimated scf accuracy    <       0.00002084 Ry

     The total energy is the sum of the following terms:

     one-electron contribution =     -50.49435738 Ry
     hartree contribution      =     416.27949976 Ry
     xc contribution           =    -361.46306759 Ry
     ewald contribution        =   -4177.47282634 Ry
     smearing contrib. (-TS)   =      -0.50087247 Ry

     convergence has been achieved in  10 iterations

     Forces acting on atoms (Ry/au):

     atom    1 type  1   force =     0.00000000   -0.02972316   -0.07503141
     atom    2 type  1   force =     0.00000000    0.02972316    0.07503141
     atom    3 type  1   force =     0.00000000   -0.02972316    0.07503141
     atom    4 type  1   force =     0.00000000    0.02972316   -0.07503141
     atom    5 type  1   force =     0.00000000    0.07117050   -0.12913003
     atom    6 type  1   force =     0.00000000   -0.07117050    0.12913003
     atom    7 type  1   force =     0.00000000    0.07117050    0.12913003
     atom    8 type  1   force =     0.00000000   -0.07117050   -0.12913003
     atom    9 type  2   force =     0.00000000   -0.15247658    0.04745606
     atom   10 type  2   force =     0.00000000    0.15247658   -0.04745606
     atom   11 type  2   force =     0.00000000   -0.15247658   -0.04745606
     atom   12 type  2   force =     0.00000000    0.15247658    0.04745606

     Total force =     0.463699     Total SCF correction =     0.000000

     entering subroutine stress ...

          total   stress  (Ry/bohr**3)                   (kbar)     P= 7634.16
   0.05458413   0.00000000   0.00000000       8029.60      0.00      0.00
   0.00000000   0.04977144   0.00000000          0.00   7321.63      0.00
   0.00000000   0.00000000   0.05133244          0.00      0.00   7551.26

     BFGS Geometry Optimization

     number of scf cycles    =   1
     number of bfgs steps    =   0

     enthalpy new            =   -4173.6516240190 Ry

     new trust radius        =       0.5000000000 bohr
     new conv_thr            =       0.0001000000 Ry

     new unit-cell volume =   1089.05846 a.u.^3 (   161.38181 Ang^3 )

CELL_PARAMETERS (alat=  7.01510508)
   1.085136619   0.000000000   0.000000000
   0.000000000   1.418121762   0.000000000
   0.000000000   0.000000000   2.049985129

ATOMIC_POSITIONS (crystal)
Co       0.750000000   0.826200125   0.435384425
Co       0.250000000   0.173799875   0.564615575
Co       0.750000000   0.326200125   0.064615575
Co       0.250000000   0.673799875   0.935384425
Co       0.250000000   0.537566986   0.281739935
Co       0.750000000   0.462433014   0.718260065
Co       0.250000000   0.037566986   0.218260065
Co       0.750000000   0.962433014   0.781739935
Si       0.250000000   0.201823531   0.893822365
Si       0.750000000   0.798176469   0.106177635
Si       0.250000000   0.701823531   0.606177635
Si       0.750000000   0.298176469   0.393822365

     Writing output data file Prototype-La-oP12-Co2Si.save
     NEW-OLD atomic charge density approx. for the potential
     NEW k-points:
        k(    1) = (   0.0000000   0.0000000   0.0000000), wk =   0.0833333
        k(    2) = (   0.0000000   0.0000000   0.1219521), wk =   0.1666667
        k(    3) = (   0.0000000   0.0000000  -0.2439042), wk =   0.0833333
        k(    4) = (   0.0000000   0.2350527   0.0000000), wk =   0.1666667
        k(    5) = (   0.0000000   0.2350527   0.1219521), wk =   0.3333333
        k(    6) = (   0.0000000   0.2350527  -0.2439042), wk =   0.1666667
        k(    7) = (  -0.4607715   0.0000000   0.0000000), wk =   0.0833333
        k(    8) = (  -0.4607715   0.0000000   0.1219521), wk =   0.1666667
        k(    9) = (  -0.4607715   0.0000000  -0.2439042), wk =   0.0833333
        k(   10) = (  -0.4607715   0.2350527   0.0000000), wk =   0.1666667
        k(   11) = (  -0.4607715   0.2350527   0.1219521), wk =   0.3333333
        k(   12) = (  -0.4607715   0.2350527  -0.2439042), wk =   0.1666667

[...]

     enthalpy old            =   -4173.6516240190 Ry
     enthalpy new            =   -4181.0922096617 Ry

     CASE: enthalpy_new < enthalpy_old

     small trust_radius: resetting bfgs history

     new trust radius        =       2.9866182956 bohr
     new conv_thr            =       0.0000885308 Ry

[...]

          total   stress  (Ry/bohr**3)                   (kbar)     P=-6189.09
  -0.04472853   0.00000000   0.00000000      -6579.79      0.00      0.00
   0.00000000  -0.03999618   0.00000000          0.00  -5883.64      0.00
   0.00000000   0.00000000  -0.04149296          0.00      0.00  -6103.82

     number of scf cycles    =   3
     number of bfgs steps    =   2

     enthalpy old            =   -4181.0922096617 Ry
     enthalpy new            =   -4130.5464373174 Ry

     CASE: enthalpy_new > enthalpy_old

     new trust radius        =       0.5679776418 bohr

     trust_radius < trust_radius_min

     resetting bfgs history

     Message from routine bfgs:
     history already reset at previous step: stopping
     new conv_thr            =       0.0000885308 Ry

     new unit-cell volume =   1294.10417 a.u.^3 (   191.76645 Ang^3 )

[...]

ATOMIC_POSITIONS (crystal)
Co       0.750000000   0.825823489   0.435065767
Co       0.250000000   0.174176511   0.564934233
Co       0.750000000   0.325823489   0.064934233
Co       0.250000000   0.674176511   0.935065767
Co       0.250000000   0.537770538   0.281391567
Co       0.750000000   0.462229462   0.718608433
Co       0.250000000   0.037770538   0.218608433
Co       0.750000000   0.962229462   0.781391567
Si       0.250000000   0.200941557   0.894048856
Si       0.750000000   0.799058443   0.105951144
Si       0.250000000   0.700941557   0.605951144
Si       0.750000000   0.299058443   0.394048856

     Writing output data file Prototype-La-oP12-Co2Si.save
     NEW-OLD atomic charge density approx. for the potential
     NEW k-points:
        k(    1) = (   0.0000000   0.0000000   0.0000000), wk =   0.0833333
        k(    2) = (   0.0000000   0.0000000   0.1152356), wk =   0.1666667
        k(    3) = (   0.0000000   0.0000000  -0.2304712), wk =   0.0833333
        k(    4) = (   0.0000000   0.2228240   0.0000000), wk =   0.1666667
        k(    5) = (   0.0000000   0.2228240   0.1152356), wk =   0.3333333
        k(    6) = (   0.0000000   0.2228240  -0.2304712), wk =   0.1666667
        k(    7) = (  -0.4328858   0.0000000   0.0000000), wk =   0.0833333
        k(    8) = (  -0.4328858   0.0000000   0.1152356), wk =   0.1666667
        k(    9) = (  -0.4328858   0.0000000  -0.2304712), wk =   0.0833333
        k(   10) = (  -0.4328858   0.2228240   0.0000000), wk =   0.1666667
        k(   11) = (  -0.4328858   0.2228240   0.1152356), wk =   0.3333333
        k(   12) = (  -0.4328858   0.2228240  -0.2304712), wk =   0.1666667

[...]

     The maximum number of steps has been reached.

     End of BFGS Geometry Optimization
Begin final coordinates
     new unit-cell volume =   1294.10417 a.u.^3 (   191.76645 Ang^3 )

CELL_PARAMETERS (alat=  7.01510508)
   1.155038990   0.000000000   0.000000000
   0.000000000   1.495948966   0.000000000
   0.000000000   0.000000000   2.169468122

ATOMIC_POSITIONS (crystal)
Co       0.750000000   0.825823489   0.435065767
Co       0.250000000   0.174176511   0.564934233
Co       0.750000000   0.325823489   0.064934233
Co       0.250000000   0.674176511   0.935065767
Co       0.250000000   0.537770538   0.281391567
Co       0.750000000   0.462229462   0.718608433
Co       0.250000000   0.037770538   0.218608433
Co       0.750000000   0.962229462   0.781391567
Si       0.250000000   0.200941557   0.894048856
Si       0.750000000   0.799058443   0.105951144
Si       0.250000000   0.700941557   0.605951144
Si       0.750000000   0.299058443   0.394048856
End final coordinates

     A final scf calculation at the relaxed structure.
     The G-vectors are recalculated for the final unit cell
     Results may differ from those at the preceding step.

     bravais-lattice index     =            0
     lattice parameter (alat)  =       7.0151  a.u.
     unit-cell volume          =    1294.1042 (a.u.)^3
     number of atoms/cell      =           12
     number of atomic types    =            2
     number of electrons       =       268.00
     number of Kohn-Sham states=          161
     kinetic-energy cutoff     =      40.0000  Ry
     charge density cutoff     =     160.0000  Ry
     convergence threshold     =      8.9E-05
     mixing beta               =       0.7000
     number of iterations used =            8  plain     mixing
     Exchange-correlation      = SLA-PZ-NOGX-NOGC ( 1 1 0 0 0)
     EXX-fraction              =        0.00

     celldm(1)=   7.015105  celldm(2)=   0.000000  celldm(3)=   0.000000
     celldm(4)=   0.000000  celldm(5)=   0.000000  celldm(6)=   0.000000

     crystal axes: (cart. coord. in units of alat)
               a(1) = (   1.155039   0.000000   0.000000 )
               a(2) = (   0.000000   1.495949   0.000000 )
               a(3) = (   0.000000   0.000000   2.169468 )

     reciprocal axes: (cart. coord. in units 2 pi/alat)
               b(1) = (  0.865772  0.000000  0.000000 )
               b(2) = (  0.000000  0.668472  0.000000 )
               b(3) = (  0.000000  0.000000  0.460942 )

     PseudoPot. # 1 for Yb read from file:
     /home/jld5415/pp.La/Yb.UPF
     MD5 check sum: 3e859b81cc28c53ec6aa3a2e888efcdf
     Pseudo is Norm-conserving, Zval = 24.0
     Generated in analytical, separable form
     Using radial grid of 1269 points,  6 beta functions with:
                l(1) =   0
                l(2) =   0
                l(3) =   1
                l(4) =   1
                l(5) =   2
                l(6) =   3

     PseudoPot. # 2 for Tb read from file:
     /home/jld5415/pp.La/Tb.UPF
     MD5 check sum: 3d6088a3f0cf7fd2e110c43f7f8e95c2
     Pseudo is Norm-conserving, Zval = 19.0
     Generated in analytical, separable form
     Using radial grid of 1263 points,  6 beta functions with:
                l(1) =   0
                l(2) =   0
                l(3) =   1
                l(4) =   1
                l(5) =   2
                l(6) =   3

     atomic species   valence    mass     pseudopotential
        Co            24.00    58.93320     Yb( 1.00)
        Si            19.00    28.08550     Tb( 1.00)

      8 Sym. Ops., with inversion, found ( 6 have fractional translation)

   Cartesian axes

     site n.     atom                  positions (alat units)
         1           Co  tau(   1) = (   0.8662792   1.2353898   0.9438613  )
         2           Co  tau(   2) = (   0.2887597   0.2605592   1.2256068  )
         3           Co  tau(   3) = (   0.8662792   0.4874153   0.1408727  )
         4           Co  tau(   4) = (   0.2887597   1.0085337   2.0285954  )
         5           Co  tau(   5) = (   0.2887597   0.8044773   0.6104700  )
         6           Co  tau(   6) = (   0.8662792   0.6914717   1.5589981  )
         7           Co  tau(   7) = (   0.2887597   0.0565028   0.4742640  )
         8           Co  tau(   8) = (   0.8662792   1.4394462   1.6952041  )
         9           Si  tau(   9) = (   0.2887597   0.3005983   1.9396105  )
        10           Si  tau(  10) = (   0.8662792   1.1953507   0.2298576  )
        11           Si  tau(  11) = (   0.2887597   1.0485728   1.3145917  )
        12           Si  tau(  12) = (   0.8662792   0.4473762   0.8548764  )

     number of k points=    12  gaussian smearing, width (Ry)=  0.1000
                       cart. coord. in units 2pi/alat
        k(    1) = (   0.0000000   0.0000000   0.0000000), wk =   0.0833333
        k(    2) = (   0.0000000   0.0000000   0.1152356), wk =   0.1666667
        k(    3) = (   0.0000000   0.0000000  -0.2304712), wk =   0.0833333
        k(    4) = (   0.0000000   0.2228240   0.0000000), wk =   0.1666667
        k(    5) = (   0.0000000   0.2228240   0.1152356), wk =   0.3333333
        k(    6) = (   0.0000000   0.2228240  -0.2304712), wk =   0.1666667
        k(    7) = (  -0.4328858   0.0000000   0.0000000), wk =   0.0833333
        k(    8) = (  -0.4328858   0.0000000   0.1152356), wk =   0.1666667
        k(    9) = (  -0.4328858   0.0000000  -0.2304712), wk =   0.0833333
        k(   10) = (  -0.4328858   0.2228240   0.0000000), wk =   0.1666667
        k(   11) = (  -0.4328858   0.2228240   0.1152356), wk =   0.3333333
        k(   12) = (  -0.4328858   0.2228240  -0.2304712), wk =   0.1666667

     Largest allocated arrays     est. size (Mb)     dimensions
     Largest temporary arrays     est. size (Mb)     dimensions

     Initial potential from superposition of free atoms

     Starting from uniform charge
     Starting wfc are    0 randomized atomic wfcs

     Writing output data file Prototype-La-oP12-Co2Si.save

     Self-consistent Calculation

[...]

     iteration #  7     ecut=    40.00 Ry     beta=0.70
     CG style diagonalization
     ethr =  1.73E-04,  avg # of iterations =  3.9

[...]

     total energy              =   -4189.53932118 Ry
     Harris-Foulkes estimate   =   -4189.53940074 Ry
     estimated scf accuracy    <       0.00015711 Ry

     iteration # 11     ecut=    40.00 Ry     beta=0.70
     CG style diagonalization
     c_bands:  1 eigenvalues not converged
     ethr =  5.86E-08,  avg # of iterations =  3.5

     End of self-consistent calculation

[...]

          k = 0.0000 0.2228-0.2305 (  5522 PWs)   bands (ev):

[...]

          k =-0.4329 0.2228-0.2305 (  5536 PWs)   bands (ev):

   -87.3281 -87.3281 -87.3059 -87.3059 -87.1195 -87.1195 -87.1194 -87.1194
   -46.1952 -46.1952 -46.1940 -46.1940 -46.1690 -46.1690 -46.1679 -46.1679
   -46.1294 -46.1294 -46.1271 -46.1271 -46.0024 -46.0024 -45.9878 -45.9878
   -45.9874 -45.9874 -45.9752 -45.9752 -45.9328 -45.9328 -45.9241 -45.9241
   -40.0819 -40.0819 -40.0818 -40.0818  -8.7970  -8.7970  -8.7901  -8.7901
    -8.7562  -8.7562  -8.7501  -8.7501  -8.5814  -8.5814  -8.5773  -8.5773
    10.8782  10.8782  11.0511  11.0511  11.0605  11.0605  11.1314  11.1314
    11.1547  11.1547  11.2756  11.2756  11.2843  11.2843  11.4281  11.4281
    11.4741  11.4741  11.5177  11.5177  11.5385  11.5385  11.7092  11.7092
    11.7354  11.7354  11.8068  11.8068  11.8193  11.8193  11.8881  11.8881
    11.9531  11.9531  12.1248  12.1248  12.1760  12.1760  12.3899  12.3899
    21.0446  21.0446  21.6895  21.6895  22.7457  22.7457  23.1324  23.1324
    26.1696  26.1696  26.4498  26.4498  26.7033  26.7033  26.9848  26.9848
    27.6665  27.6665  27.7645  27.7645  28.0835  28.0835  28.3396  28.3396
    29.0370  29.0370  29.5579  29.5579  30.3932  30.3932  31.7736  31.7736
    32.5376  32.5376  33.2792  33.2792  34.0939  34.0939  35.5423  35.5423
    37.4601  37.4601  37.6605  37.6605  38.9233  38.9233  38.9308  38.9308
    40.0133  40.0133  40.1406  40.1406  40.8860  40.8861  41.0537  41.0537
    41.7388  41.7388  41.8521  41.8521  42.0862  42.0862  42.6136  42.6136
    42.8995  42.8995  43.1315  43.1315  43.8952  43.8952  45.0694  45.0695
    45.7112

     the Fermi energy is    38.0497 ev

!    total energy              =   -4189.53935516 Ry
     Harris-Foulkes estimate   =   -4189.53936074 Ry
     estimated scf accuracy    <       0.00000563 Ry

     The total energy is the sum of the following terms:

     one-electron contribution =    -802.64264107 Ry
     hartree contribution      =     611.88210098 Ry
     xc contribution           =    -348.98916197 Ry
     ewald contribution        =   -3649.43304847 Ry
     smearing contrib. (-TS)   =      -0.35660464 Ry

     convergence has been achieved in  11 iterations

     Forces acting on atoms (Ry/au):

     atom    1 type  1   force =     0.00000000   -0.04343627   -0.04340616
     atom    2 type  1   force =     0.00000000    0.04343627    0.04340616
     atom    3 type  1   force =     0.00000000   -0.04343627    0.04340616
     atom    4 type  1   force =     0.00000000    0.04343627   -0.04340616
     atom    5 type  1   force =     0.00000000    0.00179075   -0.01189339
     atom    6 type  1   force =     0.00000000   -0.00179075    0.01189339
     atom    7 type  1   force =     0.00000000    0.00179075    0.01189339
     atom    8 type  1   force =     0.00000000   -0.00179075   -0.01189339
     atom    9 type  2   force =     0.00000000   -0.06611391    0.01639203
     atom   10 type  2   force =     0.00000000    0.06611391   -0.01639203
     atom   11 type  2   force =     0.00000000   -0.06611391   -0.01639203
     atom   12 type  2   force =     0.00000000    0.06611391    0.01639203

     Total force =     0.184989     Total SCF correction =     0.000000

     entering subroutine stress ...

          total   stress  (Ry/bohr**3)                   (kbar)     P= 1394.45
   0.00992080   0.00000000   0.00000000       1459.40      0.00      0.00
   0.00000000   0.00918639   0.00000000          0.00   1351.36      0.00
   0.00000000   0.00000000   0.00933058          0.00      0.00   1372.58

     Writing output data file Prototype-La-oP12-Co2Si.save

     General routines

     Parallel routines

   This run was terminated on:  12:44:40  22Mar2018

   JOB DONE.