     Program PWSCF v.5.0.2 starts on 21Mar2018 at 22:59:10

     Current dimensions of program PWSCF are:
     Max number of different atomic species (ntypx) = 10
     Max number of k-points (npk) =  40000
     Max angular momentum in pseudopotentials (lmaxx) =  3
     Waiting for input...
     Reading input from standard input

     bravais-lattice index     =            0
     lattice parameter (alat)  =       6.8196  a.u.
     unit-cell volume          =     424.5056 (a.u.)^3
     number of atoms/cell      =            2
     number of atomic types    =            1
     number of electrons       =        42.00
     number of Kohn-Sham states=           25
     kinetic-energy cutoff     =      40.0000  Ry
     charge density cutoff     =     160.0000  Ry
     convergence threshold     =      1.0E-04
     mixing beta               =       0.7000
     number of iterations used =            8  plain     mixing
     Exchange-correlation      = SLA-PZ-NOGX-NOGC ( 1 1 0 0 0)
     EXX-fraction              =        0.00
     nstep                     =           50

     celldm(1)=   6.819555  celldm(2)=   0.000000  celldm(3)=   0.000000
     celldm(4)=   0.000000  celldm(5)=   0.000000  celldm(6)=   0.000000

     crystal axes: (cart. coord. in units of alat)
               a(1) = (   1.000000   0.000000   0.000000 )
               a(2) = (  -0.500000   0.866025   0.000000 )
               a(3) = (   0.000000   0.000000   1.545555 )

     reciprocal axes: (cart. coord. in units 2 pi/alat)
               b(1) = (  1.000000  0.577350  0.000000 )
               b(2) = (  0.000000  1.154701  0.000000 )
               b(3) = (  0.000000  0.000000  0.647017 )

     PseudoPot. # 1 for Ho read from file:
     /home/cwx6513/pp.La/Ho.UPF
     MD5 check sum: f307ee11bce99f5b724fa279e3790763
     Pseudo is Norm-conserving, Zval = 21.0
     Generated in analytical, separable form
     Using radial grid of 1265 points,  6 beta functions with:
                l(1) =   0
                l(2) =   0
                l(3) =   1
                l(4) =   1
                l(5) =   2
                l(6) =   3

     atomic species   valence    mass     pseudopotential
        Ho            21.00   164.93000     Ho( 1.00)

     12 Sym. Ops., with inversion, found
          (note: 12 additional sym.ops. were found but ignored
           their fractional translations are incommensurate with FFT grid)

   Cartesian axes

     site n.     atom                  positions (alat units)
         1           Ho  tau(   1) = (  -0.0000005   0.5773506   1.1591666  )
         2           Ho  tau(   2) = (   0.5000005   0.2886748   0.3863889  )

     number of k points=   106  gaussian smearing, width (Ry)=  0.1000

     Number of k-points >= 100: set verbosity='high' to print them.

     Largest allocated arrays     est. size (Mb)     dimensions
     Largest temporary arrays     est. size (Mb)     dimensions

     Initial potential from superposition of free atoms

     Starting from uniform charge
     Starting wfc are    0 randomized atomic wfcs

     Self-consistent Calculation

     iteration #  1     ecut=    40.00 Ry     beta=0.70
     CG style diagonalization
     c_bands:  1 eigenvalues not converged
     c_bands:  2 eigenvalues not converged
     c_bands:  1 eigenvalues not converged
     c_bands:  1 eigenvalues not converged
     c_bands:  1 eigenvalues not converged
     c_bands:  2 eigenvalues not converged
     c_bands:  1 eigenvalues not converged
     c_bands:  1 eigenvalues not converged
     c_bands:  1 eigenvalues not converged
     c_bands:  1 eigenvalues not converged
     c_bands:  1 eigenvalues not converged
     c_bands:  1 eigenvalues not converged
     c_bands:  1 eigenvalues not converged
     c_bands:  2 eigenvalues not converged
     c_bands:  1 eigenvalues not converged
     c_bands:  1 eigenvalues not converged
     c_bands:  1 eigenvalues not converged
     c_bands:  1 eigenvalues not converged
     c_bands:  1 eigenvalues not converged
     c_bands:  1 eigenvalues not converged
     c_bands:  1 eigenvalues not converged
     c_bands:  3 eigenvalues not converged
     c_bands:  1 eigenvalues not converged
     c_bands:  1 eigenvalues not converged
     c_bands:  1 eigenvalues not converged
     c_bands:  1 eigenvalues not converged
     ethr =  1.00E-02,  avg # of iterations = 11.8

     total energy              =    -523.59827150 Ry
     Harris-Foulkes estimate   =    -773.63072566 Ry
     estimated scf accuracy    <     319.67952112 Ry

     iteration #  2     ecut=    40.00 Ry     beta=0.70
     CG style diagonalization
     ethr =  1.00E-02,  avg # of iterations =  6.4

[...]

     End of self-consistent calculation

     Number of k-points >= 100: set verbosity='high' to print the bands.

     the Fermi energy is    16.0241 ev

!    total energy              =    -587.33200129 Ry
     Harris-Foulkes estimate   =    -587.33202597 Ry
     estimated scf accuracy    <       0.00003619 Ry

     The total energy is the sum of the following terms:

     one-electron contribution =    -241.02904930 Ry
     hartree contribution      =     131.76381970 Ry
     xc contribution           =     -51.13669751 Ry
     ewald contribution        =    -426.86416800 Ry
     smearing contrib. (-TS)   =      -0.06590618 Ry

     convergence has been achieved in   8 iterations

     Forces acting on atoms (Ry/au):

     atom    1 type  1   force =     0.00000000    0.00000000   -0.00376307
     atom    2 type  1   force =     0.00000000    0.00000000    0.00376307

     Total force =     0.005322     Total SCF correction =     0.000000

     entering subroutine stress ...

          total   stress  (Ry/bohr**3)                   (kbar)     P= -458.21
  -0.00317052   0.00000000   0.00000000       -466.40      0.00      0.00
   0.00000000  -0.00317052   0.00000000          0.00   -466.40      0.00
   0.00000000   0.00000000  -0.00300355          0.00      0.00   -441.84

     BFGS Geometry Optimization

     number of scf cycles    =   1
     number of bfgs steps    =   0

     enthalpy new            =    -587.3320012912 Ry

     new trust radius        =       0.3266190793 bohr
     new conv_thr            =       0.0001000000 Ry

     new unit-cell volume =    332.85478 a.u.^3 (    49.32399 Ang^3 )

CELL_PARAMETERS (alat=  6.81955533)
   0.920737116   0.000000000   0.000000000
  -0.460368558   0.797381733   0.000000000
   0.000000000   0.000000000   1.429501757

ATOMIC_POSITIONS (crystal)
Ho       0.333333000   0.666667000   0.749642973
Ho       0.666667000   0.333333000   0.250357027

     Writing output data file Element-Ho.q.save
     NEW-OLD atomic charge density approx. for the potential
     NEW k-points: (use verbosity='high' to print them)

[...]

     enthalpy old            =    -587.3320012912 Ry
     enthalpy new            =    -587.5106856549 Ry

     CASE: enthalpy_new < enthalpy_old

     small trust_radius: resetting bfgs history

     new trust radius        =       0.0449003097 bohr
     new conv_thr            =       0.0000328962 Ry

[...]

     number of scf cycles    =   3
     number of bfgs steps    =   2

     enthalpy old            =    -587.5106856549 Ry
     enthalpy new            =    -587.5098016748 Ry

     CASE: enthalpy_new > enthalpy_old

     new trust radius        =       0.0196606110 bohr

     trust_radius < trust_radius_min

     resetting bfgs history

     Message from routine bfgs:
     history already reset at previous step: stopping
     new conv_thr            =       0.0000328962 Ry

     new unit-cell volume =    323.75768 a.u.^3 (    47.97594 Ang^3 )

[...]

ATOMIC_POSITIONS (crystal)
Ho       0.333333000   0.666667000   0.746249461
Ho       0.666667000   0.333333000   0.253750539

     Writing output data file Element-Ho.q.save
     NEW-OLD atomic charge density approx. for the potential
     NEW k-points: (use verbosity='high' to print them)

[...]

     The maximum number of steps has been reached.

     End of BFGS Geometry Optimization
Begin final coordinates
     new unit-cell volume =    323.75768 a.u.^3 (    47.97594 Ang^3 )

CELL_PARAMETERS (alat=  6.81955533)
   0.909375239   0.000000000   0.000000000
  -0.454687620   0.787542059   0.000000000
   0.000000000   0.000000000   1.425394341

ATOMIC_POSITIONS (crystal)
Ho       0.333333000   0.666667000   0.746249461
Ho       0.666667000   0.333333000   0.253750539
End final coordinates

     A final scf calculation at the relaxed structure.
     The G-vectors are recalculated for the final unit cell
     Results may differ from those at the preceding step.

     bravais-lattice index     =            0
     lattice parameter (alat)  =       6.8196  a.u.
     unit-cell volume          =     323.7577 (a.u.)^3
     number of atoms/cell      =            2
     number of atomic types    =            1
     number of electrons       =        42.00
     number of Kohn-Sham states=           25
     kinetic-energy cutoff     =      40.0000  Ry
     charge density cutoff     =     160.0000  Ry
     convergence threshold     =      3.3E-05
     mixing beta               =       0.7000
     number of iterations used =            8  plain     mixing
     Exchange-correlation      = SLA-PZ-NOGX-NOGC ( 1 1 0 0 0)
     EXX-fraction              =        0.00

     celldm(1)=   6.819555  celldm(2)=   0.000000  celldm(3)=   0.000000
     celldm(4)=   0.000000  celldm(5)=   0.000000  celldm(6)=   0.000000

     crystal axes: (cart. coord. in units of alat)
               a(1) = (   0.909375   0.000000   0.000000 )
               a(2) = (  -0.454688   0.787542   0.000000 )
               a(3) = (   0.000000   0.000000   1.425394 )

     reciprocal axes: (cart. coord. in units 2 pi/alat)
               b(1) = (  1.099656  0.634887  0.000000 )
               b(2) = (  0.000000  1.269773  0.000000 )
               b(3) = (  0.000000  0.000000  0.701560 )

     PseudoPot. # 1 for Ho read from file:
     /home/cwx6513/pp.La/Ho.UPF
     MD5 check sum: f307ee11bce99f5b724fa279e3790763
     Pseudo is Norm-conserving, Zval = 21.0
     Generated in analytical, separable form
     Using radial grid of 1265 points,  6 beta functions with:
                l(1) =   0
                l(2) =   0
                l(3) =   1
                l(4) =   1
                l(5) =   2
                l(6) =   3

     atomic species   valence    mass     pseudopotential
        Ho            21.00   164.93000     Ho( 1.00)

     12 Sym. Ops., with inversion, found
          (note: 12 additional sym.ops. were found but ignored
           their fractional translations are incommensurate with FFT grid)

   Cartesian axes

     site n.     atom                  positions (alat units)
         1           Ho  tau(   1) = (  -0.0000005   0.5250283   1.0636998  )
         2           Ho  tau(   2) = (   0.4546881   0.2625138   0.3616946  )

     number of k points=   106  gaussian smearing, width (Ry)=  0.1000

     Number of k-points >= 100: set verbosity='high' to print them.

     Largest allocated arrays     est. size (Mb)     dimensions
     Largest temporary arrays     est. size (Mb)     dimensions

     Initial potential from superposition of free atoms

     Starting from uniform charge
     Starting wfc are    0 randomized atomic wfcs

     Writing output data file Element-Ho.q.save

     Self-consistent Calculation

[...]

     iteration #  8     ecut=    40.00 Ry     beta=0.70
     CG style diagonalization
     c_bands:  1 eigenvalues not converged
     ethr =  1.92E-06,  avg # of iterations =  4.3

[...]

     total energy              =    -587.19864737 Ry
     Harris-Foulkes estimate   =    -587.19868242 Ry
     estimated scf accuracy    <       0.00010842 Ry

     iteration # 10     ecut=    40.00 Ry     beta=0.70
     CG style diagonalization
     ethr =  2.58E-07,  avg # of iterations =  3.0

     End of self-consistent calculation

     Number of k-points >= 100: set verbosity='high' to print the bands.

     the Fermi energy is    22.5879 ev

!    total energy              =    -587.19863016 Ry
     Harris-Foulkes estimate   =    -587.19865704 Ry
     estimated scf accuracy    <       0.00003064 Ry

     The total energy is the sum of the following terms:

     one-electron contribution =    -177.54453054 Ry
     hartree contribution      =     109.16939720 Ry
     xc contribution           =     -51.55505879 Ry
     ewald contribution        =    -467.21159940 Ry
     smearing contrib. (-TS)   =      -0.05683863 Ry

     convergence has been achieved in  10 iterations

     Forces acting on atoms (Ry/au):

     atom    1 type  1   force =     0.00000000    0.00000000    0.04327727
     atom    2 type  1   force =     0.00000000    0.00000000   -0.04327727

     Total force =     0.061203     Total SCF correction =     0.000000

     entering subroutine stress ...

          total   stress  (Ry/bohr**3)                   (kbar)     P= -339.46
  -0.00244553   0.00000000   0.00000000       -359.75      0.00      0.00
   0.00000000  -0.00244553   0.00000000          0.00   -359.75      0.00
   0.00000000   0.00000000  -0.00203165          0.00      0.00   -298.87

     Writing output data file Element-Ho.q.save

     General routines

     Parallel routines

   This run was terminated on:  23: 1:48  21Mar2018

   JOB DONE.