     Program PWSCF v.5.0.2 starts on 22Mar2018 at 21:33:55

     Current dimensions of program PWSCF are:
     Max number of different atomic species (ntypx) = 10
     Max number of k-points (npk) =  40000
     Max angular momentum in pseudopotentials (lmaxx) =  3
     Waiting for input...
     Reading input from standard input

     Subspace diagonalization in iterative solution of the eigenvalue problem:
     a serial algorithm will be used

     bravais-lattice index     =            0
     lattice parameter (alat)  =       8.5346  a.u.
     unit-cell volume          =     621.6493 (a.u.)^3
     number of atoms/cell      =            8
     number of atomic types    =            2
     number of electrons       =       172.00
     number of Kohn-Sham states=          103
     kinetic-energy cutoff     =      40.0000  Ry
     charge density cutoff     =     160.0000  Ry
     convergence threshold     =      1.0E-04
     mixing beta               =       0.7000
     number of iterations used =            8  plain     mixing
     Exchange-correlation      = SLA-PZ-NOGX-NOGC ( 1 1 0 0 0)
     EXX-fraction              =        0.00
     nstep                     =           50

     celldm(1)=   8.534573  celldm(2)=   0.000000  celldm(3)=   0.000000
     celldm(4)=   0.000000  celldm(5)=   0.000000  celldm(6)=   0.000000

     crystal axes: (cart. coord. in units of alat)
               a(1) = (   1.000000   0.000000   0.000000 )
               a(2) = (   0.000000   1.000000   0.000000 )
               a(3) = (   0.000000   0.000000   1.000000 )

     reciprocal axes: (cart. coord. in units 2 pi/alat)
               b(1) = (  1.000000  0.000000  0.000000 )
               b(2) = (  0.000000  1.000000  0.000000 )
               b(3) = (  0.000000  0.000000  1.000000 )

     PseudoPot. # 1 for Tm read from file:
     /home/cwx6513/pp.La/Tm.UPF
     MD5 check sum: 245516e0878b5372ceeb9443ded2c4e1
     Pseudo is Norm-conserving, Zval = 23.0
     Generated in analytical, separable form
     Using radial grid of 1269 points,  6 beta functions with:
                l(1) =   0
                l(2) =   0
                l(3) =   1
                l(4) =   1
                l(5) =   2
                l(6) =   3

     PseudoPot. # 2 for Eu read from file:
     /home/cwx6513/pp.La/Eu.UPF
     MD5 check sum: 5efdbbfc50c6a10138933a6429836ad2
     Pseudo is Norm-conserving, Zval = 17.0
     Generated in analytical, separable form
     Using radial grid of 1261 points,  6 beta functions with:
                l(1) =   0
                l(2) =   0
                l(3) =   1
                l(4) =   1
                l(5) =   2
                l(6) =   3

     atomic species   valence    mass     pseudopotential
        Cr            23.00    51.99610     Tm( 1.00)
        Si            17.00    28.08550     Eu( 1.00)

     48 Sym. Ops., with inversion, found (24 have fractional translation)

   Cartesian axes

     site n.     atom                  positions (alat units)
         1           Cr  tau(   1) = (   0.0000000   0.5000000   0.2500000  )
         2           Cr  tau(   2) = (   0.0000000   0.5000000   0.7500000  )
         3           Cr  tau(   3) = (   0.5000000   0.7500000   0.0000000  )
         4           Cr  tau(   4) = (   0.5000000   0.2500000   0.0000000  )
         5           Cr  tau(   5) = (   0.7500000   0.0000000   0.5000000  )
         6           Cr  tau(   6) = (   0.2500000   0.0000000   0.5000000  )
         7           Si  tau(   7) = (   0.5000000   0.5000000   0.5000000  )
         8           Si  tau(   8) = (   0.0000000   0.0000000   0.0000000  )

     number of k points=    48  gaussian smearing, width (Ry)=  0.1000
                       cart. coord. in units 2pi/alat
        k(    1) = (   0.0000000   0.0000000   0.0000000), wk =   0.0095238
        k(    2) = (   0.0000000   0.0000000   0.1428571), wk =   0.0190476
        k(    3) = (   0.0000000   0.0000000   0.2857143), wk =   0.0190476
        k(    4) = (   0.0000000   0.0000000   0.4285714), wk =   0.0190476
        k(    5) = (   0.0000000   0.1666667   0.0000000), wk =   0.0190476
        k(    6) = (   0.0000000   0.1666667   0.1428571), wk =   0.0380952
        k(    7) = (   0.0000000   0.1666667   0.2857143), wk =   0.0380952
        k(    8) = (   0.0000000   0.1666667   0.4285714), wk =   0.0380952
        k(    9) = (   0.0000000   0.3333333   0.0000000), wk =   0.0190476
        k(   10) = (   0.0000000   0.3333333   0.1428571), wk =   0.0380952
        k(   11) = (   0.0000000   0.3333333   0.2857143), wk =   0.0380952
        k(   12) = (   0.0000000   0.3333333   0.4285714), wk =   0.0380952
        k(   13) = (   0.0000000  -0.5000000   0.0000000), wk =   0.0095238
        k(   14) = (   0.0000000  -0.5000000   0.1428571), wk =   0.0190476
        k(   15) = (   0.0000000  -0.5000000   0.2857143), wk =   0.0190476
        k(   16) = (   0.0000000  -0.5000000   0.4285714), wk =   0.0190476
        k(   17) = (   0.2000000   0.0000000   0.0000000), wk =   0.0190476
        k(   18) = (   0.2000000   0.0000000   0.1428571), wk =   0.0380952
        k(   19) = (   0.2000000   0.0000000   0.2857143), wk =   0.0380952
        k(   20) = (   0.2000000   0.0000000   0.4285714), wk =   0.0380952
        k(   21) = (   0.2000000   0.1666667   0.0000000), wk =   0.0380952
        k(   22) = (   0.2000000   0.1666667   0.1428571), wk =   0.0761905
        k(   23) = (   0.2000000   0.1666667   0.2857143), wk =   0.0761905
        k(   24) = (   0.2000000   0.1666667   0.4285714), wk =   0.0761905
        k(   25) = (   0.2000000   0.3333333   0.0000000), wk =   0.0380952
        k(   26) = (   0.2000000   0.3333333   0.1428571), wk =   0.0761905
        k(   27) = (   0.2000000   0.3333333   0.2857143), wk =   0.0761905
        k(   28) = (   0.2000000   0.3333333   0.4285714), wk =   0.0761905
        k(   29) = (   0.2000000  -0.5000000   0.0000000), wk =   0.0190476
        k(   30) = (   0.2000000  -0.5000000   0.1428571), wk =   0.0380952
        k(   31) = (   0.2000000  -0.5000000   0.2857143), wk =   0.0380952
        k(   32) = (   0.2000000  -0.5000000   0.4285714), wk =   0.0380952
        k(   33) = (   0.4000000   0.0000000   0.0000000), wk =   0.0190476
        k(   34) = (   0.4000000   0.0000000   0.1428571), wk =   0.0380952
        k(   35) = (   0.4000000   0.0000000   0.2857143), wk =   0.0380952
        k(   36) = (   0.4000000   0.0000000   0.4285714), wk =   0.0380952
        k(   37) = (   0.4000000   0.1666667   0.0000000), wk =   0.0380952
        k(   38) = (   0.4000000   0.1666667   0.1428571), wk =   0.0761905
        k(   39) = (   0.4000000   0.1666667   0.2857143), wk =   0.0761905
        k(   40) = (   0.4000000   0.1666667   0.4285714), wk =   0.0761905
        k(   41) = (   0.4000000   0.3333333   0.0000000), wk =   0.0380952
        k(   42) = (   0.4000000   0.3333333   0.1428571), wk =   0.0761905
        k(   43) = (   0.4000000   0.3333333   0.2857143), wk =   0.0761905
        k(   44) = (   0.4000000   0.3333333   0.4285714), wk =   0.0761905
        k(   45) = (   0.4000000  -0.5000000   0.0000000), wk =   0.0190476
        k(   46) = (   0.4000000  -0.5000000   0.1428571), wk =   0.0380952
        k(   47) = (   0.4000000  -0.5000000   0.2857143), wk =   0.0380952
        k(   48) = (   0.4000000  -0.5000000   0.4285714), wk =   0.0380952

     Largest allocated arrays     est. size (Mb)     dimensions
     Largest temporary arrays     est. size (Mb)     dimensions

     Initial potential from superposition of free atoms

     Starting from uniform charge
     Starting wfc are    0 randomized atomic wfcs

     Self-consistent Calculation

     iteration #  1     ecut=    40.00 Ry     beta=0.70
     CG style diagonalization
     c_bands:  4 eigenvalues not converged
     c_bands:  2 eigenvalues not converged
     c_bands:  4 eigenvalues not converged
     c_bands:  2 eigenvalues not converged
     c_bands:  5 eigenvalues not converged
     c_bands:  2 eigenvalues not converged
     c_bands:  3 eigenvalues not converged
     c_bands:  1 eigenvalues not converged
     c_bands:  2 eigenvalues not converged
     c_bands:  1 eigenvalues not converged
     c_bands:  3 eigenvalues not converged
     c_bands:  3 eigenvalues not converged
     c_bands:  2 eigenvalues not converged
     c_bands:  5 eigenvalues not converged
     c_bands:  5 eigenvalues not converged
     c_bands:  2 eigenvalues not converged
     c_bands:  2 eigenvalues not converged
     c_bands:  4 eigenvalues not converged
     c_bands:  2 eigenvalues not converged
     c_bands:  1 eigenvalues not converged
     c_bands:  3 eigenvalues not converged
     c_bands:  2 eigenvalues not converged
     c_bands:  2 eigenvalues not converged
     c_bands:  2 eigenvalues not converged
     c_bands:  1 eigenvalues not converged
     c_bands:  3 eigenvalues not converged
     c_bands:  2 eigenvalues not converged
     c_bands:  1 eigenvalues not converged
     c_bands:  1 eigenvalues not converged
     c_bands:  3 eigenvalues not converged
     c_bands:  1 eigenvalues not converged
     c_bands:  1 eigenvalues not converged
     c_bands:  4 eigenvalues not converged
     ethr =  1.00E-02,  avg # of iterations = 13.4

     total energy              =   -2008.81485647 Ry
     Harris-Foulkes estimate   =   -3014.85249989 Ry
     estimated scf accuracy    <    1237.25444959 Ry

[...]

     iteration #  4     ecut=    40.00 Ry     beta=0.70
     CG style diagonalization
     ethr =  1.00E-02,  avg # of iterations =  4.4

[...]

     End of self-consistent calculation

          k = 0.0000 0.0000 0.0000 (  2601 PWs)   bands (ev):

   -61.5487 -61.5487 -61.4226 -61.1513 -61.1513 -61.1513 -21.8294 -21.8294
   -21.7384 -20.4549 -20.4549 -20.4549 -20.1207 -20.1207 -20.1207 -20.0365
   -20.0365 -20.0365 -19.9579 -19.9579 -19.9579 -19.6916 -19.6916 -19.6916
   -14.5077 -14.4788  11.7355  11.7355  11.7355  11.7614  11.7614  11.7614
    22.8710  22.8710  22.8813  24.5990  24.5990  24.5990  26.3317  26.7545
    26.7545  26.7545  27.2020  27.2020  27.2748  27.2748  27.2748  27.6068
    28.8143  28.8143  28.8143  29.1936  29.7460  29.7460  29.8886  29.8886
    29.8886  29.9254  29.9254  29.9254  30.8478  30.8478  30.8478  35.7333
    35.7333  41.2972  41.2972  41.5681  41.5681  41.5681  41.7048  41.7048
    41.7048  41.9172  41.9172  41.9172  46.3250  48.2300  48.2300  48.2300
    49.4165  49.4165  51.4252  51.4252  51.4252  52.0717  52.0717  52.4334
    55.1232  55.1232  55.1232  55.4755  55.5232  55.5233  55.5233  55.7338
    55.7338  55.7339  57.0355  57.0355  57.0355  58.0594  60.3128

[...]

     the Fermi energy is    53.0628 ev

!    total energy              =   -2543.92836350 Ry
     Harris-Foulkes estimate   =   -2543.92837770 Ry
     estimated scf accuracy    <       0.00001774 Ry

     The total energy is the sum of the following terms:

     one-electron contribution =     -75.29655359 Ry
     hartree contribution      =     273.95389661 Ry
     xc contribution           =    -226.37726708 Ry
     ewald contribution        =   -2515.88192470 Ry
     smearing contrib. (-TS)   =      -0.32651475 Ry

[...]

     new trust radius        =       0.1133235226 bohr

     trust_radius < trust_radius_min

     resetting bfgs history

     Message from routine bfgs:
     history already reset at previous step: stopping
     new conv_thr            =       0.0000010000 Ry

     new unit-cell volume =   1051.06901 a.u.^3 (   155.75236 Ang^3 )

[...]

ATOMIC_POSITIONS (crystal)
Cr       0.000000000   0.500000000   0.250000000
Cr       0.000000000   0.500000000   0.750000000
Cr       0.500000000   0.750000000   0.000000000
Cr       0.500000000   0.250000000   0.000000000
Cr       0.750000000   0.000000000   0.500000000
Cr       0.250000000   0.000000000   0.500000000
Si       0.500000000   0.500000000   0.500000000
Si       0.000000000   0.000000000   0.000000000

     Writing output data file Prototype-La-cP8-Cr3Si.save
     NEW-OLD atomic charge density approx. for the potential
     NEW k-points:
        k(    1) = (   0.0000000   0.0000000   0.0000000), wk =   0.0095238
        k(    2) = (   0.0000000   0.0000000   0.1199150), wk =   0.0190476
        k(    3) = (   0.0000000   0.0000000   0.2398299), wk =   0.0190476
        k(    4) = (   0.0000000   0.0000000   0.3597449), wk =   0.0190476
        k(    5) = (   0.0000000   0.1399008   0.0000000), wk =   0.0190476
        k(    6) = (   0.0000000   0.1399008   0.1199150), wk =   0.0380952
        k(    7) = (   0.0000000   0.1399008   0.2398299), wk =   0.0380952
        k(    8) = (   0.0000000   0.1399008   0.3597449), wk =   0.0380952
        k(    9) = (   0.0000000   0.2798016   0.0000000), wk =   0.0190476
        k(   10) = (   0.0000000   0.2798016   0.1199150), wk =   0.0380952
        k(   11) = (   0.0000000   0.2798016   0.2398299), wk =   0.0380952
        k(   12) = (   0.0000000   0.2798016   0.3597449), wk =   0.0380952
        k(   13) = (   0.0000000  -0.4197023   0.0000000), wk =   0.0095238
        k(   14) = (   0.0000000  -0.4197023   0.1199150), wk =   0.0190476
        k(   15) = (   0.0000000  -0.4197023   0.2398299), wk =   0.0190476
        k(   16) = (   0.0000000  -0.4197023   0.3597449), wk =   0.0190476
        k(   17) = (   0.1678809   0.0000000   0.0000000), wk =   0.0190476
        k(   18) = (   0.1678809   0.0000000   0.1199150), wk =   0.0380952
        k(   19) = (   0.1678809   0.0000000   0.2398299), wk =   0.0380952
        k(   20) = (   0.1678809   0.0000000   0.3597449), wk =   0.0380952
        k(   21) = (   0.1678809   0.1399008   0.0000000), wk =   0.0380952
        k(   22) = (   0.1678809   0.1399008   0.1199150), wk =   0.0761905
        k(   23) = (   0.1678809   0.1399008   0.2398299), wk =   0.0761905
        k(   24) = (   0.1678809   0.1399008   0.3597449), wk =   0.0761905
        k(   25) = (   0.1678809   0.2798016   0.0000000), wk =   0.0380952
        k(   26) = (   0.1678809   0.2798016   0.1199150), wk =   0.0761905
        k(   27) = (   0.1678809   0.2798016   0.2398299), wk =   0.0761905
        k(   28) = (   0.1678809   0.2798016   0.3597449), wk =   0.0761905
        k(   29) = (   0.1678809  -0.4197023   0.0000000), wk =   0.0190476
        k(   30) = (   0.1678809  -0.4197023   0.1199150), wk =   0.0380952
        k(   31) = (   0.1678809  -0.4197023   0.2398299), wk =   0.0380952
        k(   32) = (   0.1678809  -0.4197023   0.3597449), wk =   0.0380952
        k(   33) = (   0.3357619   0.0000000   0.0000000), wk =   0.0190476
        k(   34) = (   0.3357619   0.0000000   0.1199150), wk =   0.0380952
        k(   35) = (   0.3357619   0.0000000   0.2398299), wk =   0.0380952
        k(   36) = (   0.3357619   0.0000000   0.3597449), wk =   0.0380952
        k(   37) = (   0.3357619   0.1399008   0.0000000), wk =   0.0380952
        k(   38) = (   0.3357619   0.1399008   0.1199150), wk =   0.0761905
        k(   39) = (   0.3357619   0.1399008   0.2398299), wk =   0.0761905
        k(   40) = (   0.3357619   0.1399008   0.3597449), wk =   0.0761905
        k(   41) = (   0.3357619   0.2798016   0.0000000), wk =   0.0380952
        k(   42) = (   0.3357619   0.2798016   0.1199150), wk =   0.0761905
        k(   43) = (   0.3357619   0.2798016   0.2398299), wk =   0.0761905
        k(   44) = (   0.3357619   0.2798016   0.3597449), wk =   0.0761905
        k(   45) = (   0.3357619  -0.4197023   0.0000000), wk =   0.0190476
        k(   46) = (   0.3357619  -0.4197023   0.1199150), wk =   0.0380952
        k(   47) = (   0.3357619  -0.4197023   0.2398299), wk =   0.0380952
        k(   48) = (   0.3357619  -0.4197023   0.3597449), wk =   0.0380952

[...]

          total   stress  (Ry/bohr**3)                   (kbar)     P=-1682.05
  -0.01143437   0.00000000   0.00000000      -1682.05      0.00      0.00
   0.00000000  -0.01143437   0.00000000          0.00  -1682.05      0.00
   0.00000000   0.00000000  -0.01143437          0.00      0.00  -1682.05

     The maximum number of steps has been reached.

     End of BFGS Geometry Optimization
Begin final coordinates
     new unit-cell volume =   1051.06901 a.u.^3 (   155.75236 Ang^3 )

CELL_PARAMETERS (alat=  8.53457320)
   1.191320469   0.000000000   0.000000000
   0.000000000   1.191320469   0.000000000
   0.000000000   0.000000000   1.191320469

ATOMIC_POSITIONS (crystal)
Cr       0.000000000   0.500000000   0.250000000
Cr       0.000000000   0.500000000   0.750000000
Cr       0.500000000   0.750000000   0.000000000
Cr       0.500000000   0.250000000   0.000000000
Cr       0.750000000   0.000000000   0.500000000
Cr       0.250000000   0.000000000   0.500000000
Si       0.500000000   0.500000000   0.500000000
Si       0.000000000   0.000000000   0.000000000
End final coordinates

     A final scf calculation at the relaxed structure.
     The G-vectors are recalculated for the final unit cell
     Results may differ from those at the preceding step.

     bravais-lattice index     =            0
     lattice parameter (alat)  =       8.5346  a.u.
     unit-cell volume          =    1051.0690 (a.u.)^3
     number of atoms/cell      =            8
     number of atomic types    =            2
     number of electrons       =       172.00
     number of Kohn-Sham states=          103
     kinetic-energy cutoff     =      40.0000  Ry
     charge density cutoff     =     160.0000  Ry
     convergence threshold     =      1.0E-06
     mixing beta               =       0.7000
     number of iterations used =            8  plain     mixing
     Exchange-correlation      = SLA-PZ-NOGX-NOGC ( 1 1 0 0 0)
     EXX-fraction              =        0.00

     celldm(1)=   8.534573  celldm(2)=   0.000000  celldm(3)=   0.000000
     celldm(4)=   0.000000  celldm(5)=   0.000000  celldm(6)=   0.000000

     crystal axes: (cart. coord. in units of alat)
               a(1) = (   1.191320   0.000000   0.000000 )
               a(2) = (   0.000000   1.191320   0.000000 )
               a(3) = (   0.000000   0.000000   1.191320 )

     reciprocal axes: (cart. coord. in units 2 pi/alat)
               b(1) = (  0.839405  0.000000  0.000000 )
               b(2) = (  0.000000  0.839405  0.000000 )
               b(3) = (  0.000000  0.000000  0.839405 )

     PseudoPot. # 1 for Tm read from file:
     /home/cwx6513/pp.La/Tm.UPF
     MD5 check sum: 245516e0878b5372ceeb9443ded2c4e1
     Pseudo is Norm-conserving, Zval = 23.0
     Generated in analytical, separable form
     Using radial grid of 1269 points,  6 beta functions with:
                l(1) =   0
                l(2) =   0
                l(3) =   1
                l(4) =   1
                l(5) =   2
                l(6) =   3

     PseudoPot. # 2 for Eu read from file:
     /home/cwx6513/pp.La/Eu.UPF
     MD5 check sum: 5efdbbfc50c6a10138933a6429836ad2
     Pseudo is Norm-conserving, Zval = 17.0
     Generated in analytical, separable form
     Using radial grid of 1261 points,  6 beta functions with:
                l(1) =   0
                l(2) =   0
                l(3) =   1
                l(4) =   1
                l(5) =   2
                l(6) =   3

     atomic species   valence    mass     pseudopotential
        Cr            23.00    51.99610     Tm( 1.00)
        Si            17.00    28.08550     Eu( 1.00)

     48 Sym. Ops., with inversion, found (24 have fractional translation)

   Cartesian axes

     site n.     atom                  positions (alat units)
         1           Cr  tau(   1) = (   0.0000000   0.5956602   0.2978301  )
         2           Cr  tau(   2) = (   0.0000000   0.5956602   0.8934904  )
         3           Cr  tau(   3) = (   0.5956602   0.8934904   0.0000000  )
         4           Cr  tau(   4) = (   0.5956602   0.2978301   0.0000000  )
         5           Cr  tau(   5) = (   0.8934904   0.0000000   0.5956602  )
         6           Cr  tau(   6) = (   0.2978301   0.0000000   0.5956602  )
         7           Si  tau(   7) = (   0.5956602   0.5956602   0.5956602  )
         8           Si  tau(   8) = (   0.0000000   0.0000000   0.0000000  )

     number of k points=    48  gaussian smearing, width (Ry)=  0.1000
                       cart. coord. in units 2pi/alat
        k(    1) = (   0.0000000   0.0000000   0.0000000), wk =   0.0095238
        k(    2) = (   0.0000000   0.0000000   0.1199150), wk =   0.0190476
        k(    3) = (   0.0000000   0.0000000   0.2398299), wk =   0.0190476
        k(    4) = (   0.0000000   0.0000000   0.3597449), wk =   0.0190476
        k(    5) = (   0.0000000   0.1399008   0.0000000), wk =   0.0190476
        k(    6) = (   0.0000000   0.1399008   0.1199150), wk =   0.0380952
        k(    7) = (   0.0000000   0.1399008   0.2398299), wk =   0.0380952
        k(    8) = (   0.0000000   0.1399008   0.3597449), wk =   0.0380952
        k(    9) = (   0.0000000   0.2798016   0.0000000), wk =   0.0190476
        k(   10) = (   0.0000000   0.2798016   0.1199150), wk =   0.0380952
        k(   11) = (   0.0000000   0.2798016   0.2398299), wk =   0.0380952
        k(   12) = (   0.0000000   0.2798016   0.3597449), wk =   0.0380952
        k(   13) = (   0.0000000  -0.4197023   0.0000000), wk =   0.0095238
        k(   14) = (   0.0000000  -0.4197023   0.1199150), wk =   0.0190476
        k(   15) = (   0.0000000  -0.4197023   0.2398299), wk =   0.0190476
        k(   16) = (   0.0000000  -0.4197023   0.3597449), wk =   0.0190476
        k(   17) = (   0.1678809   0.0000000   0.0000000), wk =   0.0190476
        k(   18) = (   0.1678809   0.0000000   0.1199150), wk =   0.0380952
        k(   19) = (   0.1678809   0.0000000   0.2398299), wk =   0.0380952
        k(   20) = (   0.1678809   0.0000000   0.3597449), wk =   0.0380952
        k(   21) = (   0.1678809   0.1399008   0.0000000), wk =   0.0380952
        k(   22) = (   0.1678809   0.1399008   0.1199150), wk =   0.0761905
        k(   23) = (   0.1678809   0.1399008   0.2398299), wk =   0.0761905
        k(   24) = (   0.1678809   0.1399008   0.3597449), wk =   0.0761905
        k(   25) = (   0.1678809   0.2798016   0.0000000), wk =   0.0380952
        k(   26) = (   0.1678809   0.2798016   0.1199150), wk =   0.0761905
        k(   27) = (   0.1678809   0.2798016   0.2398299), wk =   0.0761905
        k(   28) = (   0.1678809   0.2798016   0.3597449), wk =   0.0761905
        k(   29) = (   0.1678809  -0.4197023   0.0000000), wk =   0.0190476
        k(   30) = (   0.1678809  -0.4197023   0.1199150), wk =   0.0380952
        k(   31) = (   0.1678809  -0.4197023   0.2398299), wk =   0.0380952
        k(   32) = (   0.1678809  -0.4197023   0.3597449), wk =   0.0380952
        k(   33) = (   0.3357619   0.0000000   0.0000000), wk =   0.0190476
        k(   34) = (   0.3357619   0.0000000   0.1199150), wk =   0.0380952
        k(   35) = (   0.3357619   0.0000000   0.2398299), wk =   0.0380952
        k(   36) = (   0.3357619   0.0000000   0.3597449), wk =   0.0380952
        k(   37) = (   0.3357619   0.1399008   0.0000000), wk =   0.0380952
        k(   38) = (   0.3357619   0.1399008   0.1199150), wk =   0.0761905
        k(   39) = (   0.3357619   0.1399008   0.2398299), wk =   0.0761905
        k(   40) = (   0.3357619   0.1399008   0.3597449), wk =   0.0761905
        k(   41) = (   0.3357619   0.2798016   0.0000000), wk =   0.0380952
        k(   42) = (   0.3357619   0.2798016   0.1199150), wk =   0.0761905
        k(   43) = (   0.3357619   0.2798016   0.2398299), wk =   0.0761905
        k(   44) = (   0.3357619   0.2798016   0.3597449), wk =   0.0761905
        k(   45) = (   0.3357619  -0.4197023   0.0000000), wk =   0.0190476
        k(   46) = (   0.3357619  -0.4197023   0.1199150), wk =   0.0380952
        k(   47) = (   0.3357619  -0.4197023   0.2398299), wk =   0.0380952
        k(   48) = (   0.3357619  -0.4197023   0.3597449), wk =   0.0380952

     Largest allocated arrays     est. size (Mb)     dimensions
     Largest temporary arrays     est. size (Mb)     dimensions

     Initial potential from superposition of free atoms

     Starting from uniform charge
     Starting wfc are    0 randomized atomic wfcs

     Writing output data file Prototype-La-cP8-Cr3Si.save

     Self-consistent Calculation

[...]

     iteration #  8     ecut=    40.00 Ry     beta=0.70
     CG style diagonalization
     c_bands:  1 eigenvalues not converged
     c_bands:  1 eigenvalues not converged
     c_bands:  1 eigenvalues not converged
     c_bands:  1 eigenvalues not converged
     c_bands:  1 eigenvalues not converged
     c_bands:  1 eigenvalues not converged
     c_bands:  1 eigenvalues not converged
     c_bands:  1 eigenvalues not converged
     ethr =  1.77E-06,  avg # of iterations =  4.0

[...]

     total energy              =   -2553.65423358 Ry
     Harris-Foulkes estimate   =   -2553.65423527 Ry
     estimated scf accuracy    <       0.00000367 Ry

     iteration # 11     ecut=    40.00 Ry     beta=0.70
     CG style diagonalization
     ethr =  2.13E-09,  avg # of iterations =  4.1

     End of self-consistent calculation

[...]

          k = 0.3358-0.4197 0.3597 (  4516 PWs)   bands (ev):

   -82.1006 -82.0990 -82.0967 -82.0937 -82.0905 -82.0860 -40.9426 -40.9281
   -40.8964 -40.8962 -40.8582 -40.8422 -40.7163 -40.7150 -40.7135 -40.7131
   -40.7124 -40.7095 -40.7084 -40.7083 -40.7056 -40.7053 -40.7012 -40.6984
   -33.5883 -33.5883  -6.5148  -6.5146  -6.5130  -6.5129  -6.5105  -6.5105
     7.3369   7.4538   7.7427   7.7449   7.7993   7.8064   7.8318   7.8469
     7.9400   7.9456   7.9898   8.0233   8.0358   8.0464   8.1055   8.1084
     8.2865   8.2867   8.3592   8.3649   8.3736   8.3887   8.4111   8.4465
     8.5278   8.5363   8.5593   8.5612   8.5791   8.5917  16.9180  16.9261
    17.6237  17.6256  18.2054  18.2141  21.9887  21.9887  24.4472  24.4472
    24.4910  24.4919  25.5414  25.5530  25.6189  25.7117  25.7266  25.7417
    28.3267  28.4875  29.2325  29.2997  30.2144  30.6244  31.6549  31.6723
    32.0619  32.0905  32.5580  32.6683  33.4052  33.4158  33.8809  33.8858
    34.0772  34.1149  34.8060  34.8319  35.3544  35.5504  35.7071

     the Fermi energy is    30.2438 ev

!    total energy              =   -2553.65423522 Ry
     Harris-Foulkes estimate   =   -2553.65423528 Ry
     estimated scf accuracy    <       0.00000007 Ry

     The total energy is the sum of the following terms:

     one-electron contribution =    -658.18116775 Ry
     hartree contribution      =     433.98513194 Ry
     xc contribution           =    -217.34691211 Ry
     ewald contribution        =   -2111.84311104 Ry
     smearing contrib. (-TS)   =      -0.26817625 Ry

     convergence has been achieved in  11 iterations

     Forces acting on atoms (Ry/au):

     atom    1 type  1   force =     0.00000000    0.00000000    0.00000000
     atom    2 type  1   force =     0.00000000    0.00000000    0.00000000
     atom    3 type  1   force =     0.00000000    0.00000000    0.00000000
     atom    4 type  1   force =     0.00000000    0.00000000    0.00000000
     atom    5 type  1   force =     0.00000000    0.00000000    0.00000000
     atom    6 type  1   force =     0.00000000    0.00000000    0.00000000
     atom    7 type  2   force =     0.00000000    0.00000000    0.00000000
     atom    8 type  2   force =     0.00000000    0.00000000    0.00000000

     Total force =     0.000000     Total SCF correction =     0.000000

     entering subroutine stress ...

          total   stress  (Ry/bohr**3)                   (kbar)     P=  114.08
   0.00077549   0.00000000   0.00000000        114.08      0.00      0.00
   0.00000000   0.00077549   0.00000000          0.00    114.08      0.00
   0.00000000   0.00000000   0.00077549          0.00      0.00    114.08

     Writing output data file Prototype-La-cP8-Cr3Si.save

     General routines

     Parallel routines

   This run was terminated on:  22:23:55  22Mar2018

   JOB DONE.