     Program PWSCF v.5.0.2 starts on 22Mar2018 at 21:32:18

     Current dimensions of program PWSCF are:
     Max number of different atomic species (ntypx) = 10
     Max number of k-points (npk) =  40000
     Max angular momentum in pseudopotentials (lmaxx) =  3
     Waiting for input...
     Reading input from standard input

     Subspace diagonalization in iterative solution of the eigenvalue problem:
     a serial algorithm will be used

     bravais-lattice index     =            0
     lattice parameter (alat)  =       9.9235  a.u.
     unit-cell volume          =    1361.0366 (a.u.)^3
     number of atoms/cell      =           12
     number of atomic types    =            2
     number of electrons       =       228.00
     number of Kohn-Sham states=          137
     kinetic-energy cutoff     =      40.0000  Ry
     charge density cutoff     =     160.0000  Ry
     convergence threshold     =      1.0E-04
     mixing beta               =       0.7000
     number of iterations used =            8  plain     mixing
     Exchange-correlation      = SLA-PZ-NOGX-NOGC ( 1 1 0 0 0)
     EXX-fraction              =        0.00
     nstep                     =           50

     celldm(1)=   9.923489  celldm(2)=   0.000000  celldm(3)=   0.000000
     celldm(4)=   0.000000  celldm(5)=   0.000000  celldm(6)=   0.000000

     crystal axes: (cart. coord. in units of alat)
               a(1) = (   1.000000   0.000000   0.000000 )
               a(2) = (  -0.500000   0.866025   0.000000 )
               a(3) = (   0.000000   0.000000   1.608222 )

     reciprocal axes: (cart. coord. in units 2 pi/alat)
               b(1) = (  1.000000  0.577350  0.000000 )
               b(2) = (  0.000000  1.154701  0.000000 )
               b(3) = (  0.000000  0.000000  0.621805 )

     PseudoPot. # 1 for Tm read from file:
     /home/cwx6513/pp.La/Tm.UPF
     MD5 check sum: 245516e0878b5372ceeb9443ded2c4e1
     Pseudo is Norm-conserving, Zval = 23.0
     Generated in analytical, separable form
     Using radial grid of 1269 points,  6 beta functions with:
                l(1) =   0
                l(2) =   0
                l(3) =   1
                l(4) =   1
                l(5) =   2
                l(6) =   3

     PseudoPot. # 2 for Eu read from file:
     /home/cwx6513/pp.La/Eu.UPF
     MD5 check sum: 5efdbbfc50c6a10138933a6429836ad2
     Pseudo is Norm-conserving, Zval = 17.0
     Generated in analytical, separable form
     Using radial grid of 1261 points,  6 beta functions with:
                l(1) =   0
                l(2) =   0
                l(3) =   1
                l(4) =   1
                l(5) =   2
                l(6) =   3

     atomic species   valence    mass     pseudopotential
        Mg            23.00    24.30500     Tm( 1.00)
        Zn            17.00    65.39000     Eu( 1.00)

     24 Sym. Ops., with inversion, found (12 have fractional translation)

   Cartesian axes

     site n.     atom                  positions (alat units)
         1           Mg  tau(   1) = (  -0.0000005   0.5773506   0.1003820  )
         2           Mg  tau(   2) = (   0.5000005   0.2886748   0.9044931  )
         3           Mg  tau(   3) = (   0.5000005   0.2886748   1.5078402  )
         4           Mg  tau(   4) = (  -0.0000005   0.5773506   0.7037291  )
         5           Zn  tau(   5) = (   0.0000000   0.0000000   0.0000000  )
         6           Zn  tau(   6) = (   0.0000000   0.0000000   0.8041111  )
         7           Zn  tau(   7) = (   0.0000000   0.2950739   1.2061667  )
         8           Zn  tau(   8) = (   0.7444585   0.1475370   0.4020556  )
         9           Zn  tau(   9) = (   0.2555415   0.1475370   0.4020556  )
        10           Zn  tau(  10) = (   0.2444585   0.7184884   1.2061667  )
        11           Zn  tau(  11) = (  -0.2444585   0.7184884   1.2061667  )
        12           Zn  tau(  12) = (   0.5000000   0.5709515   0.4020556  )

     number of k points=    12  gaussian smearing, width (Ry)=  0.1000
                       cart. coord. in units 2pi/alat
        k(    1) = (   0.0000000   0.0000000   0.0000000), wk =   0.0833333
        k(    2) = (   0.0000000   0.0000000   0.1554512), wk =   0.1666667
        k(    3) = (   0.0000000   0.0000000  -0.3109023), wk =   0.0833333
        k(    4) = (   0.0000000   0.3849002   0.0000000), wk =   0.1666667
        k(    5) = (   0.0000000   0.3849002   0.1554512), wk =   0.3333333
        k(    6) = (   0.0000000   0.3849002  -0.3109023), wk =   0.1666667
        k(    7) = (  -0.5000000  -0.2886751   0.0000000), wk =   0.0833333
        k(    8) = (  -0.5000000  -0.2886751   0.1554512), wk =   0.1666667
        k(    9) = (  -0.5000000  -0.2886751  -0.3109023), wk =   0.0833333
        k(   10) = (  -0.5000000   0.0962250   0.0000000), wk =   0.1666667
        k(   11) = (  -0.5000000   0.0962250   0.1554512), wk =   0.3333333
        k(   12) = (  -0.5000000   0.0962250  -0.3109023), wk =   0.1666667

     Largest allocated arrays     est. size (Mb)     dimensions
     Largest temporary arrays     est. size (Mb)     dimensions

     Initial potential from superposition of free atoms

     Starting from uniform charge
     Starting wfc are    0 randomized atomic wfcs

     Self-consistent Calculation

     iteration #  1     ecut=    40.00 Ry     beta=0.70
     CG style diagonalization
     c_bands:  5 eigenvalues not converged
     c_bands:  3 eigenvalues not converged
     c_bands:  3 eigenvalues not converged
     c_bands:  1 eigenvalues not converged
     c_bands:  1 eigenvalues not converged
     c_bands:  2 eigenvalues not converged
     c_bands:  2 eigenvalues not converged
     c_bands:  3 eigenvalues not converged
     c_bands:  1 eigenvalues not converged
     c_bands:  2 eigenvalues not converged
     ethr =  1.00E-02,  avg # of iterations = 13.6

     total energy              =   -1671.25262864 Ry
     Harris-Foulkes estimate   =   -3572.59993174 Ry
     estimated scf accuracy    <    2282.45258508 Ry

     iteration #  2     ecut=    40.00 Ry     beta=0.70
     CG style diagonalization
     ethr =  1.00E-02,  avg # of iterations = 17.7

[...]

     End of self-consistent calculation

          k = 0.0000 0.0000 0.0000 (  5769 PWs)   bands (ev):

   -80.0111 -79.9965 -79.9908 -79.9487 -38.6891 -38.6733 -38.6733 -38.6721
   -38.6532 -38.6532 -38.6476 -38.6302 -38.6301 -38.6226 -38.6211 -38.6211
   -32.3564 -32.1842 -31.9576 -31.7723 -31.7093 -31.7092 -31.7078 -31.7078
    -7.3429  -6.8611  -6.3747  -5.6789  -5.6789  -5.5477  -5.5477  -5.5122
    -5.5122  -5.1261  -4.7179  -4.7178  -4.7036  -4.6987  -4.6987  -3.9186
    -3.9185  -3.9089  -3.8727  -3.8647  -3.6857  -3.6857  -3.5992  -3.5992
    10.0906  10.0906  10.1130  10.1210  10.1891  10.1892  10.2111  10.2111
    10.3152  10.3152  10.4796  10.4796  10.4980  10.5712  10.5712  10.5721
    10.5721  10.5740  10.6243  10.6243  17.3364  18.9584  20.0012  21.3011
    22.3564  22.3943  22.3943  22.7163  22.7279  23.2215  23.4509  23.4509
    23.9004  23.9005  23.9940  23.9940  25.1942  25.1942  25.6591  25.8121
    25.8121  25.8473  25.8473  25.9115  27.4242  27.4243  28.1127  28.5998
    28.9797  29.3169  29.7716  29.7716  29.8197  29.8839  29.8840  29.9994
    29.9994  30.0821  30.0821  31.1331  31.1331  31.2140  31.2141  31.3163
    31.7063  31.7063  31.8714  32.9244  32.9246  33.4469  33.5129  33.5129
    33.5927  34.3426  34.3427  35.0464  35.2056  35.2250  35.9867  37.1769
    37.1855  37.1856  37.2250  37.2251  37.6405  38.2106  38.8244  38.8248
    39.0627

[...]

          k =-0.5000-0.2887 0.0000 (  5800 PWs)   bands (ev):

[...]

     the Fermi energy is    31.8753 ev

!    total energy              =   -2869.23073336 Ry
     Harris-Foulkes estimate   =   -2869.23076607 Ry
     estimated scf accuracy    <       0.00003731 Ry

     The total energy is the sum of the following terms:

     one-electron contribution =    -364.49067144 Ry
     hartree contribution      =     378.51025178 Ry
     xc contribution           =    -269.56866154 Ry
     ewald contribution        =   -2613.23010382 Ry
     smearing contrib. (-TS)   =      -0.45154834 Ry

     convergence has been achieved in  11 iterations

     Forces acting on atoms (Ry/au):

     atom    1 type  1   force =     0.00000000    0.00000000    0.03377304
     atom    2 type  1   force =     0.00000000    0.00000000    0.03377304
     atom    3 type  1   force =     0.00000000    0.00000000   -0.03377304
     atom    4 type  1   force =     0.00000000    0.00000000   -0.03377304
     atom    5 type  2   force =     0.00000000    0.00000000    0.00000000
     atom    6 type  2   force =     0.00000000    0.00000000    0.00000000
     atom    7 type  2   force =     0.00000000   -0.00483956    0.00000000
     atom    8 type  2   force =     0.00419118   -0.00241978    0.00000000
     atom    9 type  2   force =    -0.00419118   -0.00241978    0.00000000
     atom   10 type  2   force =     0.00419118    0.00241978    0.00000000
     atom   11 type  2   force =    -0.00419118    0.00241978    0.00000000
     atom   12 type  2   force =     0.00000000    0.00483956    0.00000000

     Total force =     0.068578     Total SCF correction =     0.000000

     entering subroutine stress ...

          total   stress  (Ry/bohr**3)                   (kbar)     P=  582.63
   0.00407363   0.00000000   0.00000000        599.25      0.00      0.00
   0.00000000   0.00407363   0.00000000          0.00    599.25      0.00
   0.00000000   0.00000000   0.00373473          0.00      0.00    549.40

     BFGS Geometry Optimization

     number of scf cycles    =   1
     number of bfgs steps    =   0

     enthalpy new            =   -2869.2307333640 Ry

     new trust radius        =       0.5000000000 bohr
     new conv_thr            =       0.0001000000 Ry

     new unit-cell volume =   1648.15371 a.u.^3 (   244.23118 Ang^3 )

CELL_PARAMETERS (alat=  9.92348860)
   1.067764947   0.000000000   0.000000000
  -0.533882474   0.924711570   0.000000000
   0.000000000   0.000000000   1.708136753

ATOMIC_POSITIONS (crystal)
Mg       0.333333000   0.666667000   0.063826131
Mg       0.666667000   0.333333000   0.563826131
Mg       0.666667000   0.333333000   0.936173869
Mg       0.333333000   0.666667000   0.436173869
Zn       0.000000000   0.000000000   0.000000000
Zn       0.000000000   0.000000000   0.500000000
Zn       0.170173646   0.340347291   0.750000000
Zn       0.829826354   0.170173646   0.250000000
Zn       0.340347291   0.170173646   0.250000000
Zn       0.659652709   0.829826354   0.750000000
Zn       0.170173646   0.829826354   0.750000000
Zn       0.829826354   0.659652709   0.250000000

     Writing output data file Prototype-La-hP12-MgZn2.save
     NEW-OLD atomic charge density approx. for the potential
     NEW k-points:
        k(    1) = (   0.0000000   0.0000000   0.0000000), wk =   0.0833333
        k(    2) = (   0.0000000   0.0000000   0.1463583), wk =   0.1666667
        k(    3) = (   0.0000000   0.0000000  -0.2927166), wk =   0.0833333
        k(    4) = (   0.0000000   0.3604728   0.0000000), wk =   0.1666667
        k(    5) = (   0.0000000   0.3604728   0.1463583), wk =   0.3333333
        k(    6) = (   0.0000000   0.3604728  -0.2927166), wk =   0.1666667
        k(    7) = (  -0.4682679  -0.2703546   0.0000000), wk =   0.0833333
        k(    8) = (  -0.4682679  -0.2703546   0.1463583), wk =   0.1666667
        k(    9) = (  -0.4682679  -0.2703546  -0.2927166), wk =   0.0833333
        k(   10) = (  -0.4682679   0.0901182   0.0000000), wk =   0.1666667
        k(   11) = (  -0.4682679   0.0901182   0.1463583), wk =   0.3333333
        k(   12) = (  -0.4682679   0.0901182  -0.2927166), wk =   0.1666667

[...]

     enthalpy old            =   -2869.2307333640 Ry
     enthalpy new            =   -2869.0695904141 Ry

     CASE: enthalpy_new > enthalpy_old

     new trust radius        =       0.2239352660 bohr

     trust_radius < trust_radius_min

     resetting bfgs history

     new conv_thr            =       0.0001000000 Ry

[...]

     number of scf cycles    =   3
     number of bfgs steps    =   1

     enthalpy old            =   -2869.2307333640 Ry
     enthalpy new            =   -2869.1092185813 Ry

     CASE: enthalpy_new > enthalpy_old

     new trust radius        =       0.2234752218 bohr

     trust_radius < trust_radius_min

     resetting bfgs history

     Message from routine bfgs:
     history already reset at previous step: stopping
     new conv_thr            =       0.0001000000 Ry

     new unit-cell volume =   1638.37720 a.u.^3 (   242.78245 Ang^3 )

[...]

ATOMIC_POSITIONS (crystal)
Mg       0.333333000   0.666667000   0.063708924
Mg       0.666667000   0.333333000   0.563708924
Mg       0.666667000   0.333333000   0.936291076
Mg       0.333333000   0.666667000   0.436291076
Zn       0.000000000   0.000000000   0.000000000
Zn       0.000000000   0.000000000   0.500000000
Zn       0.170191202   0.340382405   0.750000000
Zn       0.829808798   0.170191202   0.250000000
Zn       0.340382405   0.170191202   0.250000000
Zn       0.659617595   0.829808798   0.750000000
Zn       0.170191202   0.829808798   0.750000000
Zn       0.829808798   0.659617595   0.250000000

     Writing output data file Prototype-La-hP12-MgZn2.save
     NEW-OLD atomic charge density approx. for the potential
     NEW k-points:
        k(    1) = (   0.0000000   0.0000000   0.0000000), wk =   0.0833333
        k(    2) = (   0.0000000   0.0000000   0.1466985), wk =   0.1666667
        k(    3) = (   0.0000000   0.0000000  -0.2933971), wk =   0.0833333
        k(    4) = (   0.0000000   0.3611272   0.0000000), wk =   0.1666667
        k(    5) = (   0.0000000   0.3611272   0.1466985), wk =   0.3333333
        k(    6) = (   0.0000000   0.3611272  -0.2933971), wk =   0.1666667
        k(    7) = (  -0.4691179  -0.2708454   0.0000000), wk =   0.0833333
        k(    8) = (  -0.4691179  -0.2708454   0.1466985), wk =   0.1666667
        k(    9) = (  -0.4691179  -0.2708454  -0.2933971), wk =   0.0833333
        k(   10) = (  -0.4691179   0.0902818   0.0000000), wk =   0.1666667
        k(   11) = (  -0.4691179   0.0902818   0.1466985), wk =   0.3333333
        k(   12) = (  -0.4691179   0.0902818  -0.2933971), wk =   0.1666667

[...]

     Threshold (ethr) on eigenvalues was too large:
     Diagonalizing with lowered threshold

     CG style diagonalization
     ethr =  3.30E-08,  avg # of iterations =  3.0

[...]

     The maximum number of steps has been reached.

     End of BFGS Geometry Optimization
Begin final coordinates
     new unit-cell volume =   1638.37720 a.u.^3 (   242.78245 Ang^3 )

CELL_PARAMETERS (alat=  9.92348860)
   1.065830065   0.000000000   0.000000000
  -0.532915033   0.923035913   0.000000000
   0.000000000   0.000000000   1.704175061

ATOMIC_POSITIONS (crystal)
Mg       0.333333000   0.666667000   0.063708924
Mg       0.666667000   0.333333000   0.563708924
Mg       0.666667000   0.333333000   0.936291076
Mg       0.333333000   0.666667000   0.436291076
Zn       0.000000000   0.000000000   0.000000000
Zn       0.000000000   0.000000000   0.500000000
Zn       0.170191202   0.340382405   0.750000000
Zn       0.829808798   0.170191202   0.250000000
Zn       0.340382405   0.170191202   0.250000000
Zn       0.659617595   0.829808798   0.750000000
Zn       0.170191202   0.829808798   0.750000000
Zn       0.829808798   0.659617595   0.250000000
End final coordinates

     A final scf calculation at the relaxed structure.
     The G-vectors are recalculated for the final unit cell
     Results may differ from those at the preceding step.

     bravais-lattice index     =            0
     lattice parameter (alat)  =       9.9235  a.u.
     unit-cell volume          =    1638.3772 (a.u.)^3
     number of atoms/cell      =           12
     number of atomic types    =            2
     number of electrons       =       228.00
     number of Kohn-Sham states=          137
     kinetic-energy cutoff     =      40.0000  Ry
     charge density cutoff     =     160.0000  Ry
     convergence threshold     =      1.0E-04
     mixing beta               =       0.7000
     number of iterations used =            8  plain     mixing
     Exchange-correlation      = SLA-PZ-NOGX-NOGC ( 1 1 0 0 0)
     EXX-fraction              =        0.00

     celldm(1)=   9.923489  celldm(2)=   0.000000  celldm(3)=   0.000000
     celldm(4)=   0.000000  celldm(5)=   0.000000  celldm(6)=   0.000000

     crystal axes: (cart. coord. in units of alat)
               a(1) = (   1.065830   0.000000   0.000000 )
               a(2) = (  -0.532915   0.923036   0.000000 )
               a(3) = (   0.000000   0.000000   1.704175 )

     reciprocal axes: (cart. coord. in units 2 pi/alat)
               b(1) = (  0.938236  0.541691  0.000000 )
               b(2) = (  0.000000  1.083381  0.000000 )
               b(3) = (  0.000000  0.000000  0.586794 )

     PseudoPot. # 1 for Tm read from file:
     /home/cwx6513/pp.La/Tm.UPF
     MD5 check sum: 245516e0878b5372ceeb9443ded2c4e1
     Pseudo is Norm-conserving, Zval = 23.0
     Generated in analytical, separable form
     Using radial grid of 1269 points,  6 beta functions with:
                l(1) =   0
                l(2) =   0
                l(3) =   1
                l(4) =   1
                l(5) =   2
                l(6) =   3

     PseudoPot. # 2 for Eu read from file:
     /home/cwx6513/pp.La/Eu.UPF
     MD5 check sum: 5efdbbfc50c6a10138933a6429836ad2
     Pseudo is Norm-conserving, Zval = 17.0
     Generated in analytical, separable form
     Using radial grid of 1261 points,  6 beta functions with:
                l(1) =   0
                l(2) =   0
                l(3) =   1
                l(4) =   1
                l(5) =   2
                l(6) =   3

     atomic species   valence    mass     pseudopotential
        Mg            23.00    24.30500     Tm( 1.00)
        Zn            17.00    65.39000     Eu( 1.00)

     24 Sym. Ops., with inversion, found (12 have fractional translation)

   Cartesian axes

     site n.     atom                  positions (alat units)
         1           Mg  tau(   1) = (  -0.0000005   0.6153576   0.1085712  )
         2           Mg  tau(   2) = (   0.5329156   0.3076783   0.9606587  )
         3           Mg  tau(   3) = (   0.5329156   0.3076783   1.5956039  )
         4           Mg  tau(   4) = (  -0.0000005   0.6153576   0.7435164  )
         5           Zn  tau(   5) = (   0.0000000   0.0000000   0.0000000  )
         6           Zn  tau(   6) = (   0.0000000   0.0000000   0.8520875  )
         7           Zn  tau(   7) = (   0.0000000   0.3141852   1.2781313  )
         8           Zn  tau(   8) = (   0.7937377   0.1570926   0.4260438  )
         9           Zn  tau(   9) = (   0.2720924   0.1570926   0.4260438  )
        10           Zn  tau(  10) = (   0.2608227   0.7659433   1.2781313  )
        11           Zn  tau(  11) = (  -0.2608227   0.7659433   1.2781313  )
        12           Zn  tau(  12) = (   0.5329150   0.6088507   0.4260438  )

     number of k points=    12  gaussian smearing, width (Ry)=  0.1000
                       cart. coord. in units 2pi/alat
        k(    1) = (   0.0000000   0.0000000   0.0000000), wk =   0.0833333
        k(    2) = (   0.0000000   0.0000000   0.1466985), wk =   0.1666667
        k(    3) = (   0.0000000   0.0000000  -0.2933971), wk =   0.0833333
        k(    4) = (   0.0000000   0.3611272   0.0000000), wk =   0.1666667
        k(    5) = (   0.0000000   0.3611272   0.1466985), wk =   0.3333333
        k(    6) = (   0.0000000   0.3611272  -0.2933971), wk =   0.1666667
        k(    7) = (  -0.4691179  -0.2708454   0.0000000), wk =   0.0833333
        k(    8) = (  -0.4691179  -0.2708454   0.1466985), wk =   0.1666667
        k(    9) = (  -0.4691179  -0.2708454  -0.2933971), wk =   0.0833333
        k(   10) = (  -0.4691179   0.0902818   0.0000000), wk =   0.1666667
        k(   11) = (  -0.4691179   0.0902818   0.1466985), wk =   0.3333333
        k(   12) = (  -0.4691179   0.0902818  -0.2933971), wk =   0.1666667

     Largest allocated arrays     est. size (Mb)     dimensions
     Largest temporary arrays     est. size (Mb)     dimensions

     Initial potential from superposition of free atoms

     Starting from uniform charge
     Starting wfc are    0 randomized atomic wfcs

     Writing output data file Prototype-La-hP12-MgZn2.save

     Self-consistent Calculation

[...]

     iteration # 11     ecut=    40.00 Ry     beta=0.70
     CG style diagonalization
     c_bands:  1 eigenvalues not converged
     ethr =  4.43E-06,  avg # of iterations =  3.5

     total energy              =   -2870.86352364 Ry
     Harris-Foulkes estimate   =   -2870.86372345 Ry
     estimated scf accuracy    <       0.00053986 Ry

     iteration # 12     ecut=    40.00 Ry     beta=0.70
     CG style diagonalization
     ethr =  2.37E-07,  avg # of iterations =  4.0

     End of self-consistent calculation

[...]

          k = 0.0000 0.3611-0.2934 (  6994 PWs)   bands (ev):

[...]

          k =-0.4691 0.0903-0.2934 (  6998 PWs)   bands (ev):

   -85.9766 -85.9766 -85.9693 -85.9693 -44.5976 -44.5976 -44.5946 -44.5946
   -44.5876 -44.5875 -44.5836 -44.5836 -44.5795 -44.5795 -44.5769 -44.5768
   -37.6665 -37.6665 -37.5736 -37.5736 -37.4549 -37.4549 -37.4497 -37.4497
   -11.3495 -11.3495 -10.9622 -10.9622 -10.6758 -10.6758 -10.6349 -10.6349
   -10.5569 -10.5569 -10.4107 -10.4107 -10.2551 -10.2551 -10.0929 -10.0929
    -9.9806  -9.9806  -9.9253  -9.9253  -9.7986  -9.7986  -9.7511  -9.7511
     4.4204   4.4204   4.4439   4.4439   4.5071   4.5071   4.5619   4.5619
     4.5775   4.5775   4.6402   4.6402   4.6569   4.6570   4.6811   4.6811
     4.7576   4.7576   4.7654   4.7654  14.4323  14.4323  15.4315  15.4315
    18.5742  18.5742  18.9413  18.9413  19.1472  19.1472  19.3861  19.3861
    19.6189  19.6189  19.9520  19.9520  20.1912  20.1912  20.4325  20.4325
    20.6536  20.6536  21.3241  21.3241  21.7850  21.7850  21.9678  21.9678
    22.1944  22.1944  22.4986  22.4986  22.9298  22.9298  23.1263  23.1263
    23.4392  23.4392  23.9014  23.9014  24.1440  24.1440  24.5270  24.5270
    25.3268  25.3268  25.5640  25.5640  26.5093  26.5093  26.8673  26.8673
    27.1617  27.1617  28.1731  28.1731  29.5513  29.5514  30.0598  30.0598
    30.8365  30.8365  31.1112  31.1113  31.9521  31.9522  32.5975  32.5977
    33.2595

     the Fermi energy is    25.5515 ev

!    total energy              =   -2870.86372702 Ry
     Harris-Foulkes estimate   =   -2870.86374001 Ry
     estimated scf accuracy    <       0.00001250 Ry

     The total energy is the sum of the following terms:

     one-electron contribution =    -590.88005303 Ry
     hartree contribution      =     442.96553553 Ry
     xc contribution           =    -265.85806719 Ry
     ewald contribution        =   -2456.50991006 Ry
     smearing contrib. (-TS)   =      -0.58123227 Ry

     convergence has been achieved in  12 iterations

     Forces acting on atoms (Ry/au):

     atom    1 type  1   force =     0.00000000    0.00000000   -0.00575303
     atom    2 type  1   force =     0.00000000    0.00000000   -0.00575303
     atom    3 type  1   force =     0.00000000    0.00000000    0.00575303
     atom    4 type  1   force =     0.00000000    0.00000000    0.00575303
     atom    5 type  2   force =     0.00000000    0.00000000    0.00000000
     atom    6 type  2   force =     0.00000000    0.00000000    0.00000000
     atom    7 type  2   force =     0.00000000    0.00132957    0.00000000
     atom    8 type  2   force =    -0.00115144    0.00066478    0.00000000
     atom    9 type  2   force =     0.00115144    0.00066478    0.00000000
     atom   10 type  2   force =    -0.00115144   -0.00066478    0.00000000
     atom   11 type  2   force =     0.00115144   -0.00066478    0.00000000
     atom   12 type  2   force =     0.00000000   -0.00132957    0.00000000

     Total force =     0.011958     Total SCF correction =     0.000000

     entering subroutine stress ...

          total   stress  (Ry/bohr**3)                   (kbar)     P= -191.44
  -0.00128777   0.00000000   0.00000000       -189.44      0.00      0.00
   0.00000000  -0.00128777   0.00000000          0.00   -189.44      0.00
   0.00000000   0.00000000  -0.00132866          0.00      0.00   -195.45

     Writing output data file Prototype-La-hP12-MgZn2.save

     General routines

     Parallel routines

   This run was terminated on:  21:56:41  22Mar2018

   JOB DONE.