     Program PWSCF v.5.0.2 starts on 23Mar2018 at  2:19:41

     Current dimensions of program PWSCF are:
     Max number of different atomic species (ntypx) = 10
     Max number of k-points (npk) =  40000
     Max angular momentum in pseudopotentials (lmaxx) =  3
     Waiting for input...
     Reading input from standard input

     Subspace diagonalization in iterative solution of the eigenvalue problem:
     a serial algorithm will be used

     bravais-lattice index     =            0
     lattice parameter (alat)  =       9.3790  a.u.
     unit-cell volume          =     583.3913 (a.u.)^3
     number of atoms/cell      =            6
     number of atomic types    =            2
     number of electrons       =        92.00
     number of Kohn-Sham states=           55
     kinetic-energy cutoff     =      40.0000  Ry
     charge density cutoff     =     160.0000  Ry
     convergence threshold     =      1.0E-04
     mixing beta               =       0.7000
     number of iterations used =            8  plain     mixing
     Exchange-correlation      = SLA-PZ-NOGX-NOGC ( 1 1 0 0 0)
     EXX-fraction              =        0.00
     nstep                     =           50

     celldm(1)=   9.379038  celldm(2)=   0.000000  celldm(3)=   0.000000
     celldm(4)=   0.000000  celldm(5)=   0.000000  celldm(6)=   0.000000

     crystal axes: (cart. coord. in units of alat)
               a(1) = (   1.000000   0.000000   0.000000 )
               a(2) = (   0.500000   0.866025   0.000000 )
               a(3) = (   0.500000   0.288675   0.816497 )

     reciprocal axes: (cart. coord. in units 2 pi/alat)
               b(1) = (  1.000000 -0.577350 -0.408248 )
               b(2) = (  0.000000  1.154701 -0.408248 )
               b(3) = (  0.000000  0.000000  1.224745 )

     PseudoPot. # 1 for Dy read from file:
     /home/cwx6513/pp.La/Dy.UPF
     MD5 check sum: 9597327bec62616a94a14d07f3fd9936
     Pseudo is Norm-conserving, Zval = 20.0
     Generated in analytical, separable form
     Using radial grid of 1265 points,  6 beta functions with:
                l(1) =   0
                l(2) =   0
                l(3) =   1
                l(4) =   1
                l(5) =   2
                l(6) =   3

     PseudoPot. # 2 for Pr read from file:
     /home/cwx6513/pp.La/Pr.UPF
     MD5 check sum: 70e2b4b153859e92c8c91247dfc63203
     Pseudo is Norm-conserving, Zval = 13.0
     Generated in analytical, separable form
     Using radial grid of 1255 points,  6 beta functions with:
                l(1) =   0
                l(2) =   0
                l(3) =   1
                l(4) =   1
                l(5) =   2
                l(6) =   3

     atomic species   valence    mass     pseudopotential
        Mg            20.00    24.30500     Dy( 1.00)
        Cu            13.00    63.54600     Pr( 1.00)

     12 Sym. Ops., with inversion, found ( 6 have fractional translation)

   Cartesian axes

     site n.     atom                  positions (alat units)
         1           Mg  tau(   1) = (   1.5000000   0.8660254   0.6123724  )
         2           Mg  tau(   2) = (   1.0000000   0.5773503   0.4082483  )
         3           Cu  tau(   3) = (   0.2500000   0.1443376   0.1020621  )
         4           Cu  tau(   4) = (   0.7500000   0.1443376   0.1020621  )
         5           Cu  tau(   5) = (   0.5000000   0.5773503   0.1020621  )
         6           Cu  tau(   6) = (   0.5000000   0.2886751   0.5103104  )

     number of k points=   170  gaussian smearing, width (Ry)=  0.1000

     Number of k-points >= 100: set verbosity='high' to print them.

     Largest allocated arrays     est. size (Mb)     dimensions
     Largest temporary arrays     est. size (Mb)     dimensions

     Initial potential from superposition of free atoms
     Check: negative starting charge=   -0.000113

     starting charge   51.96217, renormalised to   92.00000

     negative rho (up, down):  0.200E-03 0.000E+00
     Starting wfc are   80 randomized atomic wfcs

     Self-consistent Calculation

     iteration #  1     ecut=    40.00 Ry     beta=0.70
     CG style diagonalization
     ethr =  1.00E-02,  avg # of iterations = 20.8

     negative rho (up, down):  0.561E-04 0.000E+00

     total energy              =      30.78147449 Ry
     Harris-Foulkes estimate   =   -1881.18757778 Ry
     estimated scf accuracy    <    2247.30992546 Ry

[...]

     iteration #  3     ecut=    40.00 Ry     beta=0.70
     CG style diagonalization
     c_bands:  1 eigenvalues not converged
     c_bands:  1 eigenvalues not converged
     c_bands:  1 eigenvalues not converged
     c_bands:  1 eigenvalues not converged
     c_bands:  1 eigenvalues not converged
     c_bands:  1 eigenvalues not converged
     c_bands:  1 eigenvalues not converged
     c_bands:  1 eigenvalues not converged
     c_bands:  1 eigenvalues not converged
     c_bands:  1 eigenvalues not converged
     c_bands:  1 eigenvalues not converged
     c_bands:  1 eigenvalues not converged
     c_bands:  1 eigenvalues not converged
     c_bands:  1 eigenvalues not converged
     c_bands:  1 eigenvalues not converged
     ethr =  1.00E-02,  avg # of iterations = 12.2

[...]

     End of self-consistent calculation

     Number of k-points >= 100: set verbosity='high' to print the bands.

     the Fermi energy is    34.8444 ev

!    total energy              =    -890.53072558 Ry
     Harris-Foulkes estimate   =    -890.53074745 Ry
     estimated scf accuracy    <       0.00002543 Ry

     The total energy is the sum of the following terms:

     one-electron contribution =      31.59405223 Ry
     hartree contribution      =      85.87059791 Ry
     xc contribution           =     -98.63201059 Ry
     ewald contribution        =    -909.16054418 Ry
     smearing contrib. (-TS)   =      -0.20282095 Ry

     convergence has been achieved in  10 iterations

     Forces acting on atoms (Ry/au):

     atom    1 type  1   force =     0.00000000    0.00000000    0.02450309
     atom    2 type  1   force =     0.00000000    0.00000000   -0.02450309
     atom    3 type  2   force =     0.00000000    0.00000000    0.00000000
     atom    4 type  2   force =     0.00000000    0.00000000    0.00000000
     atom    5 type  2   force =     0.00000000    0.00000000    0.00000000
     atom    6 type  2   force =     0.00000000    0.00000000    0.00000000

     Total force =     0.034653     Total SCF correction =     0.000000

     entering subroutine stress ...

          total   stress  (Ry/bohr**3)                   (kbar)     P= 2171.73
   0.01476065   0.00000000   0.00000000       2171.37      0.00      0.00
   0.00000000   0.01476065   0.00000000          0.00   2171.37      0.00
   0.00000000   0.00000000   0.01476806          0.00      0.00   2172.46

     BFGS Geometry Optimization

     number of scf cycles    =   1
     number of bfgs steps    =   0

     enthalpy new            =    -890.5307255821 Ry

     new trust radius        =       0.5000000000 bohr
     new conv_thr            =       0.0001000000 Ry

     new unit-cell volume =    783.86553 a.u.^3 (   116.15689 Ang^3 )

CELL_PARAMETERS (alat=  9.37903830)
   1.103452708   0.000000000   0.000000000
   0.551726354   0.955618077   0.000000000
   0.551726354   0.318539359   0.901007810

ATOMIC_POSITIONS (crystal)
Mg       0.749700992   0.749700992   0.750897025
Mg       0.500299008   0.500299008   0.499102975
Cu       0.125000000   0.125000000   0.125000000
Cu       0.625000000   0.125000000   0.125000000
Cu       0.125000000   0.625000000   0.125000000
Cu       0.125000000   0.125000000   0.625000000

     Writing output data file Prototype-La-cF24-Cu2Mg.save
     Check: negative starting charge=   -0.000113
     NEW-OLD atomic charge density approx. for the potential
     NEW k-points: (use verbosity='high' to print them)
     Check: negative starting charge=   -0.004493

     negative rho (up, down):  0.440E-02 0.000E+00
     extrapolated charge  105.28937, renormalised to   92.00000

[...]

     enthalpy old            =    -890.5307255821 Ry
     enthalpy new            =    -891.7653675655 Ry

     CASE: enthalpy_new < enthalpy_old

     small trust_radius: resetting bfgs history

     new trust radius        =       0.0473655784 bohr
     new conv_thr            =       0.0000089302 Ry

[...]

     Writing output data file Prototype-La-cF24-Cu2Mg.save
     Check: negative starting charge=   -0.004493
     NEW-OLD atomic charge density approx. for the potential
     NEW k-points: (use verbosity='high' to print them)
     Check: negative starting charge=   -0.005028

     negative rho (up, down):  0.633E-03 0.000E+00
     extrapolated charge   93.28732, renormalised to   92.00000

[...]

     number of scf cycles    =   3
     number of bfgs steps    =   2

     enthalpy old            =    -891.7653675655 Ry
     enthalpy new            =    -891.7647295760 Ry

     CASE: enthalpy_new > enthalpy_old

     new trust radius        =       0.0217388229 bohr

     trust_radius < trust_radius_min

     resetting bfgs history

     Message from routine bfgs:
     history already reset at previous step: stopping
     new conv_thr            =       0.0000089302 Ry

     new unit-cell volume =    803.61129 a.u.^3 (   119.08291 Ang^3 )

[...]

ATOMIC_POSITIONS (crystal)
Mg       0.749354497   0.749354497   0.751936508
Mg       0.500645503   0.500645503   0.498063492
Cu       0.125000000   0.125000000   0.125000000
Cu       0.625000000   0.125000000   0.125000000
Cu       0.125000000   0.625000000   0.125000000
Cu       0.125000000   0.125000000   0.625000000

     Writing output data file Prototype-La-cF24-Cu2Mg.save
     Check: negative starting charge=   -0.005028
     NEW-OLD atomic charge density approx. for the potential
     NEW k-points: (use verbosity='high' to print them)
     Check: negative starting charge=   -0.005023
     extrapolated charge   91.98919, renormalised to   92.00000

[...]

     The maximum number of steps has been reached.

     End of BFGS Geometry Optimization
Begin final coordinates
     new unit-cell volume =    803.61129 a.u.^3 (   119.08291 Ang^3 )

CELL_PARAMETERS (alat=  9.37903830)
   1.112710073   0.000000000   0.000000000
   0.556355037   0.963635190   0.000000000
   0.556355037   0.321211730   0.908398544

ATOMIC_POSITIONS (crystal)
Mg       0.749354497   0.749354497   0.751936508
Mg       0.500645503   0.500645503   0.498063492
Cu       0.125000000   0.125000000   0.125000000
Cu       0.625000000   0.125000000   0.125000000
Cu       0.125000000   0.625000000   0.125000000
Cu       0.125000000   0.125000000   0.625000000
End final coordinates

     A final scf calculation at the relaxed structure.
     The G-vectors are recalculated for the final unit cell
     Results may differ from those at the preceding step.

     bravais-lattice index     =            0
     lattice parameter (alat)  =       9.3790  a.u.
     unit-cell volume          =     803.6113 (a.u.)^3
     number of atoms/cell      =            6
     number of atomic types    =            2
     number of electrons       =        92.00
     number of Kohn-Sham states=           55
     kinetic-energy cutoff     =      40.0000  Ry
     charge density cutoff     =     160.0000  Ry
     convergence threshold     =      8.9E-06
     mixing beta               =       0.7000
     number of iterations used =            8  plain     mixing
     Exchange-correlation      = SLA-PZ-NOGX-NOGC ( 1 1 0 0 0)
     EXX-fraction              =        0.00

     celldm(1)=   9.379038  celldm(2)=   0.000000  celldm(3)=   0.000000
     celldm(4)=   0.000000  celldm(5)=   0.000000  celldm(6)=   0.000000

     crystal axes: (cart. coord. in units of alat)
               a(1) = (   1.112710   0.000000   0.000000 )
               a(2) = (   0.556355   0.963635   0.000000 )
               a(3) = (   0.556355   0.321212   0.908399 )

     reciprocal axes: (cart. coord. in units 2 pi/alat)
               b(1) = (  0.898707 -0.518869 -0.366946 )
               b(2) = (  0.000000  1.037737 -0.366946 )
               b(3) = (  0.000000  0.000000  1.100838 )

     PseudoPot. # 1 for Dy read from file:
     /home/cwx6513/pp.La/Dy.UPF
     MD5 check sum: 9597327bec62616a94a14d07f3fd9936
     Pseudo is Norm-conserving, Zval = 20.0
     Generated in analytical, separable form
     Using radial grid of 1265 points,  6 beta functions with:
                l(1) =   0
                l(2) =   0
                l(3) =   1
                l(4) =   1
                l(5) =   2
                l(6) =   3

     PseudoPot. # 2 for Pr read from file:
     /home/cwx6513/pp.La/Pr.UPF
     MD5 check sum: 70e2b4b153859e92c8c91247dfc63203
     Pseudo is Norm-conserving, Zval = 13.0
     Generated in analytical, separable form
     Using radial grid of 1255 points,  6 beta functions with:
                l(1) =   0
                l(2) =   0
                l(3) =   1
                l(4) =   1
                l(5) =   2
                l(6) =   3

     atomic species   valence    mass     pseudopotential
        Mg            20.00    24.30500     Dy( 1.00)
        Cu            13.00    63.54600     Pr( 1.00)

     12 Sym. Ops., with inversion, found ( 6 have fractional translation)

   Cartesian axes

     site n.     atom                  positions (alat units)
         1           Mg  tau(   1) = (   1.6690651   0.9636352   0.6830580  )
         2           Mg  tau(   2) = (   1.1127101   0.6424235   0.4524402  )
         3           Cu  tau(   3) = (   0.2781775   0.1606059   0.1135498  )
         4           Cu  tau(   4) = (   0.8345326   0.1606059   0.1135498  )
         5           Cu  tau(   5) = (   0.5563550   0.6424235   0.1135498  )
         6           Cu  tau(   6) = (   0.5563550   0.3212117   0.5677491  )

     number of k points=   170  gaussian smearing, width (Ry)=  0.1000

     Number of k-points >= 100: set verbosity='high' to print them.

     Largest allocated arrays     est. size (Mb)     dimensions
     Largest temporary arrays     est. size (Mb)     dimensions

     Initial potential from superposition of free atoms
     Check: negative starting charge=   -0.000782

     starting charge   51.96217, renormalised to   92.00000

     negative rho (up, down):  0.138E-02 0.000E+00
     Starting wfc are   80 randomized atomic wfcs

     Writing output data file Prototype-La-cF24-Cu2Mg.save

     Self-consistent Calculation

[...]

     negative rho (up, down):  0.740E-04 0.000E+00

[...]

     iteration # 12     ecut=    40.00 Ry     beta=0.70
     CG style diagonalization
     c_bands:  1 eigenvalues not converged
     c_bands:  1 eigenvalues not converged
     ethr =  5.32E-08,  avg # of iterations =  4.4

     total energy              =    -892.55914128 Ry
     Harris-Foulkes estimate   =    -892.55914583 Ry
     estimated scf accuracy    <       0.00001064 Ry

     iteration # 13     ecut=    40.00 Ry     beta=0.70
     CG style diagonalization
     ethr =  1.16E-08,  avg # of iterations =  3.6

     End of self-consistent calculation

     Number of k-points >= 100: set verbosity='high' to print the bands.

     the Fermi energy is    24.3568 ev

!    total energy              =    -892.55914214 Ry
     Harris-Foulkes estimate   =    -892.55914311 Ry
     estimated scf accuracy    <       0.00000104 Ry

     The total energy is the sum of the following terms:

     one-electron contribution =     -96.96250610 Ry
     hartree contribution      =     117.08962291 Ry
     xc contribution           =     -95.33013704 Ry
     ewald contribution        =    -817.10102345 Ry
     smearing contrib. (-TS)   =      -0.25509846 Ry

     convergence has been achieved in  13 iterations

     Forces acting on atoms (Ry/au):

     atom    1 type  1   force =     0.00000000    0.00000000   -0.00468066
     atom    2 type  1   force =     0.00000000    0.00000000    0.00468066
     atom    3 type  2   force =     0.00000000    0.00000000    0.00000000
     atom    4 type  2   force =     0.00000000    0.00000000    0.00000000
     atom    5 type  2   force =     0.00000000    0.00000000    0.00000000
     atom    6 type  2   force =     0.00000000    0.00000000    0.00000000

     Total force =     0.006619     Total SCF correction =     0.000000

     entering subroutine stress ...

          total   stress  (Ry/bohr**3)                   (kbar)     P=  291.72
   0.00198718   0.00000000   0.00000000        292.32      0.00      0.00
   0.00000000   0.00198718   0.00000000          0.00    292.32      0.00
   0.00000000   0.00000000   0.00197485          0.00      0.00    290.51

     Writing output data file Prototype-La-cF24-Cu2Mg.save

     General routines

     Parallel routines

   This run was terminated on:   3:13:44  23Mar2018

   JOB DONE.