     Program PWSCF v.5.0.2 starts on 22Mar2018 at 21:15: 9

     Current dimensions of program PWSCF are:
     Max number of different atomic species (ntypx) = 10
     Max number of k-points (npk) =  40000
     Max angular momentum in pseudopotentials (lmaxx) =  3
     Waiting for input...
     Reading input from standard input

     Subspace diagonalization in iterative solution of the eigenvalue problem:
     a serial algorithm will be used

     bravais-lattice index     =            0
     lattice parameter (alat)  =       9.9235  a.u.
     unit-cell volume          =    1361.0366 (a.u.)^3
     number of atoms/cell      =           12
     number of atomic types    =            2
     number of electrons       =       172.00
     number of Kohn-Sham states=          103
     kinetic-energy cutoff     =      40.0000  Ry
     charge density cutoff     =     160.0000  Ry
     convergence threshold     =      1.0E-04
     mixing beta               =       0.7000
     number of iterations used =            8  plain     mixing
     Exchange-correlation      = SLA-PZ-NOGX-NOGC ( 1 1 0 0 0)
     EXX-fraction              =        0.00
     nstep                     =           50

     celldm(1)=   9.923489  celldm(2)=   0.000000  celldm(3)=   0.000000
     celldm(4)=   0.000000  celldm(5)=   0.000000  celldm(6)=   0.000000

     crystal axes: (cart. coord. in units of alat)
               a(1) = (   1.000000   0.000000   0.000000 )
               a(2) = (  -0.500000   0.866025   0.000000 )
               a(3) = (   0.000000   0.000000   1.608222 )

     reciprocal axes: (cart. coord. in units 2 pi/alat)
               b(1) = (  1.000000  0.577350  0.000000 )
               b(2) = (  0.000000  1.154701  0.000000 )
               b(3) = (  0.000000  0.000000  0.621805 )

     PseudoPot. # 1 for Eu read from file:
     /home/cwx6513/pp.La/Eu.UPF
     MD5 check sum: 5efdbbfc50c6a10138933a6429836ad2
     Pseudo is Norm-conserving, Zval = 17.0
     Generated in analytical, separable form
     Using radial grid of 1261 points,  6 beta functions with:
                l(1) =   0
                l(2) =   0
                l(3) =   1
                l(4) =   1
                l(5) =   2
                l(6) =   3

     PseudoPot. # 2 for Pr read from file:
     /home/cwx6513/pp.La/Pr.UPF
     MD5 check sum: 70e2b4b153859e92c8c91247dfc63203
     Pseudo is Norm-conserving, Zval = 13.0
     Generated in analytical, separable form
     Using radial grid of 1255 points,  6 beta functions with:
                l(1) =   0
                l(2) =   0
                l(3) =   1
                l(4) =   1
                l(5) =   2
                l(6) =   3

     atomic species   valence    mass     pseudopotential
        Mg            17.00    24.30500     Eu( 1.00)
        Zn            13.00    65.39000     Pr( 1.00)

     24 Sym. Ops., with inversion, found (12 have fractional translation)

   Cartesian axes

     site n.     atom                  positions (alat units)
         1           Mg  tau(   1) = (  -0.0000005   0.5773506   0.1003820  )
         2           Mg  tau(   2) = (   0.5000005   0.2886748   0.9044931  )
         3           Mg  tau(   3) = (   0.5000005   0.2886748   1.5078402  )
         4           Mg  tau(   4) = (  -0.0000005   0.5773506   0.7037291  )
         5           Zn  tau(   5) = (   0.0000000   0.0000000   0.0000000  )
         6           Zn  tau(   6) = (   0.0000000   0.0000000   0.8041111  )
         7           Zn  tau(   7) = (   0.0000000   0.2950739   1.2061667  )
         8           Zn  tau(   8) = (   0.7444585   0.1475370   0.4020556  )
         9           Zn  tau(   9) = (   0.2555415   0.1475370   0.4020556  )
        10           Zn  tau(  10) = (   0.2444585   0.7184884   1.2061667  )
        11           Zn  tau(  11) = (  -0.2444585   0.7184884   1.2061667  )
        12           Zn  tau(  12) = (   0.5000000   0.5709515   0.4020556  )

     number of k points=    12  gaussian smearing, width (Ry)=  0.1000
                       cart. coord. in units 2pi/alat
        k(    1) = (   0.0000000   0.0000000   0.0000000), wk =   0.0833333
        k(    2) = (   0.0000000   0.0000000   0.1554512), wk =   0.1666667
        k(    3) = (   0.0000000   0.0000000  -0.3109023), wk =   0.0833333
        k(    4) = (   0.0000000   0.3849002   0.0000000), wk =   0.1666667
        k(    5) = (   0.0000000   0.3849002   0.1554512), wk =   0.3333333
        k(    6) = (   0.0000000   0.3849002  -0.3109023), wk =   0.1666667
        k(    7) = (  -0.5000000  -0.2886751   0.0000000), wk =   0.0833333
        k(    8) = (  -0.5000000  -0.2886751   0.1554512), wk =   0.1666667
        k(    9) = (  -0.5000000  -0.2886751  -0.3109023), wk =   0.0833333
        k(   10) = (  -0.5000000   0.0962250   0.0000000), wk =   0.1666667
        k(   11) = (  -0.5000000   0.0962250   0.1554512), wk =   0.3333333
        k(   12) = (  -0.5000000   0.0962250  -0.3109023), wk =   0.1666667

     Largest allocated arrays     est. size (Mb)     dimensions
     Largest temporary arrays     est. size (Mb)     dimensions

     Initial potential from superposition of free atoms
     Check: negative starting charge=   -0.000695

     starting charge  103.92434, renormalised to  172.00000

     negative rho (up, down):  0.115E-02 0.000E+00
     Starting wfc are  160 randomized atomic wfcs

     Self-consistent Calculation

     iteration #  1     ecut=    40.00 Ry     beta=0.70
     CG style diagonalization
     ethr =  1.00E-02,  avg # of iterations = 20.6

     negative rho (up, down):  0.319E-03 0.000E+00

     total energy              =     213.26255477 Ry
     Harris-Foulkes estimate   =   -2932.69877076 Ry
     estimated scf accuracy    <    3712.00966106 Ry

[...]

     iteration #  3     ecut=    40.00 Ry     beta=0.70
     CG style diagonalization
     c_bands:  1 eigenvalues not converged
     c_bands:  1 eigenvalues not converged
     c_bands:  1 eigenvalues not converged
     ethr =  1.00E-02,  avg # of iterations = 11.2

[...]

     End of self-consistent calculation

          k = 0.0000 0.0000 0.0000 (  5769 PWs)   bands (ev):

   -34.7665 -34.7528 -34.7290 -34.7123 -16.6238 -16.2279 -15.0094 -14.5507
   -14.5507 -14.5387 -14.5387 -14.4598  -7.6875  -7.6875  -7.6814  -7.6452
    -7.6414  -7.6414  -7.4672  -7.4637  -7.4547  -7.4547  -7.4302  -7.4302
    -0.5059   0.4273   1.5143   2.7805   2.7805   3.0469   3.0469   3.2789
     3.2790   4.1081   5.0435   5.0436   5.1626   5.1627   5.6230   7.0214
     7.0589   7.0656   7.1391   7.1391   7.5526   7.5526   7.7504   7.7504
    19.9433  21.0120  21.1435  22.2865  22.2865  22.7957  22.9145  22.9244
    22.9244  22.9716  22.9717  23.2983  23.2983  23.3219  23.3436  23.3487
    23.3487  23.3667  24.0342  24.0343  24.0533  24.0533  25.0463  25.0464
    25.3836  25.5684  25.5684  25.7772  25.7772  25.9454  25.9454  26.0396
    26.7340  26.7340  27.4955  27.8256  27.8256  28.0965  28.0965  28.8878
    29.7819  29.7819  30.2949  30.5938  30.7093  31.0526  31.0527  31.1637
    31.8623  32.4497  32.4510  32.4709  32.6697  32.6752  32.6842

[...]

          k =-0.5000-0.2887 0.0000 (  5800 PWs)   bands (ev):

[...]

     the Fermi energy is    28.3699 ev

!    total energy              =   -1442.48241853 Ry
     Harris-Foulkes estimate   =   -1442.48249058 Ry
     estimated scf accuracy    <       0.00007804 Ry

     The total energy is the sum of the following terms:

     one-electron contribution =      95.34693294 Ry
     hartree contribution      =     115.32945857 Ry
     xc contribution           =    -170.43646615 Ry
     ewald contribution        =   -1482.18570696 Ry
     smearing contrib. (-TS)   =      -0.53663692 Ry

     convergence has been achieved in  15 iterations

     Forces acting on atoms (Ry/au):

     atom    1 type  1   force =     0.00000000    0.00000000    0.01115870
     atom    2 type  1   force =     0.00000000    0.00000000    0.01115870
     atom    3 type  1   force =     0.00000000    0.00000000   -0.01115870
     atom    4 type  1   force =     0.00000000    0.00000000   -0.01115870
     atom    5 type  2   force =     0.00000000    0.00000000    0.00000000
     atom    6 type  2   force =     0.00000000    0.00000000    0.00000000
     atom    7 type  2   force =     0.00000000    0.05840316    0.00000000
     atom    8 type  2   force =    -0.05057862    0.02920158    0.00000000
     atom    9 type  2   force =     0.05057862    0.02920158    0.00000000
     atom   10 type  2   force =    -0.05057862   -0.02920158    0.00000000
     atom   11 type  2   force =     0.05057862   -0.02920158    0.00000000
     atom   12 type  2   force =     0.00000000   -0.05840316    0.00000000

     Total force =     0.144788     Total SCF correction =     0.000958

     entering subroutine stress ...

          total   stress  (Ry/bohr**3)                   (kbar)     P=  853.78
   0.00583575   0.00000000   0.00000000        858.47      0.00      0.00
   0.00000000   0.00583575   0.00000000          0.00    858.47      0.00
   0.00000000   0.00000000   0.00574008          0.00      0.00    844.39

     BFGS Geometry Optimization

     number of scf cycles    =   1
     number of bfgs steps    =   0

     enthalpy new            =   -1442.4824185254 Ry

     new trust radius        =       0.5000000000 bohr
     new conv_thr            =       0.0001000000 Ry

     new unit-cell volume =   1655.17801 a.u.^3 (   245.27207 Ang^3 )

CELL_PARAMETERS (alat=  9.92348860)
   1.067764947   0.000000000   0.000000000
  -0.533882474   0.924711570   0.000000000
   0.000000000   0.000000000   1.715416694

ATOMIC_POSITIONS (crystal)
Mg       0.333333000   0.666667000   0.062742767
Mg       0.666667000   0.333333000   0.562742767
Mg       0.666667000   0.333333000   0.937257233
Mg       0.333333000   0.666667000   0.437257233
Zn       0.000000000   0.000000000   0.000000000
Zn       0.000000000   0.000000000   0.500000000
Zn       0.171939266   0.343878531   0.750000000
Zn       0.828060734   0.171939266   0.250000000
Zn       0.343878531   0.171939266   0.250000000
Zn       0.656121469   0.828060734   0.750000000
Zn       0.171939266   0.828060734   0.750000000
Zn       0.828060734   0.656121469   0.250000000

     Writing output data file Prototype-La-hP12-MgZn2.save
     Check: negative starting charge=   -0.000695
     NEW-OLD atomic charge density approx. for the potential
     NEW k-points:
        k(    1) = (   0.0000000   0.0000000   0.0000000), wk =   0.0833333
        k(    2) = (   0.0000000   0.0000000   0.1457372), wk =   0.1666667
        k(    3) = (   0.0000000   0.0000000  -0.2914744), wk =   0.0833333
        k(    4) = (   0.0000000   0.3604728   0.0000000), wk =   0.1666667
        k(    5) = (   0.0000000   0.3604728   0.1457372), wk =   0.3333333
        k(    6) = (   0.0000000   0.3604728  -0.2914744), wk =   0.1666667
        k(    7) = (  -0.4682679  -0.2703546   0.0000000), wk =   0.0833333
        k(    8) = (  -0.4682679  -0.2703546   0.1457372), wk =   0.1666667
        k(    9) = (  -0.4682679  -0.2703546  -0.2914744), wk =   0.0833333
        k(   10) = (  -0.4682679   0.0901182   0.0000000), wk =   0.1666667
        k(   11) = (  -0.4682679   0.0901182   0.1457372), wk =   0.3333333
        k(   12) = (  -0.4682679   0.0901182  -0.2914744), wk =   0.1666667
     Check: negative starting charge=   -0.006736

     negative rho (up, down):  0.611E-02 0.000E+00
     extrapolated charge  190.46838, renormalised to  172.00000

[...]

     Total force =     0.013149     Total SCF correction =     0.024561
     SCF correction compared to forces is large: reduce conv_thr to get better values

[...]

     enthalpy old            =   -1442.4824185254 Ry
     enthalpy new            =   -1443.1777027342 Ry

     CASE: enthalpy_new < enthalpy_old

     small trust_radius: resetting bfgs history

[...]

     Writing output data file Prototype-La-hP12-MgZn2.save
     Check: negative starting charge=   -0.006736
     NEW-OLD atomic charge density approx. for the potential
     NEW k-points:
        k(    1) = (   0.0000000   0.0000000   0.0000000), wk =   0.0833333
        k(    2) = (   0.0000000   0.0000000   0.1473750), wk =   0.1666667
        k(    3) = (   0.0000000   0.0000000  -0.2947500), wk =   0.0833333
        k(    4) = (   0.0000000   0.3631024   0.0000000), wk =   0.1666667
        k(    5) = (   0.0000000   0.3631024   0.1473750), wk =   0.3333333
        k(    6) = (   0.0000000   0.3631024  -0.2947500), wk =   0.1666667
        k(    7) = (  -0.4716839  -0.2723268   0.0000000), wk =   0.0833333
        k(    8) = (  -0.4716839  -0.2723268   0.1473750), wk =   0.1666667
        k(    9) = (  -0.4716839  -0.2723268  -0.2947500), wk =   0.0833333
        k(   10) = (  -0.4716839   0.0907756   0.0000000), wk =   0.1666667
        k(   11) = (  -0.4716839   0.0907756   0.1473750), wk =   0.3333333
        k(   12) = (  -0.4716839   0.0907756  -0.2947500), wk =   0.1666667
     Check: negative starting charge=   -0.005657
     extrapolated charge  169.29321, renormalised to  172.00000

[...]

     number of scf cycles    =   3
     number of bfgs steps    =   2

     enthalpy old            =   -1443.1777027342 Ry
     enthalpy new            =   -1443.1809336851 Ry

     CASE: enthalpy_new < enthalpy_old

     Message from routine bfgs:
     history already reset at previous step: stopping
     small trust_radius: resetting bfgs history

     new trust radius        =       0.0600880678 bohr
     new conv_thr            =       0.0000077506 Ry

     new unit-cell volume =   1645.72947 a.u.^3 (   243.87194 Ang^3 )

[...]

ATOMIC_POSITIONS (crystal)
Mg       0.333333000   0.666667000   0.063588026
Mg       0.666667000   0.333333000   0.563588026
Mg       0.666667000   0.333333000   0.936411974
Mg       0.333333000   0.666667000   0.436411974
Zn       0.000000000   0.000000000   0.000000000
Zn       0.000000000   0.000000000   0.500000000
Zn       0.172065920   0.344131840   0.750000000
Zn       0.827934080   0.172065920   0.250000000
Zn       0.344131840   0.172065920   0.250000000
Zn       0.655868160   0.827934080   0.750000000
Zn       0.172065920   0.827934080   0.750000000
Zn       0.827934080   0.655868160   0.250000000

     Writing output data file Prototype-La-hP12-MgZn2.save
     Check: negative starting charge=   -0.005657
     NEW-OLD atomic charge density approx. for the potential
     NEW k-points:
        k(    1) = (   0.0000000   0.0000000   0.0000000), wk =   0.0833333
        k(    2) = (   0.0000000   0.0000000   0.1466278), wk =   0.1666667
        k(    3) = (   0.0000000   0.0000000  -0.2932557), wk =   0.0833333
        k(    4) = (   0.0000000   0.3604065   0.0000000), wk =   0.1666667
        k(    5) = (   0.0000000   0.3604065   0.1466278), wk =   0.3333333
        k(    6) = (   0.0000000   0.3604065  -0.2932557), wk =   0.1666667
        k(    7) = (  -0.4681817  -0.2703048   0.0000000), wk =   0.0833333
        k(    8) = (  -0.4681817  -0.2703048   0.1466278), wk =   0.1666667
        k(    9) = (  -0.4681817  -0.2703048  -0.2932557), wk =   0.0833333
        k(   10) = (  -0.4681817   0.0901016   0.0000000), wk =   0.1666667
        k(   11) = (  -0.4681817   0.0901016   0.1466278), wk =   0.3333333
        k(   12) = (  -0.4681817   0.0901016  -0.2932557), wk =   0.1666667
     Check: negative starting charge=   -0.006456

     negative rho (up, down):  0.873E-03 0.000E+00
     extrapolated charge  174.05657, renormalised to  172.00000

[...]

     Total force =     0.010079     Total SCF correction =     0.002810
     SCF correction compared to forces is large: reduce conv_thr to get better values

[...]

     The maximum number of steps has been reached.

     End of BFGS Geometry Optimization
Begin final coordinates
     new unit-cell volume =   1645.72947 a.u.^3 (   243.87194 Ang^3 )

CELL_PARAMETERS (alat=  9.92348860)
   1.067961370   0.000000000   0.000000000
  -0.533980685   0.924881677   0.000000000
   0.000000000   0.000000000   1.704996934

ATOMIC_POSITIONS (crystal)
Mg       0.333333000   0.666667000   0.063588026
Mg       0.666667000   0.333333000   0.563588026
Mg       0.666667000   0.333333000   0.936411974
Mg       0.333333000   0.666667000   0.436411974
Zn       0.000000000   0.000000000   0.000000000
Zn       0.000000000   0.000000000   0.500000000
Zn       0.172065920   0.344131840   0.750000000
Zn       0.827934080   0.172065920   0.250000000
Zn       0.344131840   0.172065920   0.250000000
Zn       0.655868160   0.827934080   0.750000000
Zn       0.172065920   0.827934080   0.750000000
Zn       0.827934080   0.655868160   0.250000000
End final coordinates

     A final scf calculation at the relaxed structure.
     The G-vectors are recalculated for the final unit cell
     Results may differ from those at the preceding step.

     bravais-lattice index     =            0
     lattice parameter (alat)  =       9.9235  a.u.
     unit-cell volume          =    1645.7295 (a.u.)^3
     number of atoms/cell      =           12
     number of atomic types    =            2
     number of electrons       =       172.00
     number of Kohn-Sham states=          103
     kinetic-energy cutoff     =      40.0000  Ry
     charge density cutoff     =     160.0000  Ry
     convergence threshold     =      7.8E-06
     mixing beta               =       0.7000
     number of iterations used =            8  plain     mixing
     Exchange-correlation      = SLA-PZ-NOGX-NOGC ( 1 1 0 0 0)
     EXX-fraction              =        0.00

     celldm(1)=   9.923489  celldm(2)=   0.000000  celldm(3)=   0.000000
     celldm(4)=   0.000000  celldm(5)=   0.000000  celldm(6)=   0.000000

     crystal axes: (cart. coord. in units of alat)
               a(1) = (   1.067961   0.000000   0.000000 )
               a(2) = (  -0.533981   0.924882   0.000000 )
               a(3) = (   0.000000   0.000000   1.704997 )

     reciprocal axes: (cart. coord. in units 2 pi/alat)
               b(1) = (  0.936363  0.540610  0.000000 )
               b(2) = (  0.000000  1.081219  0.000000 )
               b(3) = (  0.000000  0.000000  0.586511 )

     PseudoPot. # 1 for Eu read from file:
     /home/cwx6513/pp.La/Eu.UPF
     MD5 check sum: 5efdbbfc50c6a10138933a6429836ad2
     Pseudo is Norm-conserving, Zval = 17.0
     Generated in analytical, separable form
     Using radial grid of 1261 points,  6 beta functions with:
                l(1) =   0
                l(2) =   0
                l(3) =   1
                l(4) =   1
                l(5) =   2
                l(6) =   3

     PseudoPot. # 2 for Pr read from file:
     /home/cwx6513/pp.La/Pr.UPF
     MD5 check sum: 70e2b4b153859e92c8c91247dfc63203
     Pseudo is Norm-conserving, Zval = 13.0
     Generated in analytical, separable form
     Using radial grid of 1255 points,  6 beta functions with:
                l(1) =   0
                l(2) =   0
                l(3) =   1
                l(4) =   1
                l(5) =   2
                l(6) =   3

     atomic species   valence    mass     pseudopotential
        Mg            17.00    24.30500     Eu( 1.00)
        Zn            13.00    65.39000     Pr( 1.00)

     24 Sym. Ops., with inversion, found (12 have fractional translation)

   Cartesian axes

     site n.     atom                  positions (alat units)
         1           Mg  tau(   1) = (  -0.0000005   0.6165881   0.1084174  )
         2           Mg  tau(   2) = (   0.5339812   0.3082936   0.9609159  )
         3           Mg  tau(   3) = (   0.5339812   0.3082936   1.5965795  )
         4           Mg  tau(   4) = (  -0.0000005   0.6165881   0.7440811  )
         5           Zn  tau(   5) = (   0.0000000   0.0000000   0.0000000  )
         6           Zn  tau(   6) = (   0.0000000   0.0000000   0.8524985  )
         7           Zn  tau(   7) = (   0.0000000   0.3182812   1.2787477  )
         8           Zn  tau(   8) = (   0.7923217   0.1591406   0.4262492  )
         9           Zn  tau(   9) = (   0.2756396   0.1591406   0.4262492  )
        10           Zn  tau(  10) = (   0.2583411   0.7657411   1.2787477  )
        11           Zn  tau(  11) = (  -0.2583411   0.7657411   1.2787477  )
        12           Zn  tau(  12) = (   0.5339807   0.6066004   0.4262492  )

     number of k points=    12  gaussian smearing, width (Ry)=  0.1000
                       cart. coord. in units 2pi/alat
        k(    1) = (   0.0000000   0.0000000   0.0000000), wk =   0.0833333
        k(    2) = (   0.0000000   0.0000000   0.1466278), wk =   0.1666667
        k(    3) = (   0.0000000   0.0000000  -0.2932557), wk =   0.0833333
        k(    4) = (   0.0000000   0.3604065   0.0000000), wk =   0.1666667
        k(    5) = (   0.0000000   0.3604065   0.1466278), wk =   0.3333333
        k(    6) = (   0.0000000   0.3604065  -0.2932557), wk =   0.1666667
        k(    7) = (  -0.4681817  -0.2703048   0.0000000), wk =   0.0833333
        k(    8) = (  -0.4681817  -0.2703048   0.1466278), wk =   0.1666667
        k(    9) = (  -0.4681817  -0.2703048  -0.2932557), wk =   0.0833333
        k(   10) = (  -0.4681817   0.0901016   0.0000000), wk =   0.1666667
        k(   11) = (  -0.4681817   0.0901016   0.1466278), wk =   0.3333333
        k(   12) = (  -0.4681817   0.0901016  -0.2932557), wk =   0.1666667

     Largest allocated arrays     est. size (Mb)     dimensions
     Largest temporary arrays     est. size (Mb)     dimensions

     Initial potential from superposition of free atoms
     Check: negative starting charge=   -0.001677

     starting charge  103.92434, renormalised to  172.00000

     negative rho (up, down):  0.278E-02 0.000E+00
     Starting wfc are  160 randomized atomic wfcs

     Writing output data file Prototype-La-hP12-MgZn2.save

     Self-consistent Calculation

[...]

     negative rho (up, down):  0.120E-03 0.000E+00

[...]

     iteration # 14     ecut=    40.00 Ry     beta=0.70
     CG style diagonalization
     c_bands:  1 eigenvalues not converged
     c_bands:  2 eigenvalues not converged
     ethr =  2.08E-07,  avg # of iterations =  4.4

[...]

     total energy              =   -1443.79155176 Ry
     Harris-Foulkes estimate   =   -1443.79155696 Ry
     estimated scf accuracy    <       0.00001989 Ry

     iteration # 17     ecut=    40.00 Ry     beta=0.70
     CG style diagonalization
     ethr =  1.16E-08,  avg # of iterations =  3.9

     End of self-consistent calculation

[...]

          k = 0.0000 0.3604-0.2933 (  7020 PWs)   bands (ev):

[...]

          k =-0.4682 0.0901-0.2933 (  7032 PWs)   bands (ev):

   -39.8833 -39.8833 -39.8745 -39.8745 -20.8351 -20.8351 -20.5260 -20.5260
   -20.0570 -20.0570 -19.9380 -19.9380 -12.6671 -12.6671 -12.6301 -12.6301
   -12.5926 -12.5926 -12.5496 -12.5496 -12.5223 -12.5223 -12.5156 -12.5156
    -2.8114  -2.8114  -1.9189  -1.9189  -1.2473  -1.2473  -1.1617  -1.1617
    -0.9651  -0.9651  -0.7306  -0.7306  -0.2211  -0.2211   0.2201   0.2201
     0.5551   0.5551   0.7905   0.7905   1.2084   1.2084   1.3246   1.3246
    17.5000  17.5000  17.8060  17.8060  18.2164  18.2164  18.4123  18.4124
    18.5525  18.5525  18.7440  18.7440  19.1406  19.1406  19.2896  19.2896
    19.4413  19.4413  19.6921  19.6921  20.0123  20.0123  20.2590  20.2590
    20.5717  20.5717  20.8394  20.8394  21.3451  21.3451  21.4390  21.4390
    21.8312  21.8312  22.0518  22.0518  22.5821  22.5821  23.0387  23.0387
    23.1866  23.1867  23.7429  23.7429  24.1265  24.1265  24.5949  24.5949
    24.9406  24.9406  25.2322  25.2323  25.3434  25.3435  26.2145

     the Fermi energy is    22.7683 ev

!    total energy              =   -1443.79155670 Ry
     Harris-Foulkes estimate   =   -1443.79155772 Ry
     estimated scf accuracy    <       0.00000109 Ry

     The total energy is the sum of the following terms:

     one-electron contribution =     -28.11433826 Ry
     hartree contribution      =     143.19915329 Ry
     xc contribution           =    -166.77020210 Ry
     ewald contribution        =   -1391.43330816 Ry
     smearing contrib. (-TS)   =      -0.67286146 Ry

     convergence has been achieved in  17 iterations

     Forces acting on atoms (Ry/au):

     atom    1 type  1   force =     0.00000000    0.00000000    0.00571763
     atom    2 type  1   force =     0.00000000    0.00000000    0.00571763
     atom    3 type  1   force =     0.00000000    0.00000000   -0.00571763
     atom    4 type  1   force =     0.00000000    0.00000000   -0.00571763
     atom    5 type  2   force =     0.00000000    0.00000000    0.00000000
     atom    6 type  2   force =     0.00000000    0.00000000    0.00000000
     atom    7 type  2   force =     0.00000000    0.00208713    0.00000000
     atom    8 type  2   force =    -0.00180751    0.00104357    0.00000000
     atom    9 type  2   force =     0.00180751    0.00104357    0.00000000
     atom   10 type  2   force =    -0.00180751   -0.00104357    0.00000000
     atom   11 type  2   force =     0.00180751   -0.00104357    0.00000000
     atom   12 type  2   force =     0.00000000   -0.00208713    0.00000000

     Total force =     0.012526     Total SCF correction =     0.000623

     entering subroutine stress ...

          total   stress  (Ry/bohr**3)                   (kbar)     P=  140.14
   0.00099809   0.00000000   0.00000000        146.82      0.00      0.00
   0.00000000   0.00099809   0.00000000          0.00    146.82      0.00
   0.00000000   0.00000000   0.00086183          0.00      0.00    126.78

     Writing output data file Prototype-La-hP12-MgZn2.save

     General routines

     Parallel routines

   This run was terminated on:  21:54:17  22Mar2018

   JOB DONE.