     Program PWSCF v.5.0.2 starts on 22Mar2018 at 17:30:48

     Current dimensions of program PWSCF are:
     Max number of different atomic species (ntypx) = 10
     Max number of k-points (npk) =  40000
     Max angular momentum in pseudopotentials (lmaxx) =  3
     Waiting for input...
     Reading input from standard input

     Subspace diagonalization in iterative solution of the eigenvalue problem:
     a serial algorithm will be used

     bravais-lattice index     =            0
     lattice parameter (alat)  =       9.9235  a.u.
     unit-cell volume          =    1361.0366 (a.u.)^3
     number of atoms/cell      =           12
     number of atomic types    =            2
     number of electrons       =       172.00
     number of Kohn-Sham states=          103
     kinetic-energy cutoff     =      40.0000  Ry
     charge density cutoff     =     160.0000  Ry
     convergence threshold     =      1.0E-04
     mixing beta               =       0.7000
     number of iterations used =            8  plain     mixing
     Exchange-correlation      = SLA-PZ-NOGX-NOGC ( 1 1 0 0 0)
     EXX-fraction              =        0.00
     nstep                     =           50

     celldm(1)=   9.923489  celldm(2)=   0.000000  celldm(3)=   0.000000
     celldm(4)=   0.000000  celldm(5)=   0.000000  celldm(6)=   0.000000

     crystal axes: (cart. coord. in units of alat)
               a(1) = (   1.000000   0.000000   0.000000 )
               a(2) = (  -0.500000   0.866025   0.000000 )
               a(3) = (   0.000000   0.000000   1.608222 )

     reciprocal axes: (cart. coord. in units 2 pi/alat)
               b(1) = (  1.000000  0.577350  0.000000 )
               b(2) = (  0.000000  1.154701  0.000000 )
               b(3) = (  0.000000  0.000000  0.621805 )

     PseudoPot. # 1 for Tb read from file:
     /home/cwx6513/pp.La/Tb.UPF
     MD5 check sum: 3d6088a3f0cf7fd2e110c43f7f8e95c2
     Pseudo is Norm-conserving, Zval = 19.0
     Generated in analytical, separable form
     Using radial grid of 1263 points,  6 beta functions with:
                l(1) =   0
                l(2) =   0
                l(3) =   1
                l(4) =   1
                l(5) =   2
                l(6) =   3

     PseudoPot. # 2 for Ce read from file:
     /home/cwx6513/pp.La/Ce.UPF
     MD5 check sum: 44451aa79a44a00cf2bc029dc19922f6
     Pseudo is Norm-conserving, Zval = 12.0
     Generated in analytical, separable form
     Using radial grid of 1255 points,  6 beta functions with:
                l(1) =   0
                l(2) =   0
                l(3) =   1
                l(4) =   1
                l(5) =   2
                l(6) =   3

     atomic species   valence    mass     pseudopotential
        Mg            19.00    24.30500     Tb( 1.00)
        Zn            12.00    65.39000     Ce( 1.00)

     24 Sym. Ops., with inversion, found (12 have fractional translation)

   Cartesian axes

     site n.     atom                  positions (alat units)
         1           Mg  tau(   1) = (  -0.0000005   0.5773506   0.1003820  )
         2           Mg  tau(   2) = (   0.5000005   0.2886748   0.9044931  )
         3           Mg  tau(   3) = (   0.5000005   0.2886748   1.5078402  )
         4           Mg  tau(   4) = (  -0.0000005   0.5773506   0.7037291  )
         5           Zn  tau(   5) = (   0.0000000   0.0000000   0.0000000  )
         6           Zn  tau(   6) = (   0.0000000   0.0000000   0.8041111  )
         7           Zn  tau(   7) = (   0.0000000   0.2950739   1.2061667  )
         8           Zn  tau(   8) = (   0.7444585   0.1475370   0.4020556  )
         9           Zn  tau(   9) = (   0.2555415   0.1475370   0.4020556  )
        10           Zn  tau(  10) = (   0.2444585   0.7184884   1.2061667  )
        11           Zn  tau(  11) = (  -0.2444585   0.7184884   1.2061667  )
        12           Zn  tau(  12) = (   0.5000000   0.5709515   0.4020556  )

     number of k points=    12  gaussian smearing, width (Ry)=  0.1000
                       cart. coord. in units 2pi/alat
        k(    1) = (   0.0000000   0.0000000   0.0000000), wk =   0.0833333
        k(    2) = (   0.0000000   0.0000000   0.1554512), wk =   0.1666667
        k(    3) = (   0.0000000   0.0000000  -0.3109023), wk =   0.0833333
        k(    4) = (   0.0000000   0.3849002   0.0000000), wk =   0.1666667
        k(    5) = (   0.0000000   0.3849002   0.1554512), wk =   0.3333333
        k(    6) = (   0.0000000   0.3849002  -0.3109023), wk =   0.1666667
        k(    7) = (  -0.5000000  -0.2886751   0.0000000), wk =   0.0833333
        k(    8) = (  -0.5000000  -0.2886751   0.1554512), wk =   0.1666667
        k(    9) = (  -0.5000000  -0.2886751  -0.3109023), wk =   0.0833333
        k(   10) = (  -0.5000000   0.0962250   0.0000000), wk =   0.1666667
        k(   11) = (  -0.5000000   0.0962250   0.1554512), wk =   0.3333333
        k(   12) = (  -0.5000000   0.0962250  -0.3109023), wk =   0.1666667

     Largest allocated arrays     est. size (Mb)     dimensions
     Largest temporary arrays     est. size (Mb)     dimensions

     Initial potential from superposition of free atoms

     Starting from uniform charge
     Starting wfc are    0 randomized atomic wfcs

     Self-consistent Calculation

     iteration #  1     ecut=    40.00 Ry     beta=0.70
     CG style diagonalization
     ethr =  1.00E-02,  avg # of iterations = 16.6

     total energy              =    -661.47006476 Ry
     Harris-Foulkes estimate   =   -1904.04217762 Ry
     estimated scf accuracy    <    1499.10270564 Ry

[...]

     iteration #  7     ecut=    40.00 Ry     beta=0.70
     CG style diagonalization
     c_bands:  1 eigenvalues not converged
     ethr =  4.65E-04,  avg # of iterations =  4.7

     negative rho (up, down):  0.132E-04 0.000E+00

[...]

     End of self-consistent calculation

          k = 0.0000 0.0000 0.0000 (  5769 PWs)   bands (ev):

   -47.6491 -47.6450 -47.6431 -47.6328 -16.1187 -16.0936 -16.0935 -16.0840
   -16.0607 -16.0606 -15.9728 -15.9507 -15.9507 -15.9498 -15.9498 -15.9460
   -11.9236 -11.3365  -9.9516  -9.1590  -9.1487  -9.1487  -9.1228  -9.1228
     1.9460   3.0716   4.0758   5.5253   5.5253   5.8483   5.8483   6.0311
     6.0312   7.1404   8.2355   8.2356   8.3283   8.3283   9.1240  10.4680
    10.8471  10.8471  10.8530  10.8695  11.4751  11.4752  11.6976  11.6976
    19.6027  20.0074  20.4554  20.4555  20.7835  21.0765  21.0765  21.1311
    21.1712  21.1712  21.1991  21.1991  21.5576  21.7604  21.7604  22.1069
    22.2046  22.2878  22.2878  22.3155  22.3156  22.3645  22.3645  23.0812
    23.0812  23.8984  25.1305  25.1305  25.2698  25.4661  25.4661  25.6441
    26.2206  27.0363  27.0363  27.6470  28.3896  28.3896  28.4596  28.4596
    28.9916  28.9916  29.7772  30.7089  31.3028  31.4550  32.0208  32.0209
    32.2945  33.2225  33.3408  33.3412  33.3635  33.3638  33.7358

[...]

          k =-0.5000-0.2887 0.0000 (  5800 PWs)   bands (ev):

[...]

     the Fermi energy is    28.4402 ev

!    total energy              =   -1533.23678559 Ry
     Harris-Foulkes estimate   =   -1533.23680276 Ry
     estimated scf accuracy    <       0.00002342 Ry

     The total energy is the sum of the following terms:

     one-electron contribution =      -4.66498971 Ry
     hartree contribution      =     162.52075854 Ry
     xc contribution           =    -175.00122453 Ry
     ewald contribution        =   -1515.60471877 Ry
     smearing contrib. (-TS)   =      -0.48661113 Ry

     convergence has been achieved in  12 iterations

     Forces acting on atoms (Ry/au):

     atom    1 type  1   force =     0.00000000    0.00000000    0.02602441
     atom    2 type  1   force =     0.00000000    0.00000000    0.02602441
     atom    3 type  1   force =     0.00000000    0.00000000   -0.02602441
     atom    4 type  1   force =     0.00000000    0.00000000   -0.02602441
     atom    5 type  2   force =     0.00000000    0.00000000    0.00000000
     atom    6 type  2   force =     0.00000000    0.00000000    0.00000000
     atom    7 type  2   force =     0.00000000    0.05539212    0.00000000
     atom    8 type  2   force =    -0.04797099    0.02769606    0.00000000
     atom    9 type  2   force =     0.04797099    0.02769606    0.00000000
     atom   10 type  2   force =    -0.04797099   -0.02769606    0.00000000
     atom   11 type  2   force =     0.04797099   -0.02769606    0.00000000
     atom   12 type  2   force =     0.00000000   -0.05539212    0.00000000

     Total force =     0.145323     Total SCF correction =     0.000000

     entering subroutine stress ...

          total   stress  (Ry/bohr**3)                   (kbar)     P=  976.35
   0.00661927   0.00000000   0.00000000        973.73      0.00      0.00
   0.00000000   0.00661927   0.00000000          0.00    973.73      0.00
   0.00000000   0.00000000   0.00667281          0.00      0.00    981.60

     BFGS Geometry Optimization

     number of scf cycles    =   1
     number of bfgs steps    =   0

     enthalpy new            =   -1533.2367855931 Ry

     new trust radius        =       0.5000000000 bohr
     new conv_thr            =       0.0001000000 Ry

     new unit-cell volume =   1655.21498 a.u.^3 (   245.27755 Ang^3 )

CELL_PARAMETERS (alat=  9.92348860)
   1.067221256   0.000000000   0.000000000
  -0.533610628   0.924240719   0.000000000
   0.000000000   0.000000000   1.717203317

ATOMIC_POSITIONS (crystal)
Mg       0.333333000   0.666667000   0.063080410
Mg       0.666667000   0.333333000   0.563080410
Mg       0.666667000   0.333333000   0.936919590
Mg       0.333333000   0.666667000   0.436919590
Zn       0.000000000   0.000000000   0.000000000
Zn       0.000000000   0.000000000   0.500000000
Zn       0.171670119   0.343340238   0.750000000
Zn       0.828329881   0.171670119   0.250000000
Zn       0.343340238   0.171670119   0.250000000
Zn       0.656659762   0.828329881   0.750000000
Zn       0.171670119   0.828329881   0.750000000
Zn       0.828329881   0.656659762   0.250000000

     Writing output data file Prototype-La-hP12-MgZn2.save
     NEW-OLD atomic charge density approx. for the potential
     NEW k-points:
        k(    1) = (   0.0000000   0.0000000   0.0000000), wk =   0.0833333
        k(    2) = (   0.0000000   0.0000000   0.1455856), wk =   0.1666667
        k(    3) = (   0.0000000   0.0000000  -0.2911711), wk =   0.0833333
        k(    4) = (   0.0000000   0.3606564   0.0000000), wk =   0.1666667
        k(    5) = (   0.0000000   0.3606564   0.1455856), wk =   0.3333333
        k(    6) = (   0.0000000   0.3606564  -0.2911711), wk =   0.1666667
        k(    7) = (  -0.4685064  -0.2704923   0.0000000), wk =   0.0833333
        k(    8) = (  -0.4685064  -0.2704923   0.1455856), wk =   0.1666667
        k(    9) = (  -0.4685064  -0.2704923  -0.2911711), wk =   0.0833333
        k(   10) = (  -0.4685064   0.0901641   0.0000000), wk =   0.1666667
        k(   11) = (  -0.4685064   0.0901641   0.1455856), wk =   0.3333333
        k(   12) = (  -0.4685064   0.0901641  -0.2911711), wk =   0.1666667

[...]

     enthalpy old            =   -1533.2367855931 Ry
     enthalpy new            =   -1534.1504736559 Ry

     CASE: enthalpy_new < enthalpy_old

     small trust_radius: resetting bfgs history

[...]

     number of scf cycles    =   3
     number of bfgs steps    =   2

     enthalpy old            =   -1534.1504736559 Ry
     enthalpy new            =   -1534.1550349810 Ry

     CASE: enthalpy_new < enthalpy_old

     Message from routine bfgs:
     history already reset at previous step: stopping
     small trust_radius: resetting bfgs history

     new trust radius        =       0.0499258073 bohr
     new conv_thr            =       0.0000158916 Ry

     new unit-cell volume =   1675.75643 a.u.^3 (   248.32148 Ang^3 )

[...]

ATOMIC_POSITIONS (crystal)
Mg       0.333333000   0.666667000   0.064595871
Mg       0.666667000   0.333333000   0.564595871
Mg       0.666667000   0.333333000   0.935404129
Mg       0.333333000   0.666667000   0.435404129
Zn       0.000000000   0.000000000   0.000000000
Zn       0.000000000   0.000000000   0.500000000
Zn       0.172085152   0.344170304   0.750000000
Zn       0.827914848   0.172085152   0.250000000
Zn       0.344170304   0.172085152   0.250000000
Zn       0.655829696   0.827914848   0.750000000
Zn       0.172085152   0.827914848   0.750000000
Zn       0.827914848   0.655829696   0.250000000

     Writing output data file Prototype-La-hP12-MgZn2.save
     NEW-OLD atomic charge density approx. for the potential
     NEW k-points:
        k(    1) = (   0.0000000   0.0000000   0.0000000), wk =   0.0833333
        k(    2) = (   0.0000000   0.0000000   0.1452971), wk =   0.1666667
        k(    3) = (   0.0000000   0.0000000  -0.2905942), wk =   0.0833333
        k(    4) = (   0.0000000   0.3587947   0.0000000), wk =   0.1666667
        k(    5) = (   0.0000000   0.3587947   0.1452971), wk =   0.3333333
        k(    6) = (   0.0000000   0.3587947  -0.2905942), wk =   0.1666667
        k(    7) = (  -0.4660881  -0.2690961   0.0000000), wk =   0.0833333
        k(    8) = (  -0.4660881  -0.2690961   0.1452971), wk =   0.1666667
        k(    9) = (  -0.4660881  -0.2690961  -0.2905942), wk =   0.0833333
        k(   10) = (  -0.4660881   0.0896987   0.0000000), wk =   0.1666667
        k(   11) = (  -0.4660881   0.0896987   0.1452971), wk =   0.3333333
        k(   12) = (  -0.4660881   0.0896987  -0.2905942), wk =   0.1666667

[...]

     The maximum number of steps has been reached.

     End of BFGS Geometry Optimization
Begin final coordinates
     new unit-cell volume =   1675.75643 a.u.^3 (   248.32148 Ang^3 )

CELL_PARAMETERS (alat=  9.92348860)
   1.072758673   0.000000000   0.000000000
  -0.536379336   0.929036263   0.000000000
   0.000000000   0.000000000   1.720612483

ATOMIC_POSITIONS (crystal)
Mg       0.333333000   0.666667000   0.064595871
Mg       0.666667000   0.333333000   0.564595871
Mg       0.666667000   0.333333000   0.935404129
Mg       0.333333000   0.666667000   0.435404129
Zn       0.000000000   0.000000000   0.000000000
Zn       0.000000000   0.000000000   0.500000000
Zn       0.172085152   0.344170304   0.750000000
Zn       0.827914848   0.172085152   0.250000000
Zn       0.344170304   0.172085152   0.250000000
Zn       0.655829696   0.827914848   0.750000000
Zn       0.172085152   0.827914848   0.750000000
Zn       0.827914848   0.655829696   0.250000000
End final coordinates

     A final scf calculation at the relaxed structure.
     The G-vectors are recalculated for the final unit cell
     Results may differ from those at the preceding step.

     bravais-lattice index     =            0
     lattice parameter (alat)  =       9.9235  a.u.
     unit-cell volume          =    1675.7564 (a.u.)^3
     number of atoms/cell      =           12
     number of atomic types    =            2
     number of electrons       =       172.00
     number of Kohn-Sham states=          103
     kinetic-energy cutoff     =      40.0000  Ry
     charge density cutoff     =     160.0000  Ry
     convergence threshold     =      1.6E-05
     mixing beta               =       0.7000
     number of iterations used =            8  plain     mixing
     Exchange-correlation      = SLA-PZ-NOGX-NOGC ( 1 1 0 0 0)
     EXX-fraction              =        0.00

     celldm(1)=   9.923489  celldm(2)=   0.000000  celldm(3)=   0.000000
     celldm(4)=   0.000000  celldm(5)=   0.000000  celldm(6)=   0.000000

     crystal axes: (cart. coord. in units of alat)
               a(1) = (   1.072759   0.000000   0.000000 )
               a(2) = (  -0.536379   0.929036   0.000000 )
               a(3) = (   0.000000   0.000000   1.720612 )

     reciprocal axes: (cart. coord. in units 2 pi/alat)
               b(1) = (  0.932176  0.538192  0.000000 )
               b(2) = (  0.000000  1.076384  0.000000 )
               b(3) = (  0.000000  0.000000  0.581188 )

     PseudoPot. # 1 for Tb read from file:
     /home/cwx6513/pp.La/Tb.UPF
     MD5 check sum: 3d6088a3f0cf7fd2e110c43f7f8e95c2
     Pseudo is Norm-conserving, Zval = 19.0
     Generated in analytical, separable form
     Using radial grid of 1263 points,  6 beta functions with:
                l(1) =   0
                l(2) =   0
                l(3) =   1
                l(4) =   1
                l(5) =   2
                l(6) =   3

     PseudoPot. # 2 for Ce read from file:
     /home/cwx6513/pp.La/Ce.UPF
     MD5 check sum: 44451aa79a44a00cf2bc029dc19922f6
     Pseudo is Norm-conserving, Zval = 12.0
     Generated in analytical, separable form
     Using radial grid of 1255 points,  6 beta functions with:
                l(1) =   0
                l(2) =   0
                l(3) =   1
                l(4) =   1
                l(5) =   2
                l(6) =   3

     atomic species   valence    mass     pseudopotential
        Mg            19.00    24.30500     Tb( 1.00)
        Zn            12.00    65.39000     Ce( 1.00)

     24 Sym. Ops., with inversion, found (12 have fractional translation)

   Cartesian axes

     site n.     atom                  positions (alat units)
         1           Mg  tau(   1) = (  -0.0000005   0.6193578   0.1111445  )
         2           Mg  tau(   2) = (   0.5363799   0.3096784   0.9714507  )
         3           Mg  tau(   3) = (   0.5363799   0.3096784   1.6094680  )
         4           Mg  tau(   4) = (  -0.0000005   0.6193578   0.7491618  )
         5           Zn  tau(   5) = (   0.0000000   0.0000000   0.0000000  )
         6           Zn  tau(   6) = (   0.0000000   0.0000000   0.8603062  )
         7           Zn  tau(   7) = (   0.0000000   0.3197467   1.2904594  )
         8           Zn  tau(   8) = (   0.7958499   0.1598733   0.4301531  )
         9           Zn  tau(   9) = (   0.2769088   0.1598733   0.4301531  )
        10           Zn  tau(  10) = (   0.2594706   0.7691629   1.2904594  )
        11           Zn  tau(  11) = (  -0.2594706   0.7691629   1.2904594  )
        12           Zn  tau(  12) = (   0.5363793   0.6092896   0.4301531  )

     number of k points=    12  gaussian smearing, width (Ry)=  0.1000
                       cart. coord. in units 2pi/alat
        k(    1) = (   0.0000000   0.0000000   0.0000000), wk =   0.0833333
        k(    2) = (   0.0000000   0.0000000   0.1452971), wk =   0.1666667
        k(    3) = (   0.0000000   0.0000000  -0.2905942), wk =   0.0833333
        k(    4) = (   0.0000000   0.3587947   0.0000000), wk =   0.1666667
        k(    5) = (   0.0000000   0.3587947   0.1452971), wk =   0.3333333
        k(    6) = (   0.0000000   0.3587947  -0.2905942), wk =   0.1666667
        k(    7) = (  -0.4660881  -0.2690961   0.0000000), wk =   0.0833333
        k(    8) = (  -0.4660881  -0.2690961   0.1452971), wk =   0.1666667
        k(    9) = (  -0.4660881  -0.2690961  -0.2905942), wk =   0.0833333
        k(   10) = (  -0.4660881   0.0896987   0.0000000), wk =   0.1666667
        k(   11) = (  -0.4660881   0.0896987   0.1452971), wk =   0.3333333
        k(   12) = (  -0.4660881   0.0896987  -0.2905942), wk =   0.1666667

     Largest allocated arrays     est. size (Mb)     dimensions
     Largest temporary arrays     est. size (Mb)     dimensions

     Initial potential from superposition of free atoms

     Starting from uniform charge
     Starting wfc are    0 randomized atomic wfcs

     Writing output data file Prototype-La-hP12-MgZn2.save

     Self-consistent Calculation

[...]

     negative rho (up, down):  0.113E-04 0.000E+00

[...]

     iteration # 12     ecut=    40.00 Ry     beta=0.70
     CG style diagonalization
     c_bands:  1 eigenvalues not converged
     ethr =  9.17E-08,  avg # of iterations =  4.8

     total energy              =   -1535.03746065 Ry
     Harris-Foulkes estimate   =   -1535.03750177 Ry
     estimated scf accuracy    <       0.00010654 Ry

     iteration # 13     ecut=    40.00 Ry     beta=0.70
     CG style diagonalization
     ethr =  6.19E-08,  avg # of iterations =  3.2

     End of self-consistent calculation

[...]

          k = 0.0000 0.3588-0.2906 (  7154 PWs)   bands (ev):

[...]

          k =-0.4661 0.0897-0.2906 (  7172 PWs)   bands (ev):

   -52.7928 -52.7928 -52.7900 -52.7900 -21.1338 -21.1337 -21.1155 -21.1155
   -21.1016 -21.1015 -21.0866 -21.0866 -21.0780 -21.0780 -21.0755 -21.0755
   -16.1059 -16.1059 -15.6979 -15.6979 -15.0395 -15.0395 -14.9609 -14.9609
    -0.3410  -0.3410   0.6848   0.6848   1.3790   1.3790   1.5194   1.5194
     1.7405   1.7405   2.0676   2.0676   2.6639   2.6639   3.2011   3.2011
     3.5914   3.5914   3.9034   3.9034   4.4459   4.4459   4.5713   4.5713
    15.7487  15.7487  15.9544  15.9544  16.0052  16.0053  16.2220  16.2220
    16.3524  16.3524  16.5473  16.5473  16.7201  16.7201  16.8067  16.8067
    17.1709  17.1709  17.3640  17.3640  18.3553  18.3553  18.9081  18.9081
    19.9041  19.9041  20.1767  20.1767  20.8077  20.8077  21.0738  21.0738
    21.4027  21.4027  21.8111  21.8111  22.2689  22.2689  22.4984  22.4984
    22.7179  22.7180  23.7562  23.7562  24.2675  24.2675  24.5149  24.5149
    25.0591  25.0592  25.2437  25.2439  25.5175  25.5179  26.2550

     the Fermi energy is    22.4374 ev

!    total energy              =   -1535.03746508 Ry
     Harris-Foulkes estimate   =   -1535.03747299 Ry
     estimated scf accuracy    <       0.00000879 Ry

     The total energy is the sum of the following terms:

     one-electron contribution =    -147.34953616 Ry
     hartree contribution      =     198.30661009 Ry
     xc contribution           =    -171.35401527 Ry
     ewald contribution        =   -1414.05560199 Ry
     smearing contrib. (-TS)   =      -0.58492174 Ry

     convergence has been achieved in  13 iterations

     Forces acting on atoms (Ry/au):

     atom    1 type  1   force =     0.00000000    0.00000000    0.01109524
     atom    2 type  1   force =     0.00000000    0.00000000    0.01109524
     atom    3 type  1   force =     0.00000000    0.00000000   -0.01109524
     atom    4 type  1   force =     0.00000000    0.00000000   -0.01109524
     atom    5 type  2   force =     0.00000000    0.00000000    0.00000000
     atom    6 type  2   force =     0.00000000    0.00000000    0.00000000
     atom    7 type  2   force =     0.00000000    0.00360146    0.00000000
     atom    8 type  2   force =    -0.00311895    0.00180073    0.00000000
     atom    9 type  2   force =     0.00311895    0.00180073    0.00000000
     atom   10 type  2   force =    -0.00311895   -0.00180073    0.00000000
     atom   11 type  2   force =     0.00311895   -0.00180073    0.00000000
     atom   12 type  2   force =     0.00000000   -0.00360146    0.00000000

     Total force =     0.023880     Total SCF correction =     0.000000

     entering subroutine stress ...

          total   stress  (Ry/bohr**3)                   (kbar)     P=  202.03
   0.00140741   0.00000000   0.00000000        207.04      0.00      0.00
   0.00000000   0.00140741   0.00000000          0.00    207.04      0.00
   0.00000000   0.00000000   0.00130532          0.00      0.00    192.02

     Writing output data file Prototype-La-hP12-MgZn2.save

     General routines

     Parallel routines

   This run was terminated on:  17:51:30  22Mar2018

   JOB DONE.