     Program PWSCF v.5.0.2 starts on 22Mar2018 at 17:30:51

     Current dimensions of program PWSCF are:
     Max number of different atomic species (ntypx) = 10
     Max number of k-points (npk) =  40000
     Max angular momentum in pseudopotentials (lmaxx) =  3
     Waiting for input...
     Reading input from standard input

     Subspace diagonalization in iterative solution of the eigenvalue problem:
     a serial algorithm will be used

     bravais-lattice index     =            0
     lattice parameter (alat)  =      12.0168  a.u.
     unit-cell volume          =    1187.3413 (a.u.)^3
     number of atoms/cell      =            8
     number of atomic types    =            2
     number of electrons       =       138.00
     number of Kohn-Sham states=           83
     kinetic-energy cutoff     =      40.0000  Ry
     charge density cutoff     =     160.0000  Ry
     convergence threshold     =      1.0E-04
     mixing beta               =       0.7000
     number of iterations used =            8  plain     mixing
     Exchange-correlation      = SLA-PZ-NOGX-NOGC ( 1 1 0 0 0)
     EXX-fraction              =        0.00
     nstep                     =           50

     celldm(1)=  12.016801  celldm(2)=   0.000000  celldm(3)=   0.000000
     celldm(4)=   0.000000  celldm(5)=   0.000000  celldm(6)=   0.000000

     crystal axes: (cart. coord. in units of alat)
               a(1) = (   1.000000   0.000000   0.000000 )
               a(2) = (  -0.500000   0.866025   0.000000 )
               a(3) = (   0.000000   0.000000   0.790093 )

     reciprocal axes: (cart. coord. in units 2 pi/alat)
               b(1) = (  1.000000  0.577350  0.000000 )
               b(2) = (  0.000000  1.154701  0.000000 )
               b(3) = (  0.000000  0.000000  1.265674 )

     PseudoPot. # 1 for Tb read from file:
     /home/cwx6513/pp.La/Tb.UPF
     MD5 check sum: 3d6088a3f0cf7fd2e110c43f7f8e95c2
     Pseudo is Norm-conserving, Zval = 19.0
     Generated in analytical, separable form
     Using radial grid of 1263 points,  6 beta functions with:
                l(1) =   0
                l(2) =   0
                l(3) =   1
                l(4) =   1
                l(5) =   2
                l(6) =   3

     PseudoPot. # 2 for Ce read from file:
     /home/cwx6513/pp.La/Ce.UPF
     MD5 check sum: 44451aa79a44a00cf2bc029dc19922f6
     Pseudo is Norm-conserving, Zval = 12.0
     Generated in analytical, separable form
     Using radial grid of 1255 points,  6 beta functions with:
                l(1) =   0
                l(2) =   0
                l(3) =   1
                l(4) =   1
                l(5) =   2
                l(6) =   3

     atomic species   valence    mass     pseudopotential
        Mg            19.00    24.30500     Tb( 1.00)
        Cd            12.00   112.41100     Ce( 1.00)

     24 Sym. Ops., with inversion, found (12 have fractional translation)

   Cartesian axes

     site n.     atom                  positions (alat units)
         1           Mg  tau(   1) = (   0.2478935   0.7204716   0.1975233  )
         2           Mg  tau(   2) = (   0.7478935   0.1455538   0.5925699  )
         3           Mg  tau(   3) = (   0.2521065   0.1455538   0.5925699  )
         4           Mg  tau(   4) = (  -0.2478935   0.7204716   0.1975233  )
         5           Mg  tau(   5) = (   0.0000000   0.2911075   0.1975233  )
         6           Mg  tau(   6) = (   0.5000000   0.5749179   0.5925699  )
         7           Cd  tau(   7) = (   0.5000005   0.2886748   0.1975233  )
         8           Cd  tau(   8) = (  -0.0000005   0.5773506   0.5925699  )

     number of k points=    64  gaussian smearing, width (Ry)=  0.1000
                       cart. coord. in units 2pi/alat
        k(    1) = (   0.0000000   0.0000000   0.0000000), wk =   0.0095238
        k(    2) = (   0.0000000   0.0000000   0.1808105), wk =   0.0190476
        k(    3) = (   0.0000000   0.0000000   0.3616210), wk =   0.0190476
        k(    4) = (   0.0000000   0.0000000   0.5424315), wk =   0.0190476
        k(    5) = (   0.0000000   0.1924501   0.0000000), wk =   0.0190476
        k(    6) = (   0.0000000   0.1924501   0.1808105), wk =   0.0380952
        k(    7) = (   0.0000000   0.1924501   0.3616210), wk =   0.0380952
        k(    8) = (   0.0000000   0.1924501   0.5424315), wk =   0.0380952
        k(    9) = (   0.0000000   0.3849002   0.0000000), wk =   0.0190476
        k(   10) = (   0.0000000   0.3849002   0.1808105), wk =   0.0380952
        k(   11) = (   0.0000000   0.3849002   0.3616210), wk =   0.0380952
        k(   12) = (   0.0000000   0.3849002   0.5424315), wk =   0.0380952
        k(   13) = (   0.0000000  -0.5773503   0.0000000), wk =   0.0095238
        k(   14) = (   0.0000000  -0.5773503   0.1808105), wk =   0.0190476
        k(   15) = (   0.0000000  -0.5773503   0.3616210), wk =   0.0190476
        k(   16) = (   0.0000000  -0.5773503   0.5424315), wk =   0.0190476
        k(   17) = (   0.2000000   0.1154701   0.0000000), wk =   0.0190476
        k(   18) = (   0.2000000   0.1154701   0.1808105), wk =   0.0380952
        k(   19) = (   0.2000000   0.1154701   0.3616210), wk =   0.0380952
        k(   20) = (   0.2000000   0.1154701   0.5424315), wk =   0.0380952
        k(   21) = (   0.2000000   0.3079201   0.0000000), wk =   0.0190476
        k(   22) = (   0.2000000   0.3079201   0.1808105), wk =   0.0380952
        k(   23) = (   0.2000000   0.3079201   0.3616210), wk =   0.0380952
        k(   24) = (   0.2000000   0.3079201   0.5424315), wk =   0.0380952
        k(   25) = (   0.2000000   0.5003702   0.0000000), wk =   0.0190476
        k(   26) = (   0.2000000   0.5003702   0.1808105), wk =   0.0380952
        k(   27) = (   0.2000000   0.5003702   0.3616210), wk =   0.0380952
        k(   28) = (   0.2000000   0.5003702   0.5424315), wk =   0.0380952
        k(   29) = (   0.2000000  -0.4618802   0.0000000), wk =   0.0190476
        k(   30) = (   0.2000000  -0.4618802   0.1808105), wk =   0.0380952
        k(   31) = (   0.2000000  -0.4618802   0.3616210), wk =   0.0380952
        k(   32) = (   0.2000000  -0.4618802   0.5424315), wk =   0.0380952
        k(   33) = (   0.2000000  -0.2694301   0.0000000), wk =   0.0190476
        k(   34) = (   0.2000000  -0.2694301   0.1808105), wk =   0.0380952
        k(   35) = (   0.2000000  -0.2694301   0.3616210), wk =   0.0380952
        k(   36) = (   0.2000000  -0.2694301   0.5424315), wk =   0.0380952
        k(   37) = (   0.2000000  -0.0769800   0.0000000), wk =   0.0190476
        k(   38) = (   0.2000000  -0.0769800   0.1808105), wk =   0.0380952
        k(   39) = (   0.2000000  -0.0769800   0.3616210), wk =   0.0380952
        k(   40) = (   0.2000000  -0.0769800   0.5424315), wk =   0.0380952
        k(   41) = (   0.4000000   0.2309401   0.0000000), wk =   0.0190476
        k(   42) = (   0.4000000   0.2309401   0.1808105), wk =   0.0380952
        k(   43) = (   0.4000000   0.2309401   0.3616210), wk =   0.0380952
        k(   44) = (   0.4000000   0.2309401   0.5424315), wk =   0.0380952
        k(   45) = (   0.4000000   0.4233902   0.0000000), wk =   0.0190476
        k(   46) = (   0.4000000   0.4233902   0.1808105), wk =   0.0380952
        k(   47) = (   0.4000000   0.4233902   0.3616210), wk =   0.0380952
        k(   48) = (   0.4000000   0.4233902   0.5424315), wk =   0.0380952
        k(   49) = (   0.4000000   0.6158403   0.0000000), wk =   0.0190476
        k(   50) = (   0.4000000   0.6158403   0.1808105), wk =   0.0380952
        k(   51) = (   0.4000000   0.6158403   0.3616210), wk =   0.0380952
        k(   52) = (   0.4000000   0.6158403   0.5424315), wk =   0.0380952
        k(   53) = (   0.4000000  -0.3464102   0.0000000), wk =   0.0190476
        k(   54) = (   0.4000000  -0.3464102   0.1808105), wk =   0.0380952
        k(   55) = (   0.4000000  -0.3464102   0.3616210), wk =   0.0380952
        k(   56) = (   0.4000000  -0.3464102   0.5424315), wk =   0.0380952
        k(   57) = (   0.4000000  -0.1539601   0.0000000), wk =   0.0190476
        k(   58) = (   0.4000000  -0.1539601   0.1808105), wk =   0.0380952
        k(   59) = (   0.4000000  -0.1539601   0.3616210), wk =   0.0380952
        k(   60) = (   0.4000000  -0.1539601   0.5424315), wk =   0.0380952
        k(   61) = (   0.4000000   0.0384900   0.0000000), wk =   0.0190476
        k(   62) = (   0.4000000   0.0384900   0.1808105), wk =   0.0380952
        k(   63) = (   0.4000000   0.0384900   0.3616210), wk =   0.0380952
        k(   64) = (   0.4000000   0.0384900   0.5424315), wk =   0.0380952

     Largest allocated arrays     est. size (Mb)     dimensions
     Largest temporary arrays     est. size (Mb)     dimensions

     Initial potential from superposition of free atoms

     Starting from uniform charge
     Starting wfc are    0 randomized atomic wfcs

     Self-consistent Calculation

     iteration #  1     ecut=    40.00 Ry     beta=0.70
     CG style diagonalization
     ethr =  1.00E-02,  avg # of iterations = 16.7

     total energy              =   -1152.27385954 Ry
     Harris-Foulkes estimate   =   -1949.31647590 Ry
     estimated scf accuracy    <     993.71381285 Ry

     iteration #  2     ecut=    40.00 Ry     beta=0.70
     CG style diagonalization
     c_bands:  5 eigenvalues not converged
     c_bands:  3 eigenvalues not converged
     c_bands:  4 eigenvalues not converged
     c_bands:  2 eigenvalues not converged
     c_bands:  3 eigenvalues not converged
     c_bands:  5 eigenvalues not converged
     c_bands:  1 eigenvalues not converged
     c_bands:  1 eigenvalues not converged
     c_bands:  3 eigenvalues not converged
     c_bands:  1 eigenvalues not converged
     c_bands:  2 eigenvalues not converged
     c_bands:  1 eigenvalues not converged
     c_bands:  2 eigenvalues not converged
     c_bands:  2 eigenvalues not converged
     c_bands:  1 eigenvalues not converged
     c_bands:  1 eigenvalues not converged
     c_bands:  4 eigenvalues not converged
     c_bands:  1 eigenvalues not converged
     c_bands:  2 eigenvalues not converged
     c_bands:  2 eigenvalues not converged
     c_bands:  3 eigenvalues not converged
     c_bands:  2 eigenvalues not converged
     c_bands:  1 eigenvalues not converged
     c_bands:  1 eigenvalues not converged
     c_bands:  1 eigenvalues not converged
     c_bands:  1 eigenvalues not converged
     c_bands:  3 eigenvalues not converged
     c_bands:  2 eigenvalues not converged
     c_bands:  1 eigenvalues not converged
     c_bands:  3 eigenvalues not converged
     c_bands:  3 eigenvalues not converged
     c_bands:  1 eigenvalues not converged
     c_bands:  2 eigenvalues not converged
     c_bands:  2 eigenvalues not converged
     c_bands:  2 eigenvalues not converged
     c_bands:  2 eigenvalues not converged
     c_bands:  1 eigenvalues not converged
     c_bands:  2 eigenvalues not converged
     c_bands:  1 eigenvalues not converged
     c_bands:  1 eigenvalues not converged
     c_bands:  2 eigenvalues not converged
     c_bands:  2 eigenvalues not converged
     c_bands:  1 eigenvalues not converged
[...]
        k(   12) = (   0.0000000   0.3898765   0.5395177), wk =   0.0380952
        k(   13) = (   0.0000000  -0.5848147   0.0000000), wk =   0.0095238
        k(   14) = (   0.0000000  -0.5848147   0.1798392), wk =   0.0190476
        k(   15) = (   0.0000000  -0.5848147   0.3596785), wk =   0.0190476
        k(   16) = (   0.0000000  -0.5848147   0.5395177), wk =   0.0190476
        k(   17) = (   0.2025858   0.1169629   0.0000000), wk =   0.0190476
        k(   18) = (   0.2025858   0.1169629   0.1798392), wk =   0.0380952
        k(   19) = (   0.2025858   0.1169629   0.3596785), wk =   0.0380952
        k(   20) = (   0.2025858   0.1169629   0.5395177), wk =   0.0380952
        k(   21) = (   0.2025858   0.3119012   0.0000000), wk =   0.0190476
        k(   22) = (   0.2025858   0.3119012   0.1798392), wk =   0.0380952
        k(   23) = (   0.2025858   0.3119012   0.3596785), wk =   0.0380952
        k(   24) = (   0.2025858   0.3119012   0.5395177), wk =   0.0380952
        k(   25) = (   0.2025858   0.5068394   0.0000000), wk =   0.0190476
        k(   26) = (   0.2025858   0.5068394   0.1798392), wk =   0.0380952
        k(   27) = (   0.2025858   0.5068394   0.3596785), wk =   0.0380952
        k(   28) = (   0.2025858   0.5068394   0.5395177), wk =   0.0380952
        k(   29) = (   0.2025858  -0.4678518   0.0000000), wk =   0.0190476
        k(   30) = (   0.2025858  -0.4678518   0.1798392), wk =   0.0380952
        k(   31) = (   0.2025858  -0.4678518   0.3596785), wk =   0.0380952
        k(   32) = (   0.2025858  -0.4678518   0.5395177), wk =   0.0380952
        k(   33) = (   0.2025858  -0.2729135   0.0000000), wk =   0.0190476
        k(   34) = (   0.2025858  -0.2729135   0.1798392), wk =   0.0380952
        k(   35) = (   0.2025858  -0.2729135   0.3596785), wk =   0.0380952
        k(   36) = (   0.2025858  -0.2729135   0.5395177), wk =   0.0380952
        k(   37) = (   0.2025858  -0.0779753   0.0000000), wk =   0.0190476
        k(   38) = (   0.2025858  -0.0779753   0.1798392), wk =   0.0380952
        k(   39) = (   0.2025858  -0.0779753   0.3596785), wk =   0.0380952
        k(   40) = (   0.2025858  -0.0779753   0.5395177), wk =   0.0380952
        k(   41) = (   0.4051715   0.2339259   0.0000000), wk =   0.0190476
        k(   42) = (   0.4051715   0.2339259   0.1798392), wk =   0.0380952
        k(   43) = (   0.4051715   0.2339259   0.3596785), wk =   0.0380952
        k(   44) = (   0.4051715   0.2339259   0.5395177), wk =   0.0380952
        k(   45) = (   0.4051715   0.4288641   0.0000000), wk =   0.0190476
        k(   46) = (   0.4051715   0.4288641   0.1798392), wk =   0.0380952
        k(   47) = (   0.4051715   0.4288641   0.3596785), wk =   0.0380952
        k(   48) = (   0.4051715   0.4288641   0.5395177), wk =   0.0380952
        k(   49) = (   0.4051715   0.6238024   0.0000000), wk =   0.0190476
        k(   50) = (   0.4051715   0.6238024   0.1798392), wk =   0.0380952
        k(   51) = (   0.4051715   0.6238024   0.3596785), wk =   0.0380952
        k(   52) = (   0.4051715   0.6238024   0.5395177), wk =   0.0380952
        k(   53) = (   0.4051715  -0.3508888   0.0000000), wk =   0.0190476
        k(   54) = (   0.4051715  -0.3508888   0.1798392), wk =   0.0380952
        k(   55) = (   0.4051715  -0.3508888   0.3596785), wk =   0.0380952
        k(   56) = (   0.4051715  -0.3508888   0.5395177), wk =   0.0380952
        k(   57) = (   0.4051715  -0.1559506   0.0000000), wk =   0.0190476
        k(   58) = (   0.4051715  -0.1559506   0.1798392), wk =   0.0380952
        k(   59) = (   0.4051715  -0.1559506   0.3596785), wk =   0.0380952
        k(   60) = (   0.4051715  -0.1559506   0.5395177), wk =   0.0380952
        k(   61) = (   0.4051715   0.0389876   0.0000000), wk =   0.0190476
        k(   62) = (   0.4051715   0.0389876   0.1798392), wk =   0.0380952
        k(   63) = (   0.4051715   0.0389876   0.3596785), wk =   0.0380952
        k(   64) = (   0.4051715   0.0389876   0.5395177), wk =   0.0380952

[...]

     The maximum number of steps has been reached.

     End of BFGS Geometry Optimization
Begin final coordinates
     new unit-cell volume =   1163.47462 a.u.^3 (   172.40915 Ang^3 )

CELL_PARAMETERS (alat= 12.01680127)
   0.987236170   0.000000000   0.000000000
  -0.493618085   0.854971603   0.000000000
   0.000000000   0.000000000   0.794360294

ATOMIC_POSITIONS (crystal)
Mg       0.667585499   0.833792750   0.250000000
Mg       0.833792750   0.166207250   0.750000000
Mg       0.332414501   0.166207250   0.750000000
Mg       0.166207250   0.833792750   0.250000000
Mg       0.166207250   0.332414501   0.250000000
Mg       0.833792750   0.667585499   0.750000000
Cd       0.666667000   0.333333000   0.250000000
Cd       0.333333000   0.666667000   0.750000000
End final coordinates

     A final scf calculation at the relaxed structure.
     The G-vectors are recalculated for the final unit cell
     Results may differ from those at the preceding step.

     bravais-lattice index     =            0
     lattice parameter (alat)  =      12.0168  a.u.
     unit-cell volume          =    1163.4746 (a.u.)^3
     number of atoms/cell      =            8
     number of atomic types    =            2
     number of electrons       =       138.00
     number of Kohn-Sham states=           83
     kinetic-energy cutoff     =      40.0000  Ry
     charge density cutoff     =     160.0000  Ry
     convergence threshold     =      2.1E-05
     mixing beta               =       0.7000
     number of iterations used =            8  plain     mixing
     Exchange-correlation      = SLA-PZ-NOGX-NOGC ( 1 1 0 0 0)
     EXX-fraction              =        0.00

     celldm(1)=  12.016801  celldm(2)=   0.000000  celldm(3)=   0.000000
     celldm(4)=   0.000000  celldm(5)=   0.000000  celldm(6)=   0.000000

     crystal axes: (cart. coord. in units of alat)
               a(1) = (   0.987236   0.000000   0.000000 )
               a(2) = (  -0.493618   0.854972   0.000000 )
               a(3) = (   0.000000   0.000000   0.794360 )

     reciprocal axes: (cart. coord. in units 2 pi/alat)
               b(1) = (  1.012929  0.584815  0.000000 )
               b(2) = (  0.000000  1.169629  0.000000 )
               b(3) = (  0.000000  0.000000  1.258875 )

     PseudoPot. # 1 for Tb read from file:
     /home/cwx6513/pp.La/Tb.UPF
     MD5 check sum: 3d6088a3f0cf7fd2e110c43f7f8e95c2
     Pseudo is Norm-conserving, Zval = 19.0
     Generated in analytical, separable form
     Using radial grid of 1263 points,  6 beta functions with:
                l(1) =   0
                l(2) =   0
                l(3) =   1
                l(4) =   1
                l(5) =   2
                l(6) =   3

     PseudoPot. # 2 for Ce read from file:
     /home/cwx6513/pp.La/Ce.UPF
     MD5 check sum: 44451aa79a44a00cf2bc029dc19922f6
     Pseudo is Norm-conserving, Zval = 12.0
     Generated in analytical, separable form
     Using radial grid of 1255 points,  6 beta functions with:
                l(1) =   0
                l(2) =   0
                l(3) =   1
                l(4) =   1
                l(5) =   2
                l(6) =   3

     atomic species   valence    mass     pseudopotential
        Mg            19.00    24.30500     Tb( 1.00)
        Cd            12.00   112.41100     Ce( 1.00)

     24 Sym. Ops., with inversion, found (12 have fractional translation)

   Cartesian axes

     site n.     atom                  positions (alat units)
         1           Mg  tau(   1) = (   0.2474894   0.7128691   0.1985901  )
         2           Mg  tau(   2) = (   0.7411075   0.1421025   0.5957702  )
         3           Mg  tau(   3) = (   0.2461287   0.1421025   0.5957702  )
         4           Mg  tau(   4) = (  -0.2474894   0.7128691   0.1985901  )
         5           Mg  tau(   5) = (   0.0000000   0.2842050   0.1985901  )
         6           Mg  tau(   6) = (   0.4936181   0.5707666   0.5957702  )
         7           Cd  tau(   7) = (   0.4936186   0.2849902   0.1985901  )
         8           Cd  tau(   8) = (  -0.0000005   0.5699814   0.5957702  )

     number of k points=    64  gaussian smearing, width (Ry)=  0.1000
                       cart. coord. in units 2pi/alat
        k(    1) = (   0.0000000   0.0000000   0.0000000), wk =   0.0095238
        k(    2) = (   0.0000000   0.0000000   0.1798392), wk =   0.0190476
        k(    3) = (   0.0000000   0.0000000   0.3596785), wk =   0.0190476
        k(    4) = (   0.0000000   0.0000000   0.5395177), wk =   0.0190476
        k(    5) = (   0.0000000   0.1949382   0.0000000), wk =   0.0190476
        k(    6) = (   0.0000000   0.1949382   0.1798392), wk =   0.0380952
        k(    7) = (   0.0000000   0.1949382   0.3596785), wk =   0.0380952
        k(    8) = (   0.0000000   0.1949382   0.5395177), wk =   0.0380952
        k(    9) = (   0.0000000   0.3898765   0.0000000), wk =   0.0190476
        k(   10) = (   0.0000000   0.3898765   0.1798392), wk =   0.0380952
        k(   11) = (   0.0000000   0.3898765   0.3596785), wk =   0.0380952
        k(   12) = (   0.0000000   0.3898765   0.5395177), wk =   0.0380952
        k(   13) = (   0.0000000  -0.5848147   0.0000000), wk =   0.0095238
        k(   14) = (   0.0000000  -0.5848147   0.1798392), wk =   0.0190476
        k(   15) = (   0.0000000  -0.5848147   0.3596785), wk =   0.0190476
        k(   16) = (   0.0000000  -0.5848147   0.5395177), wk =   0.0190476
        k(   17) = (   0.2025858   0.1169629   0.0000000), wk =   0.0190476
        k(   18) = (   0.2025858   0.1169629   0.1798392), wk =   0.0380952
        k(   19) = (   0.2025858   0.1169629   0.3596785), wk =   0.0380952
        k(   20) = (   0.2025858   0.1169629   0.5395177), wk =   0.0380952
        k(   21) = (   0.2025858   0.3119012   0.0000000), wk =   0.0190476
        k(   22) = (   0.2025858   0.3119012   0.1798392), wk =   0.0380952
        k(   23) = (   0.2025858   0.3119012   0.3596785), wk =   0.0380952
        k(   24) = (   0.2025858   0.3119012   0.5395177), wk =   0.0380952
        k(   25) = (   0.2025858   0.5068394   0.0000000), wk =   0.0190476
        k(   26) = (   0.2025858   0.5068394   0.1798392), wk =   0.0380952
        k(   27) = (   0.2025858   0.5068394   0.3596785), wk =   0.0380952
        k(   28) = (   0.2025858   0.5068394   0.5395177), wk =   0.0380952
        k(   29) = (   0.2025858  -0.4678518   0.0000000), wk =   0.0190476
        k(   30) = (   0.2025858  -0.4678518   0.1798392), wk =   0.0380952
        k(   31) = (   0.2025858  -0.4678518   0.3596785), wk =   0.0380952
        k(   32) = (   0.2025858  -0.4678518   0.5395177), wk =   0.0380952
        k(   33) = (   0.2025858  -0.2729135   0.0000000), wk =   0.0190476
        k(   34) = (   0.2025858  -0.2729135   0.1798392), wk =   0.0380952
        k(   35) = (   0.2025858  -0.2729135   0.3596785), wk =   0.0380952
        k(   36) = (   0.2025858  -0.2729135   0.5395177), wk =   0.0380952
        k(   37) = (   0.2025858  -0.0779753   0.0000000), wk =   0.0190476
        k(   38) = (   0.2025858  -0.0779753   0.1798392), wk =   0.0380952
        k(   39) = (   0.2025858  -0.0779753   0.3596785), wk =   0.0380952
        k(   40) = (   0.2025858  -0.0779753   0.5395177), wk =   0.0380952
        k(   41) = (   0.4051715   0.2339259   0.0000000), wk =   0.0190476
        k(   42) = (   0.4051715   0.2339259   0.1798392), wk =   0.0380952
        k(   43) = (   0.4051715   0.2339259   0.3596785), wk =   0.0380952
        k(   44) = (   0.4051715   0.2339259   0.5395177), wk =   0.0380952
        k(   45) = (   0.4051715   0.4288641   0.0000000), wk =   0.0190476
        k(   46) = (   0.4051715   0.4288641   0.1798392), wk =   0.0380952
        k(   47) = (   0.4051715   0.4288641   0.3596785), wk =   0.0380952
        k(   48) = (   0.4051715   0.4288641   0.5395177), wk =   0.0380952
        k(   49) = (   0.4051715   0.6238024   0.0000000), wk =   0.0190476
        k(   50) = (   0.4051715   0.6238024   0.1798392), wk =   0.0380952
        k(   51) = (   0.4051715   0.6238024   0.3596785), wk =   0.0380952
        k(   52) = (   0.4051715   0.6238024   0.5395177), wk =   0.0380952
        k(   53) = (   0.4051715  -0.3508888   0.0000000), wk =   0.0190476
        k(   54) = (   0.4051715  -0.3508888   0.1798392), wk =   0.0380952
        k(   55) = (   0.4051715  -0.3508888   0.3596785), wk =   0.0380952
        k(   56) = (   0.4051715  -0.3508888   0.5395177), wk =   0.0380952
        k(   57) = (   0.4051715  -0.1559506   0.0000000), wk =   0.0190476
        k(   58) = (   0.4051715  -0.1559506   0.1798392), wk =   0.0380952
        k(   59) = (   0.4051715  -0.1559506   0.3596785), wk =   0.0380952
        k(   60) = (   0.4051715  -0.1559506   0.5395177), wk =   0.0380952
        k(   61) = (   0.4051715   0.0389876   0.0000000), wk =   0.0190476
        k(   62) = (   0.4051715   0.0389876   0.1798392), wk =   0.0380952
        k(   63) = (   0.4051715   0.0389876   0.3596785), wk =   0.0380952
        k(   64) = (   0.4051715   0.0389876   0.5395177), wk =   0.0380952

     Largest allocated arrays     est. size (Mb)     dimensions
     Largest temporary arrays     est. size (Mb)     dimensions

     Initial potential from superposition of free atoms

     Starting from uniform charge
     Starting wfc are    0 randomized atomic wfcs

     Writing output data file Prototype-La-hP8-Mg3Cd.save

     Self-consistent Calculation

[...]

     negative rho (up, down):  0.813E-07 0.000E+00

[...]

     iteration # 12     ecut=    40.00 Ry     beta=0.70
     CG style diagonalization
     c_bands:  1 eigenvalues not converged
     ethr =  7.35E-07,  avg # of iterations =  3.9

[...]

     total energy              =   -1531.19930331 Ry
     Harris-Foulkes estimate   =   -1531.19934110 Ry
     estimated scf accuracy    <       0.00007263 Ry

     iteration # 14     ecut=    40.00 Ry     beta=0.70
     CG style diagonalization
     ethr =  5.26E-08,  avg # of iterations =  3.8

     End of self-consistent calculation

[...]

          k = 0.4052 0.0390 0.5395 (  4960 PWs)   bands (ev):

   -53.0893 -53.0825 -53.0781 -53.0751 -53.0740 -53.0725 -21.5754 -21.5621
   -21.5599 -21.5505 -21.5209 -21.5123 -21.4132 -21.4114 -21.3875 -21.3697
   -21.3463 -21.3324 -21.3157 -21.3091 -21.3089 -21.2885 -21.2528 -21.2474
   -16.0819 -16.0807   1.8425   1.8504   1.9135   1.9307   1.9448   1.9507
    14.5470  14.6348  14.7322  14.8378  14.8882  14.9996  15.0625  15.2224
    15.2443  15.3210  15.4899  15.6862  15.9010  15.9484  16.1259  16.2398
    16.2651  16.4959  16.6842  16.8685  16.9256  16.9672  17.1166  17.2479
    17.2717  17.3242  17.7624  17.8222  18.0273  18.3374  18.6041  18.6441
    19.6309  20.4222  20.6742  21.2045  22.2873  22.5110  22.6141  22.8297
    23.8736  24.1459  24.3087  24.5560  25.1342  25.3708  26.7250  26.9003
    28.1477  28.5323  29.4446

     the Fermi energy is    22.2531 ev

!    total energy              =   -1531.19931756 Ry
     Harris-Foulkes estimate   =   -1531.19932785 Ry
     estimated scf accuracy    <       0.00001135 Ry

     The total energy is the sum of the following terms:

     one-electron contribution =    -289.86227732 Ry
     hartree contribution      =     237.60778732 Ry
     xc contribution           =    -152.14317623 Ry
     ewald contribution        =   -1326.47219533 Ry
     smearing contrib. (-TS)   =      -0.32945601 Ry

     convergence has been achieved in  14 iterations

     Forces acting on atoms (Ry/au):

     atom    1 type  1   force =    -0.00851942   -0.00491869    0.00000000
     atom    2 type  1   force =    -0.00851942    0.00491869    0.00000000
     atom    3 type  1   force =     0.00851942    0.00491869    0.00000000
     atom    4 type  1   force =     0.00851942   -0.00491869    0.00000000
     atom    5 type  1   force =     0.00000000    0.00983738    0.00000000
     atom    6 type  1   force =     0.00000000   -0.00983738    0.00000000
     atom    7 type  2   force =     0.00000000    0.00000000    0.00000000
     atom    8 type  2   force =     0.00000000    0.00000000    0.00000000

     Total force =     0.024097     Total SCF correction =     0.000000

     entering subroutine stress ...

          total   stress  (Ry/bohr**3)                   (kbar)     P= -247.56
  -0.00171870   0.00000000   0.00000000       -252.83      0.00      0.00
   0.00000000  -0.00171870   0.00000000          0.00   -252.83      0.00
   0.00000000   0.00000000  -0.00161123          0.00      0.00   -237.02

     Writing output data file Prototype-La-hP8-Mg3Cd.save

     General routines

     Parallel routines

   This run was terminated on:  18:20:58  22Mar2018

   JOB DONE.