     Program PWSCF v.5.0.2 starts on 22Mar2018 at 17:30:53

     Current dimensions of program PWSCF are:
     Max number of different atomic species (ntypx) = 10
     Max number of k-points (npk) =  40000
     Max angular momentum in pseudopotentials (lmaxx) =  3
     Waiting for input...
     Reading input from standard input

     Subspace diagonalization in iterative solution of the eigenvalue problem:
     a serial algorithm will be used

     bravais-lattice index     =            0
     lattice parameter (alat)  =       8.8008  a.u.
     unit-cell volume          =    1116.9454 (a.u.)^3
     number of atoms/cell      =           16
     number of atomic types    =            2
     number of electrons       =       276.00
     number of Kohn-Sham states=          166
     kinetic-energy cutoff     =      40.0000  Ry
     charge density cutoff     =     160.0000  Ry
     convergence threshold     =      1.0E-04
     mixing beta               =       0.7000
     number of iterations used =            8  plain     mixing
     Exchange-correlation      = SLA-PZ-NOGX-NOGC ( 1 1 0 0 0)
     EXX-fraction              =        0.00
     nstep                     =           50

     celldm(1)=   8.800765  celldm(2)=   0.000000  celldm(3)=   0.000000
     celldm(4)=   0.000000  celldm(5)=   0.000000  celldm(6)=   0.000000

     crystal axes: (cart. coord. in units of alat)
               a(1) = (   1.000000   0.000000   0.000000 )
               a(2) = (   0.000000   1.083771   0.000000 )
               a(3) = (   0.000000   0.000000   1.511935 )

     reciprocal axes: (cart. coord. in units 2 pi/alat)
               b(1) = (  1.000000  0.000000  0.000000 )
               b(2) = (  0.000000  0.922704  0.000000 )
               b(3) = (  0.000000  0.000000  0.661404 )

     PseudoPot. # 1 for Tb read from file:
     /home/jld5415/pp.La/Tb.UPF
     MD5 check sum: 3d6088a3f0cf7fd2e110c43f7f8e95c2
     Pseudo is Norm-conserving, Zval = 19.0
     Generated in analytical, separable form
     Using radial grid of 1263 points,  6 beta functions with:
                l(1) =   0
                l(2) =   0
                l(3) =   1
                l(4) =   1
                l(5) =   2
                l(6) =   3

     PseudoPot. # 2 for Ce read from file:
     /home/jld5415/pp.La/Ce.UPF
     MD5 check sum: 44451aa79a44a00cf2bc029dc19922f6
     Pseudo is Norm-conserving, Zval = 12.0
     Generated in analytical, separable form
     Using radial grid of 1255 points,  6 beta functions with:
                l(1) =   0
                l(2) =   0
                l(3) =   1
                l(4) =   1
                l(5) =   2
                l(6) =   3

     atomic species   valence    mass     pseudopotential
        Fe            19.00    55.84500     Tb( 1.00)
        C             12.00    12.01070     Ce( 1.00)

      8 Sym. Ops., with inversion, found ( 6 have fractional translation)

   Cartesian axes

     site n.     atom                  positions (alat units)
         1           Fe  tau(   1) = (   0.3472940   0.1827628   1.3947267  )
         2           Fe  tau(   2) = (   0.1527060   0.7246484   0.8731757  )
         3           Fe  tau(   3) = (   0.8472940   0.3591227   0.6387592  )
         4           Fe  tau(   4) = (   0.3396640   0.4879235   0.3779837  )
         5           Fe  tau(   5) = (   0.1527060   0.7246484   1.3947267  )
         6           Fe  tau(   6) = (   0.3472940   0.1827628   0.8731757  )
         7           Fe  tau(   7) = (   0.1603360   1.0298091   0.3779837  )
         8           Fe  tau(   8) = (   0.6527060   0.9010083   0.6387592  )
         9           Fe  tau(   9) = (   0.8472940   0.3591227   0.1172082  )
        10           Fe  tau(  10) = (   0.6603360   0.5958476   1.1339512  )
        11           Fe  tau(  11) = (   0.6527060   0.9010083   0.1172082  )
        12           Fe  tau(  12) = (   0.8396640   0.0539620   1.1339512  )
        13           C   tau(  13) = (   0.0000000   0.0000000   0.0000000  )
        14           C   tau(  14) = (   0.5000000   0.5418856   0.0000000  )
        15           C   tau(  15) = (   0.5000000   0.5418856   0.7559674  )
        16           C   tau(  16) = (   0.0000000   0.0000000   0.7559674  )

     number of k points=    12  gaussian smearing, width (Ry)=  0.1000
                       cart. coord. in units 2pi/alat
        k(    1) = (   0.0000000   0.0000000   0.0000000), wk =   0.0833333
        k(    2) = (   0.0000000   0.0000000   0.1653510), wk =   0.1666667
        k(    3) = (   0.0000000   0.0000000  -0.3307021), wk =   0.0833333
        k(    4) = (   0.0000000   0.3075680   0.0000000), wk =   0.1666667
        k(    5) = (   0.0000000   0.3075680   0.1653510), wk =   0.3333333
        k(    6) = (   0.0000000   0.3075680  -0.3307021), wk =   0.1666667
        k(    7) = (  -0.5000000   0.0000000   0.0000000), wk =   0.0833333
        k(    8) = (  -0.5000000   0.0000000   0.1653510), wk =   0.1666667
        k(    9) = (  -0.5000000   0.0000000  -0.3307021), wk =   0.0833333
        k(   10) = (  -0.5000000   0.3075680   0.0000000), wk =   0.1666667
        k(   11) = (  -0.5000000   0.3075680   0.1653510), wk =   0.3333333
        k(   12) = (  -0.5000000   0.3075680  -0.3307021), wk =   0.1666667

     Largest allocated arrays     est. size (Mb)     dimensions
     Largest temporary arrays     est. size (Mb)     dimensions

     Initial potential from superposition of free atoms

     Starting from uniform charge
     Starting wfc are    0 randomized atomic wfcs

     Self-consistent Calculation

     iteration #  1     ecut=    40.00 Ry     beta=0.70
     CG style diagonalization
     ethr =  1.00E-02,  avg # of iterations = 19.5

     total energy              =   -2832.08972847 Ry
     Harris-Foulkes estimate   =   -3440.73381473 Ry
     estimated scf accuracy    <     784.22714908 Ry

     iteration #  2     ecut=    40.00 Ry     beta=0.70
     CG style diagonalization
     c_bands:  1 eigenvalues not converged
     c_bands:  1 eigenvalues not converged
     ethr =  1.00E-02,  avg # of iterations =  9.1

[...]

     End of self-consistent calculation

          k = 0.0000 0.0000 0.0000 (  4785 PWs)   bands (ev):

   -30.8680 -30.5987 -30.3967 -30.3827 -30.3085 -30.2268 -30.2218 -30.1381
   -30.0092 -29.8904 -29.8884 -29.8832  -6.0424  -5.2203  -3.2394  -2.6603
    -2.4156  -2.4050  -2.3744  -1.8038  -1.5908  -1.0296  -0.6490  -0.5272
    -0.3629   0.0356   0.0887   0.2801   0.3923   0.4265   0.5102   0.9910
     1.0615   1.0950   1.2143   1.4696   1.6849   1.7215   1.8525   1.9619
     1.9722   2.0203   2.2274   2.2334   2.5580   2.5590   2.6213   2.6985
     8.7020  10.4875  11.8976  13.8610  21.2968  21.4072  21.5383  22.0403
    22.4491  22.6233  25.1608  25.4359  26.0484  26.9247  27.0805  27.4350
    31.1904  31.9324  32.2384  32.4358  32.7556  32.9008  32.9122  33.2004
    33.5716  34.2549  34.3587  34.4367  34.6010  34.6523  34.9713  35.1799
    35.2519  35.5210  35.5415  35.5945  35.8964  36.1235  36.1358  36.6127
    36.7522  36.7960  37.0656  37.2249  37.6319  38.0654  38.3177  38.7039
    38.7910  38.9520  39.0943  39.5263  39.5346  39.9660  39.9747  40.1960
    40.2789  40.7491  41.1091  41.1470  41.6585  41.9048  42.6518  42.9930
    43.0644  43.9101  43.9673  44.2838  44.3431  44.4484  44.9600  45.8963
    46.0362  46.3549  46.3915  47.1158  47.4015  47.6093  47.9700  48.0810
    48.4880  48.6595  49.0890  49.1794  49.3476  50.2019  50.5822  50.6997
    51.1920  51.4496  52.4605  52.5381  52.5430  52.7472  52.9017  53.2525
    53.4592  54.2141  54.6632  54.7446  55.1137  55.6512  55.7166  55.7448
    56.1058  56.2250  56.4091  56.9307  57.0658  57.2342  57.2469  57.2691
    57.3817  57.5119  57.5346  57.8847  58.4294  58.4838

[...]

          k =-0.5000 0.0000 0.0000 (  4798 PWs)   bands (ev):

[...]

     the Fermi energy is    51.9242 ev

!    total energy              =   -3023.28695100 Ry
     Harris-Foulkes estimate   =   -3023.28699084 Ry
     estimated scf accuracy    <       0.00004632 Ry

     The total energy is the sum of the following terms:

     one-electron contribution =     305.15458758 Ry
     hartree contribution      =     284.44156561 Ry
     xc contribution           =    -332.38552295 Ry
     ewald contribution        =   -3280.01608018 Ry
     smearing contrib. (-TS)   =      -0.48150106 Ry

     convergence has been achieved in   9 iterations

     Forces acting on atoms (Ry/au):

     atom    1 type  1   force =     0.90521445   -0.98516288   -1.32206841
     atom    2 type  1   force =    -0.90521445   -0.98516288    1.32206841
     atom    3 type  1   force =     0.90521445    0.98516288   -1.32206841
     atom    4 type  1   force =    -1.55290039   -0.57761009    0.00000000
     atom    5 type  1   force =    -0.90521445   -0.98516288   -1.32206841
     atom    6 type  1   force =     0.90521445   -0.98516288    1.32206841
     atom    7 type  1   force =     1.55290039   -0.57761009    0.00000000
     atom    8 type  1   force =    -0.90521445    0.98516288   -1.32206841
     atom    9 type  1   force =     0.90521445    0.98516288    1.32206841
     atom   10 type  1   force =     1.55290039    0.57761009    0.00000000
     atom   11 type  1   force =    -0.90521445    0.98516288    1.32206841
     atom   12 type  1   force =    -1.55290039    0.57761009    0.00000000
     atom   13 type  2   force =     0.00000000    0.00000000    0.00000000
     atom   14 type  2   force =     0.00000000    0.00000000    0.00000000
     atom   15 type  2   force =     0.00000000    0.00000000    0.00000000
     atom   16 type  2   force =     0.00000000    0.00000000    0.00000000

     Total force =     6.267625     Total SCF correction =     0.000000

     entering subroutine stress ...

          total   stress  (Ry/bohr**3)                   (kbar)     P=11225.31
   0.07648827   0.00000000   0.00000000      11251.81      0.00      0.00
   0.00000000   0.07713986   0.00000000          0.00  11347.66      0.00
   0.00000000   0.00000000   0.07529616          0.00      0.00  11076.45

     BFGS Geometry Optimization

     number of scf cycles    =   1
     number of bfgs steps    =   0

     enthalpy new            =   -3023.2869509992 Ry

     new trust radius        =       0.5000000000 bohr
     new conv_thr            =       0.0001000000 Ry

     new unit-cell volume =   1383.69760 a.u.^3 (   205.04283 Ang^3 )

CELL_PARAMETERS (alat=  8.80076499)
   1.074172013   0.000000000   0.000000000
   0.000000000   1.164841411   0.000000000
   0.000000000   0.000000000   1.622330311

ATOMIC_POSITIONS (crystal)
Fe       0.351283663   0.164629592   0.918624054
Fe       0.148716337   0.664629592   0.581375946
Fe       0.851283663   0.335370408   0.418624054
Fe       0.332819711   0.447860006   0.250000000
Fe       0.148716337   0.664629592   0.918624054
Fe       0.351283663   0.164629592   0.581375946
Fe       0.167180289   0.947860006   0.250000000
Fe       0.648716337   0.835370408   0.418624054
Fe       0.851283663   0.335370408   0.081375946
Fe       0.667180289   0.552139994   0.750000000
Fe       0.648716337   0.835370408   0.081375946
Fe       0.832819711   0.052139994   0.750000000
C        0.000000000   0.000000000   0.000000000
C        0.500000000   0.500000000   0.000000000
C        0.500000000   0.500000000   0.500000000
C        0.000000000   0.000000000   0.500000000

     Writing output data file Prototype-La-oP16-Fe3C.save
     NEW-OLD atomic charge density approx. for the potential
     NEW k-points:
        k(    1) = (   0.0000000   0.0000000   0.0000000), wk =   0.0833333
        k(    2) = (   0.0000000   0.0000000   0.1540993), wk =   0.1666667
        k(    3) = (   0.0000000   0.0000000  -0.3081986), wk =   0.0833333
        k(    4) = (   0.0000000   0.2861620   0.0000000), wk =   0.1666667
        k(    5) = (   0.0000000   0.2861620   0.1540993), wk =   0.3333333
        k(    6) = (   0.0000000   0.2861620  -0.3081986), wk =   0.1666667
        k(    7) = (  -0.4654748   0.0000000   0.0000000), wk =   0.0833333
        k(    8) = (  -0.4654748   0.0000000   0.1540993), wk =   0.1666667
        k(    9) = (  -0.4654748   0.0000000  -0.3081986), wk =   0.0833333
        k(   10) = (  -0.4654748   0.2861620   0.0000000), wk =   0.1666667
        k(   11) = (  -0.4654748   0.2861620   0.1540993), wk =   0.3333333
        k(   12) = (  -0.4654748   0.2861620  -0.3081986), wk =   0.1666667

[...]

          total   stress  (Ry/bohr**3)                   (kbar)     P= 4922.82
   0.03390025   0.00000000   0.00000000       4986.90      0.00      0.00
   0.00000000   0.03300223   0.00000000          0.00   4854.79      0.00
   0.00000000   0.00000000   0.03349155          0.00      0.00   4926.78

[...]

     enthalpy old            =   -3023.2869509992 Ry
     enthalpy new            =   -3038.4945939805 Ry

     CASE: enthalpy_new < enthalpy_old

     small trust_radius: resetting bfgs history

     new trust radius        =       6.3051221952 bohr
     new conv_thr            =       0.0001000000 Ry

[...]

          total   stress  (Ry/bohr**3)                   (kbar)     P=-2140.67
  -0.01478344   0.00000000   0.00000000      -2174.72      0.00      0.00
   0.00000000  -0.01432680   0.00000000          0.00  -2107.55      0.00
   0.00000000   0.00000000  -0.01454564          0.00      0.00  -2139.74

     number of scf cycles    =   3
     number of bfgs steps    =   2

     enthalpy old            =   -3038.4945939805 Ry
     enthalpy new            =   -2971.2882476822 Ry

     CASE: enthalpy_new > enthalpy_old

     new trust radius        =       2.8006137084 bohr

     trust_radius < trust_radius_min

     resetting bfgs history

     Message from routine bfgs:
     history already reset at previous step: stopping
     new conv_thr            =       0.0001000000 Ry

     new unit-cell volume =   1595.73778 a.u.^3 (   236.46394 Ang^3 )

[...]

ATOMIC_POSITIONS (crystal)
Fe       0.353139249   0.162802669   0.916961018
Fe       0.146860751   0.662802669   0.583038982
Fe       0.853139249   0.337197331   0.416961018
Fe       0.329658171   0.446760594   0.250000000
Fe       0.146860751   0.662802669   0.916961018
Fe       0.353139249   0.162802669   0.583038982
Fe       0.170341829   0.946760594   0.250000000
Fe       0.646860751   0.837197331   0.416961018
Fe       0.853139249   0.337197331   0.083038982
Fe       0.670341829   0.553239406   0.750000000
Fe       0.646860751   0.837197331   0.083038982
Fe       0.829658171   0.053239406   0.750000000
C        0.000000000   0.000000000   0.000000000
C        0.500000000   0.500000000   0.000000000
C        0.500000000   0.500000000   0.500000000
C        0.000000000   0.000000000   0.500000000

     Writing output data file Prototype-La-oP16-Fe3C.save
     NEW-OLD atomic charge density approx. for the potential
     NEW k-points:
        k(    1) = (   0.0000000   0.0000000   0.0000000), wk =   0.0833333
        k(    2) = (   0.0000000   0.0000000   0.1469373), wk =   0.1666667
        k(    3) = (   0.0000000   0.0000000  -0.2938747), wk =   0.0833333
        k(    4) = (   0.0000000   0.2732138   0.0000000), wk =   0.1666667
        k(    5) = (   0.0000000   0.2732138   0.1469373), wk =   0.3333333
        k(    6) = (   0.0000000   0.2732138  -0.2938747), wk =   0.1666667
        k(    7) = (  -0.4433571   0.0000000   0.0000000), wk =   0.0833333
        k(    8) = (  -0.4433571   0.0000000   0.1469373), wk =   0.1666667
        k(    9) = (  -0.4433571   0.0000000  -0.2938747), wk =   0.0833333
        k(   10) = (  -0.4433571   0.2732138   0.0000000), wk =   0.1666667
        k(   11) = (  -0.4433571   0.2732138   0.1469373), wk =   0.3333333
        k(   12) = (  -0.4433571   0.2732138  -0.2938747), wk =   0.1666667

[...]

     The maximum number of steps has been reached.

     End of BFGS Geometry Optimization
Begin final coordinates
     new unit-cell volume =   1595.73778 a.u.^3 (   236.46394 Ang^3 )

CELL_PARAMETERS (alat=  8.80076499)
   1.127759011   0.000000000   0.000000000
   0.000000000   1.220045743   0.000000000
   0.000000000   0.000000000   1.701405512

ATOMIC_POSITIONS (crystal)
Fe       0.353139249   0.162802669   0.916961018
Fe       0.146860751   0.662802669   0.583038982
Fe       0.853139249   0.337197331   0.416961018
Fe       0.329658171   0.446760594   0.250000000
Fe       0.146860751   0.662802669   0.916961018
Fe       0.353139249   0.162802669   0.583038982
Fe       0.170341829   0.946760594   0.250000000
Fe       0.646860751   0.837197331   0.416961018
Fe       0.853139249   0.337197331   0.083038982
Fe       0.670341829   0.553239406   0.750000000
Fe       0.646860751   0.837197331   0.083038982
Fe       0.829658171   0.053239406   0.750000000
C        0.000000000   0.000000000   0.000000000
C        0.500000000   0.500000000   0.000000000
C        0.500000000   0.500000000   0.500000000
C        0.000000000   0.000000000   0.500000000
End final coordinates

     A final scf calculation at the relaxed structure.
     The G-vectors are recalculated for the final unit cell
     Results may differ from those at the preceding step.

     bravais-lattice index     =            0
     lattice parameter (alat)  =       8.8008  a.u.
     unit-cell volume          =    1595.7378 (a.u.)^3
     number of atoms/cell      =           16
     number of atomic types    =            2
     number of electrons       =       276.00
     number of Kohn-Sham states=          166
     kinetic-energy cutoff     =      40.0000  Ry
     charge density cutoff     =     160.0000  Ry
     convergence threshold     =      1.0E-04
     mixing beta               =       0.7000
     number of iterations used =            8  plain     mixing
     Exchange-correlation      = SLA-PZ-NOGX-NOGC ( 1 1 0 0 0)
     EXX-fraction              =        0.00

     celldm(1)=   8.800765  celldm(2)=   0.000000  celldm(3)=   0.000000
     celldm(4)=   0.000000  celldm(5)=   0.000000  celldm(6)=   0.000000

     crystal axes: (cart. coord. in units of alat)
               a(1) = (   1.127759   0.000000   0.000000 )
               a(2) = (   0.000000   1.220046   0.000000 )
               a(3) = (   0.000000   0.000000   1.701406 )

     reciprocal axes: (cart. coord. in units 2 pi/alat)
               b(1) = (  0.886714  0.000000  0.000000 )
               b(2) = (  0.000000  0.819641  0.000000 )
               b(3) = (  0.000000  0.000000  0.587749 )

     PseudoPot. # 1 for Tb read from file:
     /home/jld5415/pp.La/Tb.UPF
     MD5 check sum: 3d6088a3f0cf7fd2e110c43f7f8e95c2
     Pseudo is Norm-conserving, Zval = 19.0
     Generated in analytical, separable form
     Using radial grid of 1263 points,  6 beta functions with:
                l(1) =   0
                l(2) =   0
                l(3) =   1
                l(4) =   1
                l(5) =   2
                l(6) =   3

     PseudoPot. # 2 for Ce read from file:
     /home/jld5415/pp.La/Ce.UPF
     MD5 check sum: 44451aa79a44a00cf2bc029dc19922f6
     Pseudo is Norm-conserving, Zval = 12.0
     Generated in analytical, separable form
     Using radial grid of 1255 points,  6 beta functions with:
                l(1) =   0
                l(2) =   0
                l(3) =   1
                l(4) =   1
                l(5) =   2
                l(6) =   3

     atomic species   valence    mass     pseudopotential
        Fe            19.00    55.84500     Tb( 1.00)
        C             12.00    12.01070     Ce( 1.00)

      8 Sym. Ops., with inversion, found ( 6 have fractional translation)

   Cartesian axes

     site n.     atom                  positions (alat units)
         1           Fe  tau(   1) = (   0.3982560   0.1986267   1.5601225  )
         2           Fe  tau(   2) = (   0.1656235   0.8086496   0.9919857  )
         3           Fe  tau(   3) = (   0.9621355   0.4113962   0.7094198  )
         4           Fe  tau(   4) = (   0.3717750   0.5450684   0.4253514  )
         5           Fe  tau(   5) = (   0.1656235   0.8086496   1.5601225  )
         6           Fe  tau(   6) = (   0.3982560   0.1986267   0.9919857  )
         7           Fe  tau(   7) = (   0.1921045   1.1550912   0.4253514  )
         8           Fe  tau(   8) = (   0.7295030   1.0214190   0.7094198  )
         9           Fe  tau(   9) = (   0.9621355   0.4113962   0.1412830  )
        10           Fe  tau(  10) = (   0.7559840   0.6749774   1.2760541  )
        11           Fe  tau(  11) = (   0.7295030   1.0214190   0.1412830  )
        12           Fe  tau(  12) = (   0.9356545   0.0649545   1.2760541  )
        13           C   tau(  13) = (   0.0000000   0.0000000   0.0000000  )
        14           C   tau(  14) = (   0.5638795   0.6100229   0.0000000  )
        15           C   tau(  15) = (   0.5638795   0.6100229   0.8507028  )
        16           C   tau(  16) = (   0.0000000   0.0000000   0.8507028  )

     number of k points=    12  gaussian smearing, width (Ry)=  0.1000
                       cart. coord. in units 2pi/alat
        k(    1) = (   0.0000000   0.0000000   0.0000000), wk =   0.0833333
        k(    2) = (   0.0000000   0.0000000   0.1469373), wk =   0.1666667
        k(    3) = (   0.0000000   0.0000000  -0.2938747), wk =   0.0833333
        k(    4) = (   0.0000000   0.2732138   0.0000000), wk =   0.1666667
        k(    5) = (   0.0000000   0.2732138   0.1469373), wk =   0.3333333
        k(    6) = (   0.0000000   0.2732138  -0.2938747), wk =   0.1666667
        k(    7) = (  -0.4433571   0.0000000   0.0000000), wk =   0.0833333
        k(    8) = (  -0.4433571   0.0000000   0.1469373), wk =   0.1666667
        k(    9) = (  -0.4433571   0.0000000  -0.2938747), wk =   0.0833333
        k(   10) = (  -0.4433571   0.2732138   0.0000000), wk =   0.1666667
        k(   11) = (  -0.4433571   0.2732138   0.1469373), wk =   0.3333333
        k(   12) = (  -0.4433571   0.2732138  -0.2938747), wk =   0.1666667

     Largest allocated arrays     est. size (Mb)     dimensions
     Largest temporary arrays     est. size (Mb)     dimensions

     Initial potential from superposition of free atoms

     Starting from uniform charge
     Starting wfc are    0 randomized atomic wfcs

     Writing output data file Prototype-La-oP16-Fe3C.save

     Self-consistent Calculation

[...]

     iteration #  5     ecut=    40.00 Ry     beta=0.70
     CG style diagonalization
     ethr =  2.27E-03,  avg # of iterations =  4.0

[...]

     total energy              =   -3048.72092964 Ry
     Harris-Foulkes estimate   =   -3048.72117572 Ry
     estimated scf accuracy    <       0.00048955 Ry

     iteration # 10     ecut=    40.00 Ry     beta=0.70
     CG style diagonalization
     c_bands:  1 eigenvalues not converged
     ethr =  1.77E-07,  avg # of iterations =  3.8

     End of self-consistent calculation

[...]

          k = 0.0000 0.2732-0.2939 (  6796 PWs)   bands (ev):

[...]

          k =-0.4434 0.2732-0.2939 (  6840 PWs)   bands (ev):

   -43.4968 -43.4968 -43.4812 -43.4812 -43.4211 -43.4211 -43.4075 -43.4075
   -43.1033 -43.1033 -43.0868 -43.0868 -13.9600 -13.9600 -13.9529 -13.9529
   -13.1373 -13.1373 -13.1057 -13.1057 -12.7231 -12.7231 -12.6640 -12.6640
   -12.2011 -12.2011 -12.1738 -12.1738 -11.9568 -11.9568 -11.9308 -11.9308
   -11.7699 -11.7699 -11.7105 -11.7105 -11.6071 -11.6071 -11.5815 -11.5815
   -11.3444 -11.3444 -11.2834 -11.2834 -11.1823 -11.1823 -11.0794 -11.0794
    -4.5284  -4.5284  -4.5269  -4.5269  10.3791  10.3791  10.3820  10.3820
    11.0787  11.0787  11.0854  11.0854  11.6715  11.6715  11.6860  11.6860
    21.2998  21.2998  21.3831  21.3831  21.9927  21.9927  22.4352  22.4352
    22.4889  22.4889  22.8181  22.8181  23.3833  23.3833  23.5907  23.5907
    23.9003  23.9003  24.2324  24.2324  24.4111  24.4111  24.8009  24.8008
    25.1371  25.1371  25.1655  25.1655  25.4894  25.4894  25.6699  25.6699
    25.8153  25.8153  25.9047  25.9047  26.2789  26.2789  26.4727  26.4727
    27.0805  27.0805  27.1458  27.1458  27.5829  27.5829  27.6377  27.6377
    28.1302  28.1302  28.2228  28.2228  28.5444  28.5444  28.6032  28.6032
    29.1041  29.1041  29.1366  29.1366  30.8204  30.8204  31.0014  31.0014
    32.6965  32.6965  32.7674  32.7674  34.5243  34.5243  34.7033  34.7033
    35.3186  35.3186  35.4925  35.4925  36.2892  36.2892  36.4193  36.4193
    37.3310  37.3310  37.7638  37.7638  38.1805  38.1806  38.6120  38.6120
    38.8867  38.8867  39.2616  39.2617  40.1406  40.1407  40.6705  40.6708
    41.3800  41.3803  41.5147  41.5149  41.7098  41.7099

     the Fermi energy is    35.4291 ev

!    total energy              =   -3048.72101841 Ry
     Harris-Foulkes estimate   =   -3048.72107722 Ry
     estimated scf accuracy    <       0.00007040 Ry

     The total energy is the sum of the following terms:

     one-electron contribution =    -192.88127651 Ry
     hartree contribution      =     389.00402618 Ry
     xc contribution           =    -317.45524537 Ry
     ewald contribution        =   -2926.85213868 Ry
     smearing contrib. (-TS)   =      -0.53638403 Ry

     convergence has been achieved in  10 iterations

     Forces acting on atoms (Ry/au):

     atom    1 type  1   force =     0.38842180   -0.40693020   -0.49665591
     atom    2 type  1   force =    -0.38842180   -0.40693020    0.49665591
     atom    3 type  1   force =     0.38842180    0.40693020   -0.49665591
     atom    4 type  1   force =    -0.65967705   -0.24435509    0.00000000
     atom    5 type  1   force =    -0.38842180   -0.40693020   -0.49665591
     atom    6 type  1   force =     0.38842180   -0.40693020    0.49665591
     atom    7 type  1   force =     0.65967705   -0.24435509    0.00000000
     atom    8 type  1   force =    -0.38842180    0.40693020   -0.49665591
     atom    9 type  1   force =     0.38842180    0.40693020    0.49665591
     atom   10 type  1   force =     0.65967705    0.24435509    0.00000000
     atom   11 type  1   force =    -0.38842180    0.40693020    0.49665591
     atom   12 type  1   force =    -0.65967705    0.24435509    0.00000000
     atom   13 type  2   force =     0.00000000    0.00000000    0.00000000
     atom   14 type  2   force =     0.00000000    0.00000000    0.00000000
     atom   15 type  2   force =     0.00000000    0.00000000    0.00000000
     atom   16 type  2   force =     0.00000000    0.00000000    0.00000000

     Total force =     2.546484     Total SCF correction =     0.000000

     entering subroutine stress ...

          total   stress  (Ry/bohr**3)                   (kbar)     P= 3039.82
   0.02099513   0.00000000   0.00000000       3088.49      0.00      0.00
   0.00000000   0.02025469   0.00000000          0.00   2979.57      0.00
   0.00000000   0.00000000   0.02074307          0.00      0.00   3051.41

     Writing output data file Prototype-La-oP16-Fe3C.save

     General routines

     Parallel routines

   This run was terminated on:  18:36:29  22Mar2018

   JOB DONE.