     Program PWSCF v.5.0.2 starts on 22Mar2018 at 17:30:53

     Current dimensions of program PWSCF are:
     Max number of different atomic species (ntypx) = 10
     Max number of k-points (npk) =  40000
     Max angular momentum in pseudopotentials (lmaxx) =  3
     Waiting for input...
     Reading input from standard input

     Subspace diagonalization in iterative solution of the eigenvalue problem:
     a serial algorithm will be used

     bravais-lattice index     =            0
     lattice parameter (alat)  =       7.0151  a.u.
     unit-cell volume          =     862.2778 (a.u.)^3
     number of atoms/cell      =           12
     number of atomic types    =            2
     number of electrons       =       200.00
     number of Kohn-Sham states=          120
     kinetic-energy cutoff     =      40.0000  Ry
     charge density cutoff     =     160.0000  Ry
     convergence threshold     =      1.0E-04
     mixing beta               =       0.7000
     number of iterations used =            8  plain     mixing
     Exchange-correlation      = SLA-PZ-NOGX-NOGC ( 1 1 0 0 0)
     EXX-fraction              =        0.00
     nstep                     =           50

     celldm(1)=   7.015105  celldm(2)=   0.000000  celldm(3)=   0.000000
     celldm(4)=   0.000000  celldm(5)=   0.000000  celldm(6)=   0.000000

     crystal axes: (cart. coord. in units of alat)
               a(1) = (   1.000000   0.000000   0.000000 )
               a(2) = (   0.000000   1.315963   0.000000 )
               a(3) = (   0.000000   0.000000   1.898020 )

     reciprocal axes: (cart. coord. in units 2 pi/alat)
               b(1) = (  1.000000  0.000000  0.000000 )
               b(2) = (  0.000000  0.759900  0.000000 )
               b(3) = (  0.000000  0.000000  0.526865 )

     PseudoPot. # 1 for Tb read from file:
     /home/cwx6513/pp.La/Tb.UPF
     MD5 check sum: 3d6088a3f0cf7fd2e110c43f7f8e95c2
     Pseudo is Norm-conserving, Zval = 19.0
     Generated in analytical, separable form
     Using radial grid of 1263 points,  6 beta functions with:
                l(1) =   0
                l(2) =   0
                l(3) =   1
                l(4) =   1
                l(5) =   2
                l(6) =   3

     PseudoPot. # 2 for Ce read from file:
     /home/cwx6513/pp.La/Ce.UPF
     MD5 check sum: 44451aa79a44a00cf2bc029dc19922f6
     Pseudo is Norm-conserving, Zval = 12.0
     Generated in analytical, separable form
     Using radial grid of 1255 points,  6 beta functions with:
                l(1) =   0
                l(2) =   0
                l(3) =   1
                l(4) =   1
                l(5) =   2
                l(6) =   3

     atomic species   valence    mass     pseudopotential
        Co            19.00    58.93320     Tb( 1.00)
        Si            12.00    28.08550     Ce( 1.00)

      8 Sym. Ops., with inversion, found ( 6 have fractional translation)

   Cartesian axes

     site n.     atom                  positions (alat units)
         1           Co  tau(   1) = (   0.7500000   1.0875135   0.8270358  )
         2           Co  tau(   2) = (   0.2500000   0.2284499   1.0709846  )
         3           Co  tau(   3) = (   0.7500000   0.4295318   0.1219744  )
         4           Co  tau(   4) = (   0.2500000   0.8864316   1.7760460  )
         5           Co  tau(   5) = (   0.2500000   0.7067855   0.5358966  )
         6           Co  tau(   6) = (   0.7500000   0.6091779   1.3621238  )
         7           Co  tau(   7) = (   0.2500000   0.0488038   0.4131136  )
         8           Co  tau(   8) = (   0.7500000   1.2671596   1.4849068  )
         9           Si  tau(   9) = (   0.2500000   0.2669484   1.6960710  )
        10           Si  tau(  10) = (   0.7500000   1.0490149   0.2019494  )
        11           Si  tau(  11) = (   0.2500000   0.9249301   1.1509596  )
        12           Si  tau(  12) = (   0.7500000   0.3910333   0.7470608  )

     number of k points=    12  gaussian smearing, width (Ry)=  0.1000
                       cart. coord. in units 2pi/alat
        k(    1) = (   0.0000000   0.0000000   0.0000000), wk =   0.0833333
        k(    2) = (   0.0000000   0.0000000   0.1317162), wk =   0.1666667
        k(    3) = (   0.0000000   0.0000000  -0.2634324), wk =   0.0833333
        k(    4) = (   0.0000000   0.2532999   0.0000000), wk =   0.1666667
        k(    5) = (   0.0000000   0.2532999   0.1317162), wk =   0.3333333
        k(    6) = (   0.0000000   0.2532999  -0.2634324), wk =   0.1666667
        k(    7) = (  -0.5000000   0.0000000   0.0000000), wk =   0.0833333
        k(    8) = (  -0.5000000   0.0000000   0.1317162), wk =   0.1666667
        k(    9) = (  -0.5000000   0.0000000  -0.2634324), wk =   0.0833333
        k(   10) = (  -0.5000000   0.2532999   0.0000000), wk =   0.1666667
        k(   11) = (  -0.5000000   0.2532999   0.1317162), wk =   0.3333333
        k(   12) = (  -0.5000000   0.2532999  -0.2634324), wk =   0.1666667

     Largest allocated arrays     est. size (Mb)     dimensions
     Largest temporary arrays     est. size (Mb)     dimensions

     Initial potential from superposition of free atoms

     Starting from uniform charge
     Starting wfc are    0 randomized atomic wfcs

     Self-consistent Calculation

     iteration #  1     ecut=    40.00 Ry     beta=0.70
     CG style diagonalization
     ethr =  1.00E-02,  avg # of iterations = 16.0

     total energy              =   -1784.80200463 Ry
     Harris-Foulkes estimate   =   -2398.21976769 Ry
     estimated scf accuracy    <     773.72750728 Ry

     iteration #  2     ecut=    40.00 Ry     beta=0.70
     CG style diagonalization
     c_bands:  2 eigenvalues not converged
     c_bands:  2 eigenvalues not converged
     c_bands:  1 eigenvalues not converged
     c_bands:  4 eigenvalues not converged
     c_bands:  1 eigenvalues not converged
     c_bands:  2 eigenvalues not converged
     c_bands:  2 eigenvalues not converged
     c_bands:  2 eigenvalues not converged
     c_bands:  4 eigenvalues not converged
     c_bands:  2 eigenvalues not converged
     ethr =  1.00E-02,  avg # of iterations = 13.1

[...]

     End of self-consistent calculation

          k = 0.0000 0.0000 0.0000 (  3675 PWs)   bands (ev):

   -30.9650 -30.7295 -30.6824 -30.6000 -30.5045 -30.3598 -30.2788 -30.2654
    -1.3432  -0.8625  -0.7963  -0.5205  -0.4967  -0.4370  -0.1543  -0.0420
     0.0942   0.1582   0.2460   0.5460   0.6529   0.6534   0.7099   0.7663
     0.9782   1.0286   1.1325   1.1592   1.2638   1.4586   1.7793   1.8890
     8.4341   9.2628   9.3164   9.4849  23.4114  23.9488  24.2111  24.2329
    24.6995  24.8941  25.0778  25.4476  25.4867  25.5543  26.3821  27.0416
    31.8475  32.0288  32.2997  32.4837  32.7094  32.7609  33.1158  33.6982
    34.4088  35.0566  35.1919  35.5463  35.7150  35.8321  36.1735  37.0379
    37.3139  37.3966  37.4830  37.5950  37.7225  37.7649  38.5047  38.6260
    38.6366  38.9302  39.0700  40.2620  40.6652  40.9049  41.0115  41.5901
    41.7225  41.9965  42.0781  42.1167  42.4089  42.8620  42.9322  43.3967
    43.8359  43.8935  46.0851  46.5660  47.3697  47.3869  47.7255  48.1086
    48.3248  48.6594  48.7747  48.9229  50.2798  50.7995  51.6095  51.6294
    51.6396  52.0830  52.7678  52.7731  53.1083  53.2469  53.9198  54.4165
    54.6761  54.7142  54.9988  55.3353  55.6506  55.7175  55.7420  56.5021

[...]

          k =-0.5000 0.0000 0.0000 (  3722 PWs)   bands (ev):

[...]

     the Fermi energy is    49.5427 ev

!    total energy              =   -2129.80317925 Ry
     Harris-Foulkes estimate   =   -2129.80318869 Ry
     estimated scf accuracy    <       0.00001278 Ry

     The total energy is the sum of the following terms:

     one-electron contribution =     309.23832577 Ry
     hartree contribution      =     157.80506152 Ry
     xc contribution           =    -232.81595013 Ry
     ewald contribution        =   -2363.69258989 Ry
     smearing contrib. (-TS)   =      -0.33802652 Ry

     convergence has been achieved in  11 iterations

     Forces acting on atoms (Ry/au):

     atom    1 type  1   force =     0.00000000   -0.05786806   -0.10426057
     atom    2 type  1   force =     0.00000000    0.05786806    0.10426057
     atom    3 type  1   force =     0.00000000   -0.05786806    0.10426057
     atom    4 type  1   force =     0.00000000    0.05786806   -0.10426057
     atom    5 type  1   force =     0.00000000    0.15459611   -0.27413482
     atom    6 type  1   force =     0.00000000   -0.15459611    0.27413482
     atom    7 type  1   force =     0.00000000    0.15459611    0.27413482
     atom    8 type  1   force =     0.00000000   -0.15459611   -0.27413482
     atom    9 type  2   force =     0.00000000   -0.20063332   -0.02578219
     atom   10 type  2   force =     0.00000000    0.20063332    0.02578219
     atom   11 type  2   force =     0.00000000   -0.20063332    0.02578219
     atom   12 type  2   force =     0.00000000    0.20063332   -0.02578219

     Total force =     0.785334     Total SCF correction =     0.000000

     entering subroutine stress ...

          total   stress  (Ry/bohr**3)                   (kbar)     P= 6642.35
   0.04766791   0.00000000   0.00000000       7012.19      0.00      0.00
   0.00000000   0.04192024   0.00000000          0.00   6166.68      0.00
   0.00000000   0.00000000   0.04587328          0.00      0.00   6748.19

     BFGS Geometry Optimization

     number of scf cycles    =   1
     number of bfgs steps    =   0

     enthalpy new            =   -2129.8031792461 Ry

     new trust radius        =       0.5000000000 bohr
     new conv_thr            =       0.0001000000 Ry

     new unit-cell volume =   1088.14738 a.u.^3 (   161.24680 Ang^3 )

CELL_PARAMETERS (alat=  7.01510508)
   1.085136619   0.000000000   0.000000000
   0.000000000   1.414490966   0.000000000
   0.000000000   0.000000000   2.053527782

ATOMIC_POSITIONS (crystal)
Co       0.750000000   0.825953172   0.435176583
Co       0.250000000   0.174046828   0.564823417
Co       0.750000000   0.325953172   0.064823417
Co       0.250000000   0.674046828   0.935176583
Co       0.250000000   0.538282385   0.280874113
Co       0.750000000   0.461717615   0.719125887
Co       0.250000000   0.038282385   0.219125887
Co       0.750000000   0.961717615   0.780874113
Si       0.250000000   0.201301344   0.893461664
Si       0.750000000   0.798698656   0.106538336
Si       0.250000000   0.701301344   0.606538336
Si       0.750000000   0.298698656   0.393461664

     Writing output data file Prototype-La-oP12-Co2Si.save
     NEW-OLD atomic charge density approx. for the potential
     NEW k-points:
        k(    1) = (   0.0000000   0.0000000   0.0000000), wk =   0.0833333
        k(    2) = (   0.0000000   0.0000000   0.1217417), wk =   0.1666667
        k(    3) = (   0.0000000   0.0000000  -0.2434834), wk =   0.0833333
        k(    4) = (   0.0000000   0.2356560   0.0000000), wk =   0.1666667
        k(    5) = (   0.0000000   0.2356560   0.1217417), wk =   0.3333333
        k(    6) = (   0.0000000   0.2356560  -0.2434834), wk =   0.1666667
        k(    7) = (  -0.4607715   0.0000000   0.0000000), wk =   0.0833333
        k(    8) = (  -0.4607715   0.0000000   0.1217417), wk =   0.1666667
        k(    9) = (  -0.4607715   0.0000000  -0.2434834), wk =   0.0833333
        k(   10) = (  -0.4607715   0.2356560   0.0000000), wk =   0.1666667
        k(   11) = (  -0.4607715   0.2356560   0.1217417), wk =   0.3333333
        k(   12) = (  -0.4607715   0.2356560  -0.2434834), wk =   0.1666667

[...]

     enthalpy old            =   -2129.8031792461 Ry
     enthalpy new            =   -2136.1417471757 Ry

     CASE: enthalpy_new < enthalpy_old

     small trust_radius: resetting bfgs history

     new trust radius        =       2.6120724241 bohr
     new conv_thr            =       0.0001000000 Ry

[...]

          total   stress  (Ry/bohr**3)                   (kbar)     P=-1540.05
  -0.01103043   0.00000000   0.00000000      -1622.63      0.00      0.00
   0.00000000  -0.00983515   0.00000000          0.00  -1446.80      0.00
   0.00000000   0.00000000  -0.01054150          0.00      0.00  -1550.71

     number of scf cycles    =   3
     number of bfgs steps    =   2

     enthalpy old            =   -2136.1417471757 Ry
     enthalpy new            =   -2126.0439180822 Ry

     CASE: enthalpy_new > enthalpy_old

     new trust radius        =       0.9581103502 bohr

     trust_radius < trust_radius_min

     resetting bfgs history

     Message from routine bfgs:
     history already reset at previous step: stopping
     new conv_thr            =       0.0001000000 Ry

     new unit-cell volume =   1293.06014 a.u.^3 (   191.61174 Ang^3 )

[...]

ATOMIC_POSITIONS (crystal)
Co       0.750000000   0.825424389   0.434875892
Co       0.250000000   0.174575611   0.565124108
Co       0.750000000   0.325424389   0.065124108
Co       0.250000000   0.674575611   0.934875892
Co       0.250000000   0.539401111   0.279664240
Co       0.750000000   0.460598889   0.720335760
Co       0.250000000   0.039401111   0.220335760
Co       0.750000000   0.960598889   0.779664240
Si       0.250000000   0.199875838   0.893483057
Si       0.750000000   0.800124162   0.106516943
Si       0.250000000   0.699875838   0.606516943
Si       0.750000000   0.300124162   0.393483057

     Writing output data file Prototype-La-oP12-Co2Si.save
     NEW-OLD atomic charge density approx. for the potential
     NEW k-points:
        k(    1) = (   0.0000000   0.0000000   0.0000000), wk =   0.0833333
        k(    2) = (   0.0000000   0.0000000   0.1148432), wk =   0.1666667
        k(    3) = (   0.0000000   0.0000000  -0.2296864), wk =   0.0833333
        k(    4) = (   0.0000000   0.2241255   0.0000000), wk =   0.1666667
        k(    5) = (   0.0000000   0.2241255   0.1148432), wk =   0.3333333
        k(    6) = (   0.0000000   0.2241255  -0.2296864), wk =   0.1666667
        k(    7) = (  -0.4321915   0.0000000   0.0000000), wk =   0.0833333
        k(    8) = (  -0.4321915   0.0000000   0.1148432), wk =   0.1666667
        k(    9) = (  -0.4321915   0.0000000  -0.2296864), wk =   0.0833333
        k(   10) = (  -0.4321915   0.2241255   0.0000000), wk =   0.1666667
        k(   11) = (  -0.4321915   0.2241255   0.1148432), wk =   0.3333333
        k(   12) = (  -0.4321915   0.2241255  -0.2296864), wk =   0.1666667

[...]

     The maximum number of steps has been reached.

     End of BFGS Geometry Optimization
Begin final coordinates
     new unit-cell volume =   1293.06014 a.u.^3 (   191.61174 Ang^3 )

CELL_PARAMETERS (alat=  7.01510508)
   1.156894664   0.000000000   0.000000000
   0.000000000   1.487262253   0.000000000
   0.000000000   0.000000000   2.176881604

ATOMIC_POSITIONS (crystal)
Co       0.750000000   0.825424389   0.434875892
Co       0.250000000   0.174575611   0.565124108
Co       0.750000000   0.325424389   0.065124108
Co       0.250000000   0.674575611   0.934875892
Co       0.250000000   0.539401111   0.279664240
Co       0.750000000   0.460598889   0.720335760
Co       0.250000000   0.039401111   0.220335760
Co       0.750000000   0.960598889   0.779664240
Si       0.250000000   0.199875838   0.893483057
Si       0.750000000   0.800124162   0.106516943
Si       0.250000000   0.699875838   0.606516943
Si       0.750000000   0.300124162   0.393483057
End final coordinates

     A final scf calculation at the relaxed structure.
     The G-vectors are recalculated for the final unit cell
     Results may differ from those at the preceding step.

     bravais-lattice index     =            0
     lattice parameter (alat)  =       7.0151  a.u.
     unit-cell volume          =    1293.0601 (a.u.)^3
     number of atoms/cell      =           12
     number of atomic types    =            2
     number of electrons       =       200.00
     number of Kohn-Sham states=          120
     kinetic-energy cutoff     =      40.0000  Ry
     charge density cutoff     =     160.0000  Ry
     convergence threshold     =      1.0E-04
     mixing beta               =       0.7000
     number of iterations used =            8  plain     mixing
     Exchange-correlation      = SLA-PZ-NOGX-NOGC ( 1 1 0 0 0)
     EXX-fraction              =        0.00

     celldm(1)=   7.015105  celldm(2)=   0.000000  celldm(3)=   0.000000
     celldm(4)=   0.000000  celldm(5)=   0.000000  celldm(6)=   0.000000

     crystal axes: (cart. coord. in units of alat)
               a(1) = (   1.156895   0.000000   0.000000 )
               a(2) = (   0.000000   1.487262   0.000000 )
               a(3) = (   0.000000   0.000000   2.176882 )

     reciprocal axes: (cart. coord. in units 2 pi/alat)
               b(1) = (  0.864383  0.000000  0.000000 )
               b(2) = (  0.000000  0.672376  0.000000 )
               b(3) = (  0.000000  0.000000  0.459373 )

     PseudoPot. # 1 for Tb read from file:
     /home/cwx6513/pp.La/Tb.UPF
     MD5 check sum: 3d6088a3f0cf7fd2e110c43f7f8e95c2
     Pseudo is Norm-conserving, Zval = 19.0
     Generated in analytical, separable form
     Using radial grid of 1263 points,  6 beta functions with:
                l(1) =   0
                l(2) =   0
                l(3) =   1
                l(4) =   1
                l(5) =   2
                l(6) =   3

     PseudoPot. # 2 for Ce read from file:
     /home/cwx6513/pp.La/Ce.UPF
     MD5 check sum: 44451aa79a44a00cf2bc029dc19922f6
     Pseudo is Norm-conserving, Zval = 12.0
     Generated in analytical, separable form
     Using radial grid of 1255 points,  6 beta functions with:
                l(1) =   0
                l(2) =   0
                l(3) =   1
                l(4) =   1
                l(5) =   2
                l(6) =   3

     atomic species   valence    mass     pseudopotential
        Co            19.00    58.93320     Tb( 1.00)
        Si            12.00    28.08550     Ce( 1.00)

      8 Sym. Ops., with inversion, found ( 6 have fractional translation)

   Cartesian axes

     site n.     atom                  positions (alat units)
         1           Co  tau(   1) = (   0.8676710   1.2276225   0.9466733  )
         2           Co  tau(   2) = (   0.2892237   0.2596397   1.2302083  )
         3           Co  tau(   3) = (   0.8676710   0.4839914   0.1417675  )
         4           Co  tau(   4) = (   0.2892237   1.0032708   2.0351141  )
         5           Co  tau(   5) = (   0.2892237   0.8022309   0.6087959  )
         6           Co  tau(   6) = (   0.8676710   0.6850313   1.5680857  )
         7           Co  tau(   7) = (   0.2892237   0.0585998   0.4796449  )
         8           Co  tau(   8) = (   0.8676710   1.4286625   1.6972367  )
         9           Si  tau(   9) = (   0.2892237   0.2972678   1.9450068  )
        10           Si  tau(  10) = (   0.8676710   1.1899945   0.2318748  )
        11           Si  tau(  11) = (   0.2892237   1.0408989   1.3203156  )
        12           Si  tau(  12) = (   0.8676710   0.4463633   0.8565660  )

     number of k points=    12  gaussian smearing, width (Ry)=  0.1000
                       cart. coord. in units 2pi/alat
        k(    1) = (   0.0000000   0.0000000   0.0000000), wk =   0.0833333
        k(    2) = (   0.0000000   0.0000000   0.1148432), wk =   0.1666667
        k(    3) = (   0.0000000   0.0000000  -0.2296864), wk =   0.0833333
        k(    4) = (   0.0000000   0.2241255   0.0000000), wk =   0.1666667
        k(    5) = (   0.0000000   0.2241255   0.1148432), wk =   0.3333333
        k(    6) = (   0.0000000   0.2241255  -0.2296864), wk =   0.1666667
        k(    7) = (  -0.4321915   0.0000000   0.0000000), wk =   0.0833333
        k(    8) = (  -0.4321915   0.0000000   0.1148432), wk =   0.1666667
        k(    9) = (  -0.4321915   0.0000000  -0.2296864), wk =   0.0833333
        k(   10) = (  -0.4321915   0.2241255   0.0000000), wk =   0.1666667
        k(   11) = (  -0.4321915   0.2241255   0.1148432), wk =   0.3333333
        k(   12) = (  -0.4321915   0.2241255  -0.2296864), wk =   0.1666667

     Largest allocated arrays     est. size (Mb)     dimensions
     Largest temporary arrays     est. size (Mb)     dimensions

     Initial potential from superposition of free atoms

     Starting from uniform charge
     Starting wfc are    0 randomized atomic wfcs

     Writing output data file Prototype-La-oP12-Co2Si.save

     Self-consistent Calculation

[...]

     iteration #  9     ecut=    40.00 Ry     beta=0.70
     CG style diagonalization
     c_bands:  1 eigenvalues not converged
     ethr =  1.67E-06,  avg # of iterations =  4.1

     total energy              =   -2141.51559320 Ry
     Harris-Foulkes estimate   =   -2141.51579882 Ry
     estimated scf accuracy    <       0.00040916 Ry

     iteration # 10     ecut=    40.00 Ry     beta=0.70
     CG style diagonalization
     ethr =  2.05E-07,  avg # of iterations =  3.7

     End of self-consistent calculation

[...]

          k = 0.0000 0.2241-0.2297 (  5510 PWs)   bands (ev):

[...]

          k =-0.4322 0.2241-0.2297 (  5532 PWs)   bands (ev):

   -45.3664 -45.3664 -45.3639 -45.3639 -45.1857 -45.1857 -45.1558 -45.1558
   -14.1353 -14.1353 -14.0643 -14.0643 -14.0268 -14.0268 -13.9923 -13.9923
   -13.9049 -13.9049 -13.8043 -13.8043 -13.7171 -13.7171 -13.6050 -13.6050
   -13.6020 -13.6020 -13.5648 -13.5648 -13.4731 -13.4731 -13.4043 -13.4043
    -6.5450  -6.5450  -6.5336  -6.5336  10.2146  10.2146  10.3951  10.3951
    10.6438  10.6438  10.6744  10.6744  10.9709  10.9709  10.9986  10.9986
    21.1507  21.1507  21.5741  21.5741  21.7709  21.7709  22.1461  22.1461
    22.3347  22.3347  22.4101  22.4101  22.4913  22.4913  23.0268  23.0268
    23.0930  23.0930  23.3041  23.3041  23.3245  23.3245  23.7755  23.7755
    23.8978  23.8978  24.2799  24.2799  24.3151  24.3151  24.6340  24.6340
    24.8899  24.8899  25.7204  25.7204  25.8075  25.8075  26.2214  26.2214
    27.0595  27.0595  27.5602  27.5602  29.4649  29.4649  30.4122  30.4122
    31.0113  31.0113  31.2009  31.2009  31.8285  31.8285  32.4740  32.4740
    33.2899  33.2899  33.3019  33.3019  33.9855  33.9855  34.1809  34.1809
    35.8120  35.8120  36.7292  36.7292  37.3719  37.3719  38.2666  38.2668

     the Fermi energy is    31.7946 ev

!    total energy              =   -2141.51566092 Ry
     Harris-Foulkes estimate   =   -2141.51570273 Ry
     estimated scf accuracy    <       0.00004973 Ry

     The total energy is the sum of the following terms:

     one-electron contribution =    -102.26999200 Ry
     hartree contribution      =     248.34334454 Ry
     xc contribution           =    -221.90583513 Ry
     ewald contribution        =   -2065.20693072 Ry
     smearing contrib. (-TS)   =      -0.47624760 Ry

     convergence has been achieved in  10 iterations

     Forces acting on atoms (Ry/au):

     atom    1 type  1   force =     0.00000000   -0.04943120   -0.00787943
     atom    2 type  1   force =     0.00000000    0.04943120    0.00787943
     atom    3 type  1   force =     0.00000000   -0.04943120    0.00787943
     atom    4 type  1   force =     0.00000000    0.04943120   -0.00787943
     atom    5 type  1   force =     0.00000000    0.05634770   -0.08156802
     atom    6 type  1   force =     0.00000000   -0.05634770    0.08156802
     atom    7 type  1   force =     0.00000000    0.05634770    0.08156802
     atom    8 type  1   force =     0.00000000   -0.05634770   -0.08156802
     atom    9 type  2   force =     0.00000000   -0.06916612    0.01338435
     atom   10 type  2   force =     0.00000000    0.06916612   -0.01338435
     atom   11 type  2   force =     0.00000000   -0.06916612   -0.01338435
     atom   12 type  2   force =     0.00000000    0.06916612    0.01338435

     Total force =     0.263036     Total SCF correction =     0.000000

     entering subroutine stress ...

          total   stress  (Ry/bohr**3)                   (kbar)     P= 1089.34
   0.00804263   0.00000000   0.00000000       1183.11      0.00      0.00
   0.00000000   0.00688198   0.00000000          0.00   1012.37      0.00
   0.00000000   0.00000000   0.00729097          0.00      0.00   1072.54

     Writing output data file Prototype-La-oP12-Co2Si.save

     General routines

     Parallel routines

   This run was terminated on:  17:50:42  22Mar2018

   JOB DONE.