     Program PWSCF v.5.0.2 starts on 22Mar2018 at 17:30:48

     Current dimensions of program PWSCF are:
     Max number of different atomic species (ntypx) = 10
     Max number of k-points (npk) =  40000
     Max angular momentum in pseudopotentials (lmaxx) =  3
     Waiting for input...
     Reading input from standard input

     Subspace diagonalization in iterative solution of the eigenvalue problem:
     a serial algorithm will be used

     bravais-lattice index     =            0
     lattice parameter (alat)  =       8.5346  a.u.
     unit-cell volume          =     621.6493 (a.u.)^3
     number of atoms/cell      =            8
     number of atomic types    =            2
     number of electrons       =       138.00
     number of Kohn-Sham states=           83
     kinetic-energy cutoff     =      40.0000  Ry
     charge density cutoff     =     160.0000  Ry
     convergence threshold     =      1.0E-04
     mixing beta               =       0.7000
     number of iterations used =            8  plain     mixing
     Exchange-correlation      = SLA-PZ-NOGX-NOGC ( 1 1 0 0 0)
     EXX-fraction              =        0.00
     nstep                     =           50

     celldm(1)=   8.534573  celldm(2)=   0.000000  celldm(3)=   0.000000
     celldm(4)=   0.000000  celldm(5)=   0.000000  celldm(6)=   0.000000

     crystal axes: (cart. coord. in units of alat)
               a(1) = (   1.000000   0.000000   0.000000 )
               a(2) = (   0.000000   1.000000   0.000000 )
               a(3) = (   0.000000   0.000000   1.000000 )

     reciprocal axes: (cart. coord. in units 2 pi/alat)
               b(1) = (  1.000000  0.000000  0.000000 )
               b(2) = (  0.000000  1.000000  0.000000 )
               b(3) = (  0.000000  0.000000  1.000000 )

     PseudoPot. # 1 for Tb read from file:
     /home/cwx6513/pp.La/Tb.UPF
     MD5 check sum: 3d6088a3f0cf7fd2e110c43f7f8e95c2
     Pseudo is Norm-conserving, Zval = 19.0
     Generated in analytical, separable form
     Using radial grid of 1263 points,  6 beta functions with:
                l(1) =   0
                l(2) =   0
                l(3) =   1
                l(4) =   1
                l(5) =   2
                l(6) =   3

     PseudoPot. # 2 for Ce read from file:
     /home/cwx6513/pp.La/Ce.UPF
     MD5 check sum: 44451aa79a44a00cf2bc029dc19922f6
     Pseudo is Norm-conserving, Zval = 12.0
     Generated in analytical, separable form
     Using radial grid of 1255 points,  6 beta functions with:
                l(1) =   0
                l(2) =   0
                l(3) =   1
                l(4) =   1
                l(5) =   2
                l(6) =   3

     atomic species   valence    mass     pseudopotential
        Cr            19.00    51.99610     Tb( 1.00)
        Si            12.00    28.08550     Ce( 1.00)

     48 Sym. Ops., with inversion, found (24 have fractional translation)

   Cartesian axes

     site n.     atom                  positions (alat units)
         1           Cr  tau(   1) = (   0.0000000   0.5000000   0.2500000  )
         2           Cr  tau(   2) = (   0.0000000   0.5000000   0.7500000  )
         3           Cr  tau(   3) = (   0.5000000   0.7500000   0.0000000  )
         4           Cr  tau(   4) = (   0.5000000   0.2500000   0.0000000  )
         5           Cr  tau(   5) = (   0.7500000   0.0000000   0.5000000  )
         6           Cr  tau(   6) = (   0.2500000   0.0000000   0.5000000  )
         7           Si  tau(   7) = (   0.5000000   0.5000000   0.5000000  )
         8           Si  tau(   8) = (   0.0000000   0.0000000   0.0000000  )

     number of k points=    48  gaussian smearing, width (Ry)=  0.1000
                       cart. coord. in units 2pi/alat
        k(    1) = (   0.0000000   0.0000000   0.0000000), wk =   0.0095238
        k(    2) = (   0.0000000   0.0000000   0.1428571), wk =   0.0190476
        k(    3) = (   0.0000000   0.0000000   0.2857143), wk =   0.0190476
        k(    4) = (   0.0000000   0.0000000   0.4285714), wk =   0.0190476
        k(    5) = (   0.0000000   0.1666667   0.0000000), wk =   0.0190476
        k(    6) = (   0.0000000   0.1666667   0.1428571), wk =   0.0380952
        k(    7) = (   0.0000000   0.1666667   0.2857143), wk =   0.0380952
        k(    8) = (   0.0000000   0.1666667   0.4285714), wk =   0.0380952
        k(    9) = (   0.0000000   0.3333333   0.0000000), wk =   0.0190476
        k(   10) = (   0.0000000   0.3333333   0.1428571), wk =   0.0380952
        k(   11) = (   0.0000000   0.3333333   0.2857143), wk =   0.0380952
        k(   12) = (   0.0000000   0.3333333   0.4285714), wk =   0.0380952
        k(   13) = (   0.0000000  -0.5000000   0.0000000), wk =   0.0095238
        k(   14) = (   0.0000000  -0.5000000   0.1428571), wk =   0.0190476
        k(   15) = (   0.0000000  -0.5000000   0.2857143), wk =   0.0190476
        k(   16) = (   0.0000000  -0.5000000   0.4285714), wk =   0.0190476
        k(   17) = (   0.2000000   0.0000000   0.0000000), wk =   0.0190476
        k(   18) = (   0.2000000   0.0000000   0.1428571), wk =   0.0380952
        k(   19) = (   0.2000000   0.0000000   0.2857143), wk =   0.0380952
        k(   20) = (   0.2000000   0.0000000   0.4285714), wk =   0.0380952
        k(   21) = (   0.2000000   0.1666667   0.0000000), wk =   0.0380952
        k(   22) = (   0.2000000   0.1666667   0.1428571), wk =   0.0761905
        k(   23) = (   0.2000000   0.1666667   0.2857143), wk =   0.0761905
        k(   24) = (   0.2000000   0.1666667   0.4285714), wk =   0.0761905
        k(   25) = (   0.2000000   0.3333333   0.0000000), wk =   0.0380952
        k(   26) = (   0.2000000   0.3333333   0.1428571), wk =   0.0761905
        k(   27) = (   0.2000000   0.3333333   0.2857143), wk =   0.0761905
        k(   28) = (   0.2000000   0.3333333   0.4285714), wk =   0.0761905
        k(   29) = (   0.2000000  -0.5000000   0.0000000), wk =   0.0190476
        k(   30) = (   0.2000000  -0.5000000   0.1428571), wk =   0.0380952
        k(   31) = (   0.2000000  -0.5000000   0.2857143), wk =   0.0380952
        k(   32) = (   0.2000000  -0.5000000   0.4285714), wk =   0.0380952
        k(   33) = (   0.4000000   0.0000000   0.0000000), wk =   0.0190476
        k(   34) = (   0.4000000   0.0000000   0.1428571), wk =   0.0380952
        k(   35) = (   0.4000000   0.0000000   0.2857143), wk =   0.0380952
        k(   36) = (   0.4000000   0.0000000   0.4285714), wk =   0.0380952
        k(   37) = (   0.4000000   0.1666667   0.0000000), wk =   0.0380952
        k(   38) = (   0.4000000   0.1666667   0.1428571), wk =   0.0761905
        k(   39) = (   0.4000000   0.1666667   0.2857143), wk =   0.0761905
        k(   40) = (   0.4000000   0.1666667   0.4285714), wk =   0.0761905
        k(   41) = (   0.4000000   0.3333333   0.0000000), wk =   0.0380952
        k(   42) = (   0.4000000   0.3333333   0.1428571), wk =   0.0761905
        k(   43) = (   0.4000000   0.3333333   0.2857143), wk =   0.0761905
        k(   44) = (   0.4000000   0.3333333   0.4285714), wk =   0.0761905
        k(   45) = (   0.4000000  -0.5000000   0.0000000), wk =   0.0190476
        k(   46) = (   0.4000000  -0.5000000   0.1428571), wk =   0.0380952
        k(   47) = (   0.4000000  -0.5000000   0.2857143), wk =   0.0380952
        k(   48) = (   0.4000000  -0.5000000   0.4285714), wk =   0.0380952

     Largest allocated arrays     est. size (Mb)     dimensions
     Largest temporary arrays     est. size (Mb)     dimensions

     Initial potential from superposition of free atoms

     Starting from uniform charge
     Starting wfc are    0 randomized atomic wfcs

     Self-consistent Calculation

     iteration #  1     ecut=    40.00 Ry     beta=0.70
     CG style diagonalization
     c_bands:  3 eigenvalues not converged
     c_bands:  2 eigenvalues not converged
     c_bands:  1 eigenvalues not converged
     c_bands:  5 eigenvalues not converged
     c_bands:  3 eigenvalues not converged
     c_bands:  1 eigenvalues not converged
     ethr =  1.00E-02,  avg # of iterations = 16.3

     total energy              =   -1281.60794530 Ry
     Harris-Foulkes estimate   =   -1742.90551005 Ry
     estimated scf accuracy    <     579.34207506 Ry

[...]

     iteration #  4     ecut=    40.00 Ry     beta=0.70
     CG style diagonalization
     ethr =  1.00E-02,  avg # of iterations =  3.7

[...]

     End of self-consistent calculation

          k = 0.0000 0.0000 0.0000 (  2601 PWs)   bands (ev):

   -33.7794 -33.5585 -33.5585 -32.7803 -32.7803 -32.7803  -4.9977  -4.9977
    -4.7064  -2.8277  -2.8277  -2.8277  -1.6254  -1.6254  -1.6254  -1.6101
    -1.6101  -1.6101  -1.2555  -1.2555  -1.2555   0.1469   0.1469   0.1469
     6.1901   6.4145  22.3518  22.3518  22.3518  22.7103  22.7103  22.7103
    29.2789  29.2789  29.5093  30.4685  30.4685  30.4685  31.5823  33.1369
    33.1369  33.1369  33.4928  33.4928  34.0061  35.9583  35.9583  35.9583
    36.1312  37.3026  37.3026  37.3026  39.1558  39.1558  39.1558  39.2778
    39.2778  39.2778  39.3101  39.3101  39.7660  39.7660  39.9124  39.9124
    39.9124  43.7945  43.7945  43.7945  45.1419  45.1419  47.7419  47.7419
    47.7419  49.5292  49.5292  49.5293  50.6822  50.6822  50.6822  51.7502
    51.7502  51.7503  53.9765

[...]

     the Fermi energy is    46.2471 ev

!    total energy              =   -1523.72934069 Ry
     Harris-Foulkes estimate   =   -1523.72939240 Ry
     estimated scf accuracy    <       0.00005689 Ry

     The total energy is the sum of the following terms:

     one-electron contribution =     143.36573944 Ry
     hartree contribution      =     127.27650735 Ry
     xc contribution           =    -161.30164111 Ry
     ewald contribution        =   -1632.86097549 Ry
     smearing contrib. (-TS)   =      -0.20897088 Ry

     convergence has been achieved in   9 iterations

     Forces acting on atoms (Ry/au):

     atom    1 type  1   force =     0.00000000    0.00000000    0.00000000
     atom    2 type  1   force =     0.00000000    0.00000000    0.00000000
     atom    3 type  1   force =     0.00000000    0.00000000    0.00000000
     atom    4 type  1   force =     0.00000000    0.00000000    0.00000000
     atom    5 type  1   force =     0.00000000    0.00000000    0.00000000
     atom    6 type  1   force =     0.00000000    0.00000000    0.00000000
     atom    7 type  2   force =     0.00000000    0.00000000    0.00000000
     atom    8 type  2   force =     0.00000000    0.00000000    0.00000000

     Total force =     0.000000     Total SCF correction =     0.000000

     entering subroutine stress ...

          total   stress  (Ry/bohr**3)                   (kbar)     P= 5027.65
   0.03417725   0.00000000   0.00000000       5027.65      0.00      0.00
   0.00000000   0.03417725   0.00000000          0.00   5027.65      0.00
   0.00000000   0.00000000   0.03417725          0.00      0.00   5027.65

     BFGS Geometry Optimization

     number of scf cycles    =   1
     number of bfgs steps    =   0

     enthalpy new            =   -1523.7293406891 Ry

     new trust radius        =       0.5000000000 bohr
[...]
     enthalpy new            =   -1527.1724718902 Ry

     CASE: enthalpy_new < enthalpy_old

     small trust_radius: resetting bfgs history

     new trust radius        =       0.6560135374 bohr
     new conv_thr            =       0.0000010000 Ry

[...]

          total   stress  (Ry/bohr**3)                   (kbar)     P=-1108.24
  -0.00753370   0.00000000   0.00000000      -1108.24      0.00      0.00
   0.00000000  -0.00753370   0.00000000          0.00  -1108.24      0.00
   0.00000000   0.00000000  -0.00753370          0.00      0.00  -1108.24

     number of scf cycles    =   3
     number of bfgs steps    =   2

     enthalpy old            =   -1527.1724718902 Ry
     enthalpy new            =   -1526.1989462790 Ry

     CASE: enthalpy_new > enthalpy_old

     new trust radius        =       0.1973699638 bohr

     trust_radius < trust_radius_min

     resetting bfgs history

     Message from routine bfgs:
     history already reset at previous step: stopping
     new conv_thr            =       0.0000010000 Ry

     new unit-cell volume =   1049.79173 a.u.^3 (   155.56308 Ang^3 )

[...]

ATOMIC_POSITIONS (crystal)
Cr       0.000000000   0.500000000   0.250000000
Cr       0.000000000   0.500000000   0.750000000
Cr       0.500000000   0.750000000   0.000000000
Cr       0.500000000   0.250000000   0.000000000
Cr       0.750000000   0.000000000   0.500000000
Cr       0.250000000   0.000000000   0.500000000
Si       0.500000000   0.500000000   0.500000000
Si       0.000000000   0.000000000   0.000000000

     Writing output data file Prototype-La-cP8-Cr3Si.save
     NEW-OLD atomic charge density approx. for the potential
     NEW k-points:
        k(    1) = (   0.0000000   0.0000000   0.0000000), wk =   0.0095238
        k(    2) = (   0.0000000   0.0000000   0.1199636), wk =   0.0190476
        k(    3) = (   0.0000000   0.0000000   0.2399271), wk =   0.0190476
        k(    4) = (   0.0000000   0.0000000   0.3598907), wk =   0.0190476
        k(    5) = (   0.0000000   0.1399575   0.0000000), wk =   0.0190476
        k(    6) = (   0.0000000   0.1399575   0.1199636), wk =   0.0380952
        k(    7) = (   0.0000000   0.1399575   0.2399271), wk =   0.0380952
        k(    8) = (   0.0000000   0.1399575   0.3598907), wk =   0.0380952
        k(    9) = (   0.0000000   0.2799150   0.0000000), wk =   0.0190476
        k(   10) = (   0.0000000   0.2799150   0.1199636), wk =   0.0380952
        k(   11) = (   0.0000000   0.2799150   0.2399271), wk =   0.0380952
        k(   12) = (   0.0000000   0.2799150   0.3598907), wk =   0.0380952
        k(   13) = (   0.0000000  -0.4198725   0.0000000), wk =   0.0095238
        k(   14) = (   0.0000000  -0.4198725   0.1199636), wk =   0.0190476
        k(   15) = (   0.0000000  -0.4198725   0.2399271), wk =   0.0190476
        k(   16) = (   0.0000000  -0.4198725   0.3598907), wk =   0.0190476
        k(   17) = (   0.1679490   0.0000000   0.0000000), wk =   0.0190476
        k(   18) = (   0.1679490   0.0000000   0.1199636), wk =   0.0380952
        k(   19) = (   0.1679490   0.0000000   0.2399271), wk =   0.0380952
        k(   20) = (   0.1679490   0.0000000   0.3598907), wk =   0.0380952
        k(   21) = (   0.1679490   0.1399575   0.0000000), wk =   0.0380952
        k(   22) = (   0.1679490   0.1399575   0.1199636), wk =   0.0761905
        k(   23) = (   0.1679490   0.1399575   0.2399271), wk =   0.0761905
        k(   24) = (   0.1679490   0.1399575   0.3598907), wk =   0.0761905
        k(   25) = (   0.1679490   0.2799150   0.0000000), wk =   0.0380952
        k(   26) = (   0.1679490   0.2799150   0.1199636), wk =   0.0761905
        k(   27) = (   0.1679490   0.2799150   0.2399271), wk =   0.0761905
        k(   28) = (   0.1679490   0.2799150   0.3598907), wk =   0.0761905
        k(   29) = (   0.1679490  -0.4198725   0.0000000), wk =   0.0190476
        k(   30) = (   0.1679490  -0.4198725   0.1199636), wk =   0.0380952
        k(   31) = (   0.1679490  -0.4198725   0.2399271), wk =   0.0380952
        k(   32) = (   0.1679490  -0.4198725   0.3598907), wk =   0.0380952
        k(   33) = (   0.3358980   0.0000000   0.0000000), wk =   0.0190476
        k(   34) = (   0.3358980   0.0000000   0.1199636), wk =   0.0380952
        k(   35) = (   0.3358980   0.0000000   0.2399271), wk =   0.0380952
        k(   36) = (   0.3358980   0.0000000   0.3598907), wk =   0.0380952
        k(   37) = (   0.3358980   0.1399575   0.0000000), wk =   0.0380952
        k(   38) = (   0.3358980   0.1399575   0.1199636), wk =   0.0761905
        k(   39) = (   0.3358980   0.1399575   0.2399271), wk =   0.0761905
        k(   40) = (   0.3358980   0.1399575   0.3598907), wk =   0.0761905
        k(   41) = (   0.3358980   0.2799150   0.0000000), wk =   0.0380952
        k(   42) = (   0.3358980   0.2799150   0.1199636), wk =   0.0761905
        k(   43) = (   0.3358980   0.2799150   0.2399271), wk =   0.0761905
        k(   44) = (   0.3358980   0.2799150   0.3598907), wk =   0.0761905
        k(   45) = (   0.3358980  -0.4198725   0.0000000), wk =   0.0190476
        k(   46) = (   0.3358980  -0.4198725   0.1199636), wk =   0.0380952
        k(   47) = (   0.3358980  -0.4198725   0.2399271), wk =   0.0380952
        k(   48) = (   0.3358980  -0.4198725   0.3598907), wk =   0.0380952

[...]

     The maximum number of steps has been reached.

     End of BFGS Geometry Optimization
Begin final coordinates
     new unit-cell volume =   1049.79173 a.u.^3 (   155.56308 Ang^3 )

CELL_PARAMETERS (alat=  8.53457320)
   1.190837700   0.000000000   0.000000000
   0.000000000   1.190837700   0.000000000
   0.000000000   0.000000000   1.190837700

ATOMIC_POSITIONS (crystal)
Cr       0.000000000   0.500000000   0.250000000
Cr       0.000000000   0.500000000   0.750000000
Cr       0.500000000   0.750000000   0.000000000
Cr       0.500000000   0.250000000   0.000000000
Cr       0.750000000   0.000000000   0.500000000
Cr       0.250000000   0.000000000   0.500000000
Si       0.500000000   0.500000000   0.500000000
Si       0.000000000   0.000000000   0.000000000
End final coordinates

     A final scf calculation at the relaxed structure.
     The G-vectors are recalculated for the final unit cell
     Results may differ from those at the preceding step.

     bravais-lattice index     =            0
     lattice parameter (alat)  =       8.5346  a.u.
     unit-cell volume          =    1049.7917 (a.u.)^3
     number of atoms/cell      =            8
     number of atomic types    =            2
     number of electrons       =       138.00
     number of Kohn-Sham states=           83
     kinetic-energy cutoff     =      40.0000  Ry
     charge density cutoff     =     160.0000  Ry
     convergence threshold     =      1.0E-06
     mixing beta               =       0.7000
     number of iterations used =            8  plain     mixing
     Exchange-correlation      = SLA-PZ-NOGX-NOGC ( 1 1 0 0 0)
     EXX-fraction              =        0.00

     celldm(1)=   8.534573  celldm(2)=   0.000000  celldm(3)=   0.000000
     celldm(4)=   0.000000  celldm(5)=   0.000000  celldm(6)=   0.000000

     crystal axes: (cart. coord. in units of alat)
               a(1) = (   1.190838   0.000000   0.000000 )
               a(2) = (   0.000000   1.190838   0.000000 )
               a(3) = (   0.000000   0.000000   1.190838 )

     reciprocal axes: (cart. coord. in units 2 pi/alat)
               b(1) = (  0.839745  0.000000  0.000000 )
               b(2) = (  0.000000  0.839745  0.000000 )
               b(3) = (  0.000000  0.000000  0.839745 )

     PseudoPot. # 1 for Tb read from file:
     /home/cwx6513/pp.La/Tb.UPF
     MD5 check sum: 3d6088a3f0cf7fd2e110c43f7f8e95c2
     Pseudo is Norm-conserving, Zval = 19.0
     Generated in analytical, separable form
     Using radial grid of 1263 points,  6 beta functions with:
                l(1) =   0
                l(2) =   0
                l(3) =   1
                l(4) =   1
                l(5) =   2
                l(6) =   3

     PseudoPot. # 2 for Ce read from file:
     /home/cwx6513/pp.La/Ce.UPF
     MD5 check sum: 44451aa79a44a00cf2bc029dc19922f6
     Pseudo is Norm-conserving, Zval = 12.0
     Generated in analytical, separable form
     Using radial grid of 1255 points,  6 beta functions with:
                l(1) =   0
                l(2) =   0
                l(3) =   1
                l(4) =   1
                l(5) =   2
                l(6) =   3

     atomic species   valence    mass     pseudopotential
        Cr            19.00    51.99610     Tb( 1.00)
        Si            12.00    28.08550     Ce( 1.00)

     48 Sym. Ops., with inversion, found (24 have fractional translation)

   Cartesian axes

     site n.     atom                  positions (alat units)
         1           Cr  tau(   1) = (   0.0000000   0.5954188   0.2977094  )
         2           Cr  tau(   2) = (   0.0000000   0.5954188   0.8931283  )
         3           Cr  tau(   3) = (   0.5954188   0.8931283   0.0000000  )
         4           Cr  tau(   4) = (   0.5954188   0.2977094   0.0000000  )
         5           Cr  tau(   5) = (   0.8931283   0.0000000   0.5954188  )
         6           Cr  tau(   6) = (   0.2977094   0.0000000   0.5954188  )
         7           Si  tau(   7) = (   0.5954188   0.5954188   0.5954188  )
         8           Si  tau(   8) = (   0.0000000   0.0000000   0.0000000  )

     number of k points=    48  gaussian smearing, width (Ry)=  0.1000
                       cart. coord. in units 2pi/alat
        k(    1) = (   0.0000000   0.0000000   0.0000000), wk =   0.0095238
        k(    2) = (   0.0000000   0.0000000   0.1199636), wk =   0.0190476
        k(    3) = (   0.0000000   0.0000000   0.2399271), wk =   0.0190476
        k(    4) = (   0.0000000   0.0000000   0.3598907), wk =   0.0190476
        k(    5) = (   0.0000000   0.1399575   0.0000000), wk =   0.0190476
        k(    6) = (   0.0000000   0.1399575   0.1199636), wk =   0.0380952
        k(    7) = (   0.0000000   0.1399575   0.2399271), wk =   0.0380952
        k(    8) = (   0.0000000   0.1399575   0.3598907), wk =   0.0380952
        k(    9) = (   0.0000000   0.2799150   0.0000000), wk =   0.0190476
        k(   10) = (   0.0000000   0.2799150   0.1199636), wk =   0.0380952
        k(   11) = (   0.0000000   0.2799150   0.2399271), wk =   0.0380952
        k(   12) = (   0.0000000   0.2799150   0.3598907), wk =   0.0380952
        k(   13) = (   0.0000000  -0.4198725   0.0000000), wk =   0.0095238
        k(   14) = (   0.0000000  -0.4198725   0.1199636), wk =   0.0190476
        k(   15) = (   0.0000000  -0.4198725   0.2399271), wk =   0.0190476
        k(   16) = (   0.0000000  -0.4198725   0.3598907), wk =   0.0190476
        k(   17) = (   0.1679490   0.0000000   0.0000000), wk =   0.0190476
        k(   18) = (   0.1679490   0.0000000   0.1199636), wk =   0.0380952
        k(   19) = (   0.1679490   0.0000000   0.2399271), wk =   0.0380952
        k(   20) = (   0.1679490   0.0000000   0.3598907), wk =   0.0380952
        k(   21) = (   0.1679490   0.1399575   0.0000000), wk =   0.0380952
        k(   22) = (   0.1679490   0.1399575   0.1199636), wk =   0.0761905
        k(   23) = (   0.1679490   0.1399575   0.2399271), wk =   0.0761905
        k(   24) = (   0.1679490   0.1399575   0.3598907), wk =   0.0761905
        k(   25) = (   0.1679490   0.2799150   0.0000000), wk =   0.0380952
        k(   26) = (   0.1679490   0.2799150   0.1199636), wk =   0.0761905
        k(   27) = (   0.1679490   0.2799150   0.2399271), wk =   0.0761905
        k(   28) = (   0.1679490   0.2799150   0.3598907), wk =   0.0761905
        k(   29) = (   0.1679490  -0.4198725   0.0000000), wk =   0.0190476
        k(   30) = (   0.1679490  -0.4198725   0.1199636), wk =   0.0380952
        k(   31) = (   0.1679490  -0.4198725   0.2399271), wk =   0.0380952
        k(   32) = (   0.1679490  -0.4198725   0.3598907), wk =   0.0380952
        k(   33) = (   0.3358980   0.0000000   0.0000000), wk =   0.0190476
        k(   34) = (   0.3358980   0.0000000   0.1199636), wk =   0.0380952
        k(   35) = (   0.3358980   0.0000000   0.2399271), wk =   0.0380952
        k(   36) = (   0.3358980   0.0000000   0.3598907), wk =   0.0380952
        k(   37) = (   0.3358980   0.1399575   0.0000000), wk =   0.0380952
        k(   38) = (   0.3358980   0.1399575   0.1199636), wk =   0.0761905
        k(   39) = (   0.3358980   0.1399575   0.2399271), wk =   0.0761905
        k(   40) = (   0.3358980   0.1399575   0.3598907), wk =   0.0761905
        k(   41) = (   0.3358980   0.2799150   0.0000000), wk =   0.0380952
        k(   42) = (   0.3358980   0.2799150   0.1199636), wk =   0.0761905
        k(   43) = (   0.3358980   0.2799150   0.2399271), wk =   0.0761905
        k(   44) = (   0.3358980   0.2799150   0.3598907), wk =   0.0761905
        k(   45) = (   0.3358980  -0.4198725   0.0000000), wk =   0.0190476
        k(   46) = (   0.3358980  -0.4198725   0.1199636), wk =   0.0380952
        k(   47) = (   0.3358980  -0.4198725   0.2399271), wk =   0.0380952
        k(   48) = (   0.3358980  -0.4198725   0.3598907), wk =   0.0380952

     Largest allocated arrays     est. size (Mb)     dimensions
     Largest temporary arrays     est. size (Mb)     dimensions

     Initial potential from superposition of free atoms

     Starting from uniform charge
     Starting wfc are    0 randomized atomic wfcs

     Writing output data file Prototype-La-cP8-Cr3Si.save

     Self-consistent Calculation

[...]

     iteration # 10     ecut=    40.00 Ry     beta=0.70
     CG style diagonalization
     c_bands:  1 eigenvalues not converged
     ethr =  2.24E-08,  avg # of iterations =  5.2

[...]

     total energy              =   -1530.74032034 Ry
     Harris-Foulkes estimate   =   -1530.74032164 Ry
     estimated scf accuracy    <       0.00000255 Ry

     iteration # 12     ecut=    40.00 Ry     beta=0.70
     CG style diagonalization
     ethr =  1.84E-09,  avg # of iterations =  3.9

     End of self-consistent calculation

[...]

          k = 0.3359-0.4199 0.3599 (  4510 PWs)   bands (ev):

   -50.6001 -50.5959 -50.5830 -50.5829 -50.5704 -50.5661 -19.2642 -19.2162
   -19.0984 -19.0971 -19.0088 -19.0060 -18.9826 -18.9470 -18.9110 -18.9003
   -18.8958 -18.8869 -18.8747 -18.8702 -18.8590 -18.8561 -18.8449 -18.8448
   -12.9204 -12.9204   4.8321   4.8347   4.8540   4.8540   4.8667   4.8681
    17.0615  17.0771  17.1359  17.2052  17.2952  17.2963  17.4813  17.6176
    17.7961  17.8207  17.8504  17.8591  17.8822  17.9105  17.9531  17.9765
    18.7621  18.7681  18.8830  18.9132  19.0618  19.0715  19.4984  19.6398
    19.6824  19.7312  19.8689  19.8900  20.0176  20.0719  22.5591  22.5608
    23.0881  23.1325  23.3185  23.4352  25.5701  25.5707  27.0956  27.1096
    27.1365  27.1498  27.6128  27.8015  28.3286  28.3556  28.8903  29.0695
    31.7976  32.1099  33.0311

     the Fermi energy is    25.4787 ev

!    total energy              =   -1530.74032131 Ry
     Harris-Foulkes estimate   =   -1530.74032146 Ry
     estimated scf accuracy    <       0.00000017 Ry

     The total energy is the sum of the following terms:

     one-electron contribution =    -224.30349816 Ry
     hartree contribution      =     218.25815767 Ry
     xc contribution           =    -153.24914080 Ry
     ewald contribution        =   -1371.18683405 Ry
     smearing contrib. (-TS)   =      -0.25900596 Ry

     convergence has been achieved in  12 iterations

     Forces acting on atoms (Ry/au):

     atom    1 type  1   force =     0.00000000    0.00000000    0.00000000
     atom    2 type  1   force =     0.00000000    0.00000000    0.00000000
     atom    3 type  1   force =     0.00000000    0.00000000    0.00000000
     atom    4 type  1   force =     0.00000000    0.00000000    0.00000000
     atom    5 type  1   force =     0.00000000    0.00000000    0.00000000
     atom    6 type  1   force =     0.00000000    0.00000000    0.00000000
     atom    7 type  2   force =     0.00000000    0.00000000    0.00000000
     atom    8 type  2   force =     0.00000000    0.00000000    0.00000000

     Total force =     0.000000     Total SCF correction =     0.000000

     entering subroutine stress ...

          total   stress  (Ry/bohr**3)                   (kbar)     P=   33.07
   0.00022480   0.00000000   0.00000000         33.07      0.00      0.00
   0.00000000   0.00022480   0.00000000          0.00     33.07      0.00
   0.00000000   0.00000000   0.00022480          0.00      0.00     33.07

     Writing output data file Prototype-La-cP8-Cr3Si.save

     General routines

     Parallel routines

   This run was terminated on:  18:17:30  22Mar2018

   JOB DONE.