     Program PWSCF v.5.0.2 starts on 22Mar2018 at 16:18:56

     Current dimensions of program PWSCF are:
     Max number of different atomic species (ntypx) = 10
     Max number of k-points (npk) =  40000
     Max angular momentum in pseudopotentials (lmaxx) =  3
     Waiting for input...
     Reading input from standard input

     Subspace diagonalization in iterative solution of the eigenvalue problem:
     a serial algorithm will be used

     bravais-lattice index     =            0
     lattice parameter (alat)  =      12.0168  a.u.
     unit-cell volume          =    1187.3413 (a.u.)^3
     number of atoms/cell      =            8
     number of atomic types    =            2
     number of electrons       =       120.00
     number of Kohn-Sham states=           72
     kinetic-energy cutoff     =      40.0000  Ry
     charge density cutoff     =     160.0000  Ry
     convergence threshold     =      1.0E-04
     mixing beta               =       0.7000
     number of iterations used =            8  plain     mixing
     Exchange-correlation      = SLA-PZ-NOGX-NOGC ( 1 1 0 0 0)
     EXX-fraction              =        0.00
     nstep                     =           50

     celldm(1)=  12.016801  celldm(2)=   0.000000  celldm(3)=   0.000000
     celldm(4)=   0.000000  celldm(5)=   0.000000  celldm(6)=   0.000000

     crystal axes: (cart. coord. in units of alat)
               a(1) = (   1.000000   0.000000   0.000000 )
               a(2) = (  -0.500000   0.866025   0.000000 )
               a(3) = (   0.000000   0.000000   0.790093 )

     reciprocal axes: (cart. coord. in units 2 pi/alat)
               b(1) = (  1.000000  0.577350  0.000000 )
               b(2) = (  0.000000  1.154701  0.000000 )
               b(3) = (  0.000000  0.000000  1.265674 )

     PseudoPot. # 1 for Pr read from file:
     /home/cwx6513/pp.La/Pr.UPF
     MD5 check sum: 70e2b4b153859e92c8c91247dfc63203
     Pseudo is Norm-conserving, Zval = 13.0
     Generated in analytical, separable form
     Using radial grid of 1255 points,  6 beta functions with:
                l(1) =   0
                l(2) =   0
                l(3) =   1
                l(4) =   1
                l(5) =   2
                l(6) =   3

     PseudoPot. # 2 for Ho read from file:
     /home/cwx6513/pp.La/Ho.UPF
     MD5 check sum: f307ee11bce99f5b724fa279e3790763
     Pseudo is Norm-conserving, Zval = 21.0
     Generated in analytical, separable form
     Using radial grid of 1265 points,  6 beta functions with:
                l(1) =   0
                l(2) =   0
                l(3) =   1
                l(4) =   1
                l(5) =   2
                l(6) =   3

     atomic species   valence    mass     pseudopotential
        Mg            13.00    24.30500     Pr( 1.00)
        Cd            21.00   112.41100     Ho( 1.00)

     24 Sym. Ops., with inversion, found (12 have fractional translation)

   Cartesian axes

     site n.     atom                  positions (alat units)
         1           Mg  tau(   1) = (   0.2478935   0.7204716   0.1975233  )
         2           Mg  tau(   2) = (   0.7478935   0.1455538   0.5925699  )
         3           Mg  tau(   3) = (   0.2521065   0.1455538   0.5925699  )
         4           Mg  tau(   4) = (  -0.2478935   0.7204716   0.1975233  )
         5           Mg  tau(   5) = (   0.0000000   0.2911075   0.1975233  )
         6           Mg  tau(   6) = (   0.5000000   0.5749179   0.5925699  )
         7           Cd  tau(   7) = (   0.5000005   0.2886748   0.1975233  )
         8           Cd  tau(   8) = (  -0.0000005   0.5773506   0.5925699  )

     number of k points=    64  gaussian smearing, width (Ry)=  0.1000
                       cart. coord. in units 2pi/alat
        k(    1) = (   0.0000000   0.0000000   0.0000000), wk =   0.0095238
        k(    2) = (   0.0000000   0.0000000   0.1808105), wk =   0.0190476
        k(    3) = (   0.0000000   0.0000000   0.3616210), wk =   0.0190476
        k(    4) = (   0.0000000   0.0000000   0.5424315), wk =   0.0190476
        k(    5) = (   0.0000000   0.1924501   0.0000000), wk =   0.0190476
        k(    6) = (   0.0000000   0.1924501   0.1808105), wk =   0.0380952
        k(    7) = (   0.0000000   0.1924501   0.3616210), wk =   0.0380952
        k(    8) = (   0.0000000   0.1924501   0.5424315), wk =   0.0380952
        k(    9) = (   0.0000000   0.3849002   0.0000000), wk =   0.0190476
        k(   10) = (   0.0000000   0.3849002   0.1808105), wk =   0.0380952
        k(   11) = (   0.0000000   0.3849002   0.3616210), wk =   0.0380952
        k(   12) = (   0.0000000   0.3849002   0.5424315), wk =   0.0380952
        k(   13) = (   0.0000000  -0.5773503   0.0000000), wk =   0.0095238
        k(   14) = (   0.0000000  -0.5773503   0.1808105), wk =   0.0190476
        k(   15) = (   0.0000000  -0.5773503   0.3616210), wk =   0.0190476
        k(   16) = (   0.0000000  -0.5773503   0.5424315), wk =   0.0190476
        k(   17) = (   0.2000000   0.1154701   0.0000000), wk =   0.0190476
        k(   18) = (   0.2000000   0.1154701   0.1808105), wk =   0.0380952
        k(   19) = (   0.2000000   0.1154701   0.3616210), wk =   0.0380952
        k(   20) = (   0.2000000   0.1154701   0.5424315), wk =   0.0380952
        k(   21) = (   0.2000000   0.3079201   0.0000000), wk =   0.0190476
        k(   22) = (   0.2000000   0.3079201   0.1808105), wk =   0.0380952
        k(   23) = (   0.2000000   0.3079201   0.3616210), wk =   0.0380952
        k(   24) = (   0.2000000   0.3079201   0.5424315), wk =   0.0380952
        k(   25) = (   0.2000000   0.5003702   0.0000000), wk =   0.0190476
        k(   26) = (   0.2000000   0.5003702   0.1808105), wk =   0.0380952
        k(   27) = (   0.2000000   0.5003702   0.3616210), wk =   0.0380952
        k(   28) = (   0.2000000   0.5003702   0.5424315), wk =   0.0380952
        k(   29) = (   0.2000000  -0.4618802   0.0000000), wk =   0.0190476
        k(   30) = (   0.2000000  -0.4618802   0.1808105), wk =   0.0380952
        k(   31) = (   0.2000000  -0.4618802   0.3616210), wk =   0.0380952
        k(   32) = (   0.2000000  -0.4618802   0.5424315), wk =   0.0380952
        k(   33) = (   0.2000000  -0.2694301   0.0000000), wk =   0.0190476
        k(   34) = (   0.2000000  -0.2694301   0.1808105), wk =   0.0380952
        k(   35) = (   0.2000000  -0.2694301   0.3616210), wk =   0.0380952
        k(   36) = (   0.2000000  -0.2694301   0.5424315), wk =   0.0380952
        k(   37) = (   0.2000000  -0.0769800   0.0000000), wk =   0.0190476
        k(   38) = (   0.2000000  -0.0769800   0.1808105), wk =   0.0380952
        k(   39) = (   0.2000000  -0.0769800   0.3616210), wk =   0.0380952
        k(   40) = (   0.2000000  -0.0769800   0.5424315), wk =   0.0380952
        k(   41) = (   0.4000000   0.2309401   0.0000000), wk =   0.0190476
        k(   42) = (   0.4000000   0.2309401   0.1808105), wk =   0.0380952
        k(   43) = (   0.4000000   0.2309401   0.3616210), wk =   0.0380952
        k(   44) = (   0.4000000   0.2309401   0.5424315), wk =   0.0380952
        k(   45) = (   0.4000000   0.4233902   0.0000000), wk =   0.0190476
        k(   46) = (   0.4000000   0.4233902   0.1808105), wk =   0.0380952
        k(   47) = (   0.4000000   0.4233902   0.3616210), wk =   0.0380952
        k(   48) = (   0.4000000   0.4233902   0.5424315), wk =   0.0380952
        k(   49) = (   0.4000000   0.6158403   0.0000000), wk =   0.0190476
        k(   50) = (   0.4000000   0.6158403   0.1808105), wk =   0.0380952
        k(   51) = (   0.4000000   0.6158403   0.3616210), wk =   0.0380952
        k(   52) = (   0.4000000   0.6158403   0.5424315), wk =   0.0380952
        k(   53) = (   0.4000000  -0.3464102   0.0000000), wk =   0.0190476
        k(   54) = (   0.4000000  -0.3464102   0.1808105), wk =   0.0380952
        k(   55) = (   0.4000000  -0.3464102   0.3616210), wk =   0.0380952
        k(   56) = (   0.4000000  -0.3464102   0.5424315), wk =   0.0380952
        k(   57) = (   0.4000000  -0.1539601   0.0000000), wk =   0.0190476
        k(   58) = (   0.4000000  -0.1539601   0.1808105), wk =   0.0380952
        k(   59) = (   0.4000000  -0.1539601   0.3616210), wk =   0.0380952
        k(   60) = (   0.4000000  -0.1539601   0.5424315), wk =   0.0380952
        k(   61) = (   0.4000000   0.0384900   0.0000000), wk =   0.0190476
        k(   62) = (   0.4000000   0.0384900   0.1808105), wk =   0.0380952
        k(   63) = (   0.4000000   0.0384900   0.3616210), wk =   0.0380952
        k(   64) = (   0.4000000   0.0384900   0.5424315), wk =   0.0380952

     Largest allocated arrays     est. size (Mb)     dimensions
     Largest temporary arrays     est. size (Mb)     dimensions

     Initial potential from superposition of free atoms
     Check: negative starting charge=   -0.002192

     starting charge   77.94326, renormalised to  120.00000

     negative rho (up, down):  0.337E-02 0.000E+00
     Starting wfc are  120 randomized atomic wfcs

     Self-consistent Calculation

     iteration #  1     ecut=    40.00 Ry     beta=0.70
     CG style diagonalization
     c_bands:  1 eigenvalues not converged
     ethr =  1.00E-02,  avg # of iterations = 21.2

     negative rho (up, down):  0.100E-02 0.000E+00

     total energy              =     551.86906766 Ry
     Harris-Foulkes estimate   =   -2335.43811020 Ry
     estimated scf accuracy    <    3382.40266787 Ry

     iteration #  2     ecut=    40.00 Ry     beta=0.70
     CG style diagonalization
     ethr =  1.00E-02,  avg # of iterations = 22.4

[...]

     End of self-consistent calculation

          k = 0.0000 0.0000 0.0000 (  5047 PWs)   bands (ev):

   -69.7685 -69.7648 -33.9218 -33.9151 -33.8900 -33.8900 -33.8814 -33.8814
   -21.4926 -21.1535 -21.1534 -21.1041 -20.9636 -20.9635  -2.4485  -2.2817
    -1.9438  -1.7476  -1.7475  -1.5699  -1.5698  -1.5524  -1.5523  -1.0441
    -0.6391  -0.6390  -0.3158  -0.3157  -0.3096  -0.2991  -0.2990  -0.2883
     9.8706   9.8706   9.9325   9.9814   9.9995   9.9995  10.0300  10.0300
    10.1772  10.1772  13.8166  14.5537  16.9954  17.9454  18.7519  18.7519
    18.7920  19.0655  19.0655  19.8608  19.8609  20.0135  20.4863  20.4863
    20.6802  21.5653  21.5653  21.9169  21.9169  22.0384  23.3402  23.7786
    23.7786  24.2247  24.2247  24.9207  24.9208  24.9693  24.9695  25.2991

[...]

     the Fermi energy is    21.7242 ev

!    total energy              =   -1144.85519621 Ry
     Harris-Foulkes estimate   =   -1144.85521701 Ry
     estimated scf accuracy    <       0.00002301 Ry

     The total energy is the sum of the following terms:

     one-electron contribution =    -186.11674563 Ry
     hartree contribution      =     169.24756963 Ry
     xc contribution           =    -121.38391904 Ry
     ewald contribution        =   -1006.13668697 Ry
     smearing contrib. (-TS)   =      -0.46541420 Ry

     convergence has been achieved in  15 iterations

     Forces acting on atoms (Ry/au):

     atom    1 type  1   force =     0.03610800    0.02084696    0.00000000
     atom    2 type  1   force =     0.03610800   -0.02084696    0.00000000
[...]
        k(   15) = (   0.0000000  -0.5814364   0.3547689), wk =   0.0190476
        k(   16) = (   0.0000000  -0.5814364   0.5321534), wk =   0.0190476
        k(   17) = (   0.2014155   0.1162873   0.0000000), wk =   0.0190476
        k(   18) = (   0.2014155   0.1162873   0.1773845), wk =   0.0380952
        k(   19) = (   0.2014155   0.1162873   0.3547689), wk =   0.0380952
        k(   20) = (   0.2014155   0.1162873   0.5321534), wk =   0.0380952
        k(   21) = (   0.2014155   0.3100994   0.0000000), wk =   0.0190476
        k(   22) = (   0.2014155   0.3100994   0.1773845), wk =   0.0380952
        k(   23) = (   0.2014155   0.3100994   0.3547689), wk =   0.0380952
        k(   24) = (   0.2014155   0.3100994   0.5321534), wk =   0.0380952
        k(   25) = (   0.2014155   0.5039115   0.0000000), wk =   0.0190476
        k(   26) = (   0.2014155   0.5039115   0.1773845), wk =   0.0380952
        k(   27) = (   0.2014155   0.5039115   0.3547689), wk =   0.0380952
        k(   28) = (   0.2014155   0.5039115   0.5321534), wk =   0.0380952
        k(   29) = (   0.2014155  -0.4651491   0.0000000), wk =   0.0190476
        k(   30) = (   0.2014155  -0.4651491   0.1773845), wk =   0.0380952
        k(   31) = (   0.2014155  -0.4651491   0.3547689), wk =   0.0380952
        k(   32) = (   0.2014155  -0.4651491   0.5321534), wk =   0.0380952
        k(   33) = (   0.2014155  -0.2713370   0.0000000), wk =   0.0190476
        k(   34) = (   0.2014155  -0.2713370   0.1773845), wk =   0.0380952
        k(   35) = (   0.2014155  -0.2713370   0.3547689), wk =   0.0380952
        k(   36) = (   0.2014155  -0.2713370   0.5321534), wk =   0.0380952
        k(   37) = (   0.2014155  -0.0775249   0.0000000), wk =   0.0190476
        k(   38) = (   0.2014155  -0.0775249   0.1773845), wk =   0.0380952
        k(   39) = (   0.2014155  -0.0775249   0.3547689), wk =   0.0380952
        k(   40) = (   0.2014155  -0.0775249   0.5321534), wk =   0.0380952
        k(   41) = (   0.4028309   0.2325746   0.0000000), wk =   0.0190476
        k(   42) = (   0.4028309   0.2325746   0.1773845), wk =   0.0380952
        k(   43) = (   0.4028309   0.2325746   0.3547689), wk =   0.0380952
        k(   44) = (   0.4028309   0.2325746   0.5321534), wk =   0.0380952
        k(   45) = (   0.4028309   0.4263867   0.0000000), wk =   0.0190476
        k(   46) = (   0.4028309   0.4263867   0.1773845), wk =   0.0380952
        k(   47) = (   0.4028309   0.4263867   0.3547689), wk =   0.0380952
        k(   48) = (   0.4028309   0.4263867   0.5321534), wk =   0.0380952
        k(   49) = (   0.4028309   0.6201988   0.0000000), wk =   0.0190476
        k(   50) = (   0.4028309   0.6201988   0.1773845), wk =   0.0380952
        k(   51) = (   0.4028309   0.6201988   0.3547689), wk =   0.0380952
        k(   52) = (   0.4028309   0.6201988   0.5321534), wk =   0.0380952
        k(   53) = (   0.4028309  -0.3488618   0.0000000), wk =   0.0190476
        k(   54) = (   0.4028309  -0.3488618   0.1773845), wk =   0.0380952
        k(   55) = (   0.4028309  -0.3488618   0.3547689), wk =   0.0380952
        k(   56) = (   0.4028309  -0.3488618   0.5321534), wk =   0.0380952
        k(   57) = (   0.4028309  -0.1550497   0.0000000), wk =   0.0190476
        k(   58) = (   0.4028309  -0.1550497   0.1773845), wk =   0.0380952
        k(   59) = (   0.4028309  -0.1550497   0.3547689), wk =   0.0380952
        k(   60) = (   0.4028309  -0.1550497   0.5321534), wk =   0.0380952
        k(   61) = (   0.4028309   0.0387624   0.0000000), wk =   0.0190476
        k(   62) = (   0.4028309   0.0387624   0.1773845), wk =   0.0380952
        k(   63) = (   0.4028309   0.0387624   0.3547689), wk =   0.0380952
        k(   64) = (   0.4028309   0.0387624   0.5321534), wk =   0.0380952
     Check: negative starting charge=   -0.002286

     negative rho (up, down):  0.538E-03 0.000E+00
     extrapolated charge  120.37285, renormalised to  120.00000

[...]

     The maximum number of steps has been reached.

     End of BFGS Geometry Optimization
Begin final coordinates
     new unit-cell volume =   1193.32290 a.u.^3 (   176.83221 Ang^3 )

CELL_PARAMETERS (alat= 12.01680127)
   0.992972372   0.000000000   0.000000000
  -0.496486186   0.859939299   0.000000000
   0.000000000   0.000000000   0.805353177

ATOMIC_POSITIONS (crystal)
Mg       0.671146887   0.835573443   0.250000000
Mg       0.835573443   0.164426557   0.750000000
Mg       0.328853113   0.164426557   0.750000000
Mg       0.164426557   0.835573443   0.250000000
Mg       0.164426557   0.328853113   0.250000000
Mg       0.835573443   0.671146887   0.750000000
Cd       0.666667000   0.333333000   0.250000000
Cd       0.333333000   0.666667000   0.750000000
End final coordinates

     A final scf calculation at the relaxed structure.
     The G-vectors are recalculated for the final unit cell
     Results may differ from those at the preceding step.

     bravais-lattice index     =            0
     lattice parameter (alat)  =      12.0168  a.u.
     unit-cell volume          =    1193.3229 (a.u.)^3
     number of atoms/cell      =            8
     number of atomic types    =            2
     number of electrons       =       120.00
     number of Kohn-Sham states=           72
     kinetic-energy cutoff     =      40.0000  Ry
     charge density cutoff     =     160.0000  Ry
     convergence threshold     =      1.6E-05
     mixing beta               =       0.7000
     number of iterations used =            8  plain     mixing
     Exchange-correlation      = SLA-PZ-NOGX-NOGC ( 1 1 0 0 0)
     EXX-fraction              =        0.00

     celldm(1)=  12.016801  celldm(2)=   0.000000  celldm(3)=   0.000000
     celldm(4)=   0.000000  celldm(5)=   0.000000  celldm(6)=   0.000000

     crystal axes: (cart. coord. in units of alat)
               a(1) = (   0.992972   0.000000   0.000000 )
               a(2) = (  -0.496486   0.859939   0.000000 )
               a(3) = (   0.000000   0.000000   0.805353 )

     reciprocal axes: (cart. coord. in units 2 pi/alat)
               b(1) = (  1.007077  0.581436  0.000000 )
               b(2) = (  0.000000  1.162873  0.000000 )
               b(3) = (  0.000000  0.000000  1.241691 )

     PseudoPot. # 1 for Pr read from file:
     /home/cwx6513/pp.La/Pr.UPF
     MD5 check sum: 70e2b4b153859e92c8c91247dfc63203
     Pseudo is Norm-conserving, Zval = 13.0
     Generated in analytical, separable form
     Using radial grid of 1255 points,  6 beta functions with:
                l(1) =   0
                l(2) =   0
                l(3) =   1
                l(4) =   1
                l(5) =   2
                l(6) =   3

     PseudoPot. # 2 for Ho read from file:
     /home/cwx6513/pp.La/Ho.UPF
     MD5 check sum: f307ee11bce99f5b724fa279e3790763
     Pseudo is Norm-conserving, Zval = 21.0
     Generated in analytical, separable form
     Using radial grid of 1265 points,  6 beta functions with:
                l(1) =   0
                l(2) =   0
                l(3) =   1
                l(4) =   1
                l(5) =   2
                l(6) =   3

     atomic species   valence    mass     pseudopotential
        Mg            13.00    24.30500     Pr( 1.00)
        Cd            21.00   112.41100     Ho( 1.00)

     24 Sym. Ops., with inversion, found (12 have fractional translation)

   Cartesian axes

     site n.     atom                  positions (alat units)
         1           Mg  tau(   1) = (   0.2515796   0.7185424   0.2013383  )
         2           Mg  tau(   2) = (   0.7480658   0.1413969   0.6040149  )
         3           Mg  tau(   3) = (   0.2449065   0.1413969   0.6040149  )
         4           Mg  tau(   4) = (  -0.2515796   0.7185424   0.2013383  )
         5           Mg  tau(   5) = (   0.0000000   0.2827937   0.2013383  )
         6           Mg  tau(   6) = (   0.4964862   0.5771456   0.6040149  )
         7           Cd  tau(   7) = (   0.4964867   0.2866461   0.2013383  )
         8           Cd  tau(   8) = (  -0.0000005   0.5732932   0.6040149  )

     number of k points=    64  gaussian smearing, width (Ry)=  0.1000
                       cart. coord. in units 2pi/alat
        k(    1) = (   0.0000000   0.0000000   0.0000000), wk =   0.0095238
        k(    2) = (   0.0000000   0.0000000   0.1773845), wk =   0.0190476
        k(    3) = (   0.0000000   0.0000000   0.3547689), wk =   0.0190476
        k(    4) = (   0.0000000   0.0000000   0.5321534), wk =   0.0190476
        k(    5) = (   0.0000000   0.1938121   0.0000000), wk =   0.0190476
        k(    6) = (   0.0000000   0.1938121   0.1773845), wk =   0.0380952
        k(    7) = (   0.0000000   0.1938121   0.3547689), wk =   0.0380952
        k(    8) = (   0.0000000   0.1938121   0.5321534), wk =   0.0380952
        k(    9) = (   0.0000000   0.3876243   0.0000000), wk =   0.0190476
        k(   10) = (   0.0000000   0.3876243   0.1773845), wk =   0.0380952
        k(   11) = (   0.0000000   0.3876243   0.3547689), wk =   0.0380952
        k(   12) = (   0.0000000   0.3876243   0.5321534), wk =   0.0380952
        k(   13) = (   0.0000000  -0.5814364   0.0000000), wk =   0.0095238
        k(   14) = (   0.0000000  -0.5814364   0.1773845), wk =   0.0190476
        k(   15) = (   0.0000000  -0.5814364   0.3547689), wk =   0.0190476
        k(   16) = (   0.0000000  -0.5814364   0.5321534), wk =   0.0190476
        k(   17) = (   0.2014155   0.1162873   0.0000000), wk =   0.0190476
        k(   18) = (   0.2014155   0.1162873   0.1773845), wk =   0.0380952
        k(   19) = (   0.2014155   0.1162873   0.3547689), wk =   0.0380952
        k(   20) = (   0.2014155   0.1162873   0.5321534), wk =   0.0380952
        k(   21) = (   0.2014155   0.3100994   0.0000000), wk =   0.0190476
        k(   22) = (   0.2014155   0.3100994   0.1773845), wk =   0.0380952
        k(   23) = (   0.2014155   0.3100994   0.3547689), wk =   0.0380952
        k(   24) = (   0.2014155   0.3100994   0.5321534), wk =   0.0380952
        k(   25) = (   0.2014155   0.5039115   0.0000000), wk =   0.0190476
        k(   26) = (   0.2014155   0.5039115   0.1773845), wk =   0.0380952
        k(   27) = (   0.2014155   0.5039115   0.3547689), wk =   0.0380952
        k(   28) = (   0.2014155   0.5039115   0.5321534), wk =   0.0380952
        k(   29) = (   0.2014155  -0.4651491   0.0000000), wk =   0.0190476
        k(   30) = (   0.2014155  -0.4651491   0.1773845), wk =   0.0380952
        k(   31) = (   0.2014155  -0.4651491   0.3547689), wk =   0.0380952
        k(   32) = (   0.2014155  -0.4651491   0.5321534), wk =   0.0380952
        k(   33) = (   0.2014155  -0.2713370   0.0000000), wk =   0.0190476
        k(   34) = (   0.2014155  -0.2713370   0.1773845), wk =   0.0380952
        k(   35) = (   0.2014155  -0.2713370   0.3547689), wk =   0.0380952
        k(   36) = (   0.2014155  -0.2713370   0.5321534), wk =   0.0380952
        k(   37) = (   0.2014155  -0.0775249   0.0000000), wk =   0.0190476
        k(   38) = (   0.2014155  -0.0775249   0.1773845), wk =   0.0380952
        k(   39) = (   0.2014155  -0.0775249   0.3547689), wk =   0.0380952
        k(   40) = (   0.2014155  -0.0775249   0.5321534), wk =   0.0380952
        k(   41) = (   0.4028309   0.2325746   0.0000000), wk =   0.0190476
        k(   42) = (   0.4028309   0.2325746   0.1773845), wk =   0.0380952
        k(   43) = (   0.4028309   0.2325746   0.3547689), wk =   0.0380952
        k(   44) = (   0.4028309   0.2325746   0.5321534), wk =   0.0380952
        k(   45) = (   0.4028309   0.4263867   0.0000000), wk =   0.0190476
        k(   46) = (   0.4028309   0.4263867   0.1773845), wk =   0.0380952
        k(   47) = (   0.4028309   0.4263867   0.3547689), wk =   0.0380952
        k(   48) = (   0.4028309   0.4263867   0.5321534), wk =   0.0380952
        k(   49) = (   0.4028309   0.6201988   0.0000000), wk =   0.0190476
        k(   50) = (   0.4028309   0.6201988   0.1773845), wk =   0.0380952
        k(   51) = (   0.4028309   0.6201988   0.3547689), wk =   0.0380952
        k(   52) = (   0.4028309   0.6201988   0.5321534), wk =   0.0380952
        k(   53) = (   0.4028309  -0.3488618   0.0000000), wk =   0.0190476
        k(   54) = (   0.4028309  -0.3488618   0.1773845), wk =   0.0380952
        k(   55) = (   0.4028309  -0.3488618   0.3547689), wk =   0.0380952
        k(   56) = (   0.4028309  -0.3488618   0.5321534), wk =   0.0380952
        k(   57) = (   0.4028309  -0.1550497   0.0000000), wk =   0.0190476
        k(   58) = (   0.4028309  -0.1550497   0.1773845), wk =   0.0380952
        k(   59) = (   0.4028309  -0.1550497   0.3547689), wk =   0.0380952
        k(   60) = (   0.4028309  -0.1550497   0.5321534), wk =   0.0380952
        k(   61) = (   0.4028309   0.0387624   0.0000000), wk =   0.0190476
        k(   62) = (   0.4028309   0.0387624   0.1773845), wk =   0.0380952
        k(   63) = (   0.4028309   0.0387624   0.3547689), wk =   0.0380952
        k(   64) = (   0.4028309   0.0387624   0.5321534), wk =   0.0380952

     Largest allocated arrays     est. size (Mb)     dimensions
     Largest temporary arrays     est. size (Mb)     dimensions

     Initial potential from superposition of free atoms
     Check: negative starting charge=   -0.001960

     starting charge   77.94326, renormalised to  120.00000

     negative rho (up, down):  0.302E-02 0.000E+00
     Starting wfc are  120 randomized atomic wfcs

     Writing output data file Prototype-La-hP8-Mg3Cd.save

     Self-consistent Calculation

[...]

     negative rho (up, down):  0.203E-04 0.000E+00

[...]

     iteration # 14     ecut=    40.00 Ry     beta=0.70
     CG style diagonalization
     c_bands:  1 eigenvalues not converged
     ethr =  4.21E-07,  avg # of iterations =  4.1

[...]

     total energy              =   -1144.88633164 Ry
     Harris-Foulkes estimate   =   -1144.88633727 Ry
     estimated scf accuracy    <       0.00002522 Ry

     iteration # 16     ecut=    40.00 Ry     beta=0.70
     CG style diagonalization
     ethr =  2.10E-08,  avg # of iterations =  3.8

     End of self-consistent calculation

[...]

          k = 0.4028 0.0388 0.5322 (  5095 PWs)   bands (ev):

   -69.8697 -69.8635 -34.0050 -33.9970 -33.9937 -33.9875 -33.9847 -33.9807
   -21.4229 -21.3466 -21.2605 -21.2268 -21.1902 -21.1634  -2.2759  -2.2410
    -2.1708  -2.1349  -1.9733  -1.9217  -1.4082  -1.2582  -1.1175  -1.1004
    -0.9386  -0.8279  -0.7619  -0.7208  -0.6655  -0.5574  -0.4916  -0.4746
     9.9028   9.9170   9.9231   9.9448   9.9708   9.9782  10.0102  10.0158
    10.0601  10.0805  14.9090  14.9679  17.7984  17.9956  18.4048  18.5128
    18.8632  19.0523  19.1510  19.2983  19.6141  19.7206  20.0453  20.1623
    20.4840  20.5489  21.0731  21.1345  21.7288  21.8565  21.9021  22.9041
    23.1176  23.3434  23.8996  24.0043  24.1371  24.1958  24.6198  24.6947

     the Fermi energy is    21.5812 ev

!    total energy              =   -1144.88632909 Ry
     Harris-Foulkes estimate   =   -1144.88633590 Ry
     estimated scf accuracy    <       0.00000786 Ry

     The total energy is the sum of the following terms:

     one-electron contribution =    -184.82070297 Ry
     hartree contribution      =     168.09077761 Ry
     xc contribution           =    -121.33697097 Ry
     ewald contribution        =   -1006.36058194 Ry
     smearing contrib. (-TS)   =      -0.45885083 Ry

     convergence has been achieved in  16 iterations

     Forces acting on atoms (Ry/au):

     atom    1 type  1   force =     0.00920830    0.00531642    0.00000000
     atom    2 type  1   force =     0.00920830   -0.00531642    0.00000000
     atom    3 type  1   force =    -0.00920830   -0.00531642    0.00000000
     atom    4 type  1   force =    -0.00920830    0.00531642    0.00000000
     atom    5 type  1   force =     0.00000000   -0.01063283    0.00000000
     atom    6 type  1   force =     0.00000000    0.01063283    0.00000000
     atom    7 type  2   force =     0.00000000    0.00000000    0.00000000
     atom    8 type  2   force =     0.00000000    0.00000000    0.00000000

     Total force =     0.026045     Total SCF correction =     0.011955
     SCF correction compared to forces is large: reduce conv_thr to get better values

     entering subroutine stress ...

          total   stress  (Ry/bohr**3)                   (kbar)     P=   -4.25
  -0.00010384   0.00000000   0.00000000        -15.27      0.00      0.00
   0.00000000  -0.00010384   0.00000000          0.00    -15.27      0.00
   0.00000000   0.00000000   0.00012097          0.00      0.00     17.80

     Writing output data file Prototype-La-hP8-Mg3Cd.save

     General routines

     Parallel routines

   This run was terminated on:  16:59:22  22Mar2018

   JOB DONE.