     Program PWSCF v.5.0.2 starts on 22Mar2018 at 16:18:57

     Current dimensions of program PWSCF are:
     Max number of different atomic species (ntypx) = 10
     Max number of k-points (npk) =  40000
     Max angular momentum in pseudopotentials (lmaxx) =  3
     Waiting for input...
     Reading input from standard input

     Subspace diagonalization in iterative solution of the eigenvalue problem:
     a serial algorithm will be used

     bravais-lattice index     =            0
     lattice parameter (alat)  =       7.0151  a.u.
     unit-cell volume          =     862.2778 (a.u.)^3
     number of atoms/cell      =           12
     number of atomic types    =            2
     number of electrons       =       188.00
     number of Kohn-Sham states=          113
     kinetic-energy cutoff     =      40.0000  Ry
     charge density cutoff     =     160.0000  Ry
     convergence threshold     =      1.0E-04
     mixing beta               =       0.7000
     number of iterations used =            8  plain     mixing
     Exchange-correlation      = SLA-PZ-NOGX-NOGC ( 1 1 0 0 0)
     EXX-fraction              =        0.00
     nstep                     =           50

     celldm(1)=   7.015105  celldm(2)=   0.000000  celldm(3)=   0.000000
     celldm(4)=   0.000000  celldm(5)=   0.000000  celldm(6)=   0.000000

     crystal axes: (cart. coord. in units of alat)
               a(1) = (   1.000000   0.000000   0.000000 )
               a(2) = (   0.000000   1.315963   0.000000 )
               a(3) = (   0.000000   0.000000   1.898020 )

     reciprocal axes: (cart. coord. in units 2 pi/alat)
               b(1) = (  1.000000  0.000000  0.000000 )
               b(2) = (  0.000000  0.759900  0.000000 )
               b(3) = (  0.000000  0.000000  0.526865 )

     PseudoPot. # 1 for Pr read from file:
     /home/cwx6513/pp.La/Pr.UPF
     MD5 check sum: 70e2b4b153859e92c8c91247dfc63203
     Pseudo is Norm-conserving, Zval = 13.0
     Generated in analytical, separable form
     Using radial grid of 1255 points,  6 beta functions with:
                l(1) =   0
                l(2) =   0
                l(3) =   1
                l(4) =   1
                l(5) =   2
                l(6) =   3

     PseudoPot. # 2 for Ho read from file:
     /home/cwx6513/pp.La/Ho.UPF
     MD5 check sum: f307ee11bce99f5b724fa279e3790763
     Pseudo is Norm-conserving, Zval = 21.0
     Generated in analytical, separable form
     Using radial grid of 1265 points,  6 beta functions with:
                l(1) =   0
                l(2) =   0
                l(3) =   1
                l(4) =   1
                l(5) =   2
                l(6) =   3

     atomic species   valence    mass     pseudopotential
        Co            13.00    58.93320     Pr( 1.00)
        Si            21.00    28.08550     Ho( 1.00)

      8 Sym. Ops., with inversion, found ( 6 have fractional translation)

   Cartesian axes

     site n.     atom                  positions (alat units)
         1           Co  tau(   1) = (   0.7500000   1.0875135   0.8270358  )
         2           Co  tau(   2) = (   0.2500000   0.2284499   1.0709846  )
         3           Co  tau(   3) = (   0.7500000   0.4295318   0.1219744  )
         4           Co  tau(   4) = (   0.2500000   0.8864316   1.7760460  )
         5           Co  tau(   5) = (   0.2500000   0.7067855   0.5358966  )
         6           Co  tau(   6) = (   0.7500000   0.6091779   1.3621238  )
         7           Co  tau(   7) = (   0.2500000   0.0488038   0.4131136  )
         8           Co  tau(   8) = (   0.7500000   1.2671596   1.4849068  )
         9           Si  tau(   9) = (   0.2500000   0.2669484   1.6960710  )
        10           Si  tau(  10) = (   0.7500000   1.0490149   0.2019494  )
        11           Si  tau(  11) = (   0.2500000   0.9249301   1.1509596  )
        12           Si  tau(  12) = (   0.7500000   0.3910333   0.7470608  )

     number of k points=    12  gaussian smearing, width (Ry)=  0.1000
                       cart. coord. in units 2pi/alat
        k(    1) = (   0.0000000   0.0000000   0.0000000), wk =   0.0833333
        k(    2) = (   0.0000000   0.0000000   0.1317162), wk =   0.1666667
        k(    3) = (   0.0000000   0.0000000  -0.2634324), wk =   0.0833333
        k(    4) = (   0.0000000   0.2532999   0.0000000), wk =   0.1666667
        k(    5) = (   0.0000000   0.2532999   0.1317162), wk =   0.3333333
        k(    6) = (   0.0000000   0.2532999  -0.2634324), wk =   0.1666667
        k(    7) = (  -0.5000000   0.0000000   0.0000000), wk =   0.0833333
        k(    8) = (  -0.5000000   0.0000000   0.1317162), wk =   0.1666667
        k(    9) = (  -0.5000000   0.0000000  -0.2634324), wk =   0.0833333
        k(   10) = (  -0.5000000   0.2532999   0.0000000), wk =   0.1666667
        k(   11) = (  -0.5000000   0.2532999   0.1317162), wk =   0.3333333
        k(   12) = (  -0.5000000   0.2532999  -0.2634324), wk =   0.1666667

     Largest allocated arrays     est. size (Mb)     dimensions
     Largest temporary arrays     est. size (Mb)     dimensions

     Initial potential from superposition of free atoms

     starting charge  103.92434, renormalised to  188.00000
     Starting wfc are  160 randomized atomic wfcs

     Self-consistent Calculation

     iteration #  1     ecut=    40.00 Ry     beta=0.70
     CG style diagonalization
     c_bands:  5 eigenvalues not converged
     ethr =  1.00E-02,  avg # of iterations = 17.7

     total energy              =    -366.02725118 Ry
     Harris-Foulkes estimate   =   -3303.62949435 Ry
     estimated scf accuracy    <    3499.54967354 Ry

[...]

     iteration #  4     ecut=    40.00 Ry     beta=0.70
     CG style diagonalization
     ethr =  1.00E-02,  avg # of iterations =  4.1

[...]

     End of self-consistent calculation

          k = 0.0000 0.0000 0.0000 (  3675 PWs)   bands (ev):

   -47.1406 -47.1352 -47.1302 -47.1218 -12.0007 -11.9747 -11.9708 -11.9613
   -11.9270 -11.9122 -11.9065 -11.8860 -11.7198 -11.6567 -11.5687 -11.5194
     0.7199   2.2507   2.6951   3.3015   3.7236   4.1709   4.2175   4.4683
    17.1450  17.8653  18.8148  18.8379  19.1258  19.1580  19.7175  20.3797
    20.6141  21.0760  21.2069  21.4062  21.6370  22.3350  22.3939  23.1116
    23.2571  23.4261  23.9794  24.6355  25.1465  25.7348  26.1931  26.8545
    28.8616  29.6788  30.0102  30.1148  30.2386  30.3903  30.5665  30.6320
    31.0394  31.4270  31.8027  31.9390  32.3628  33.2645  33.3007  33.3777
    34.0531  34.0537  34.0969  34.1797  36.4137  38.7799  39.6551  40.0569
    40.8546  41.1724  41.4844  42.0825  42.4331  42.6448  42.9864  43.0920
    43.2764  43.9374  43.9730  44.0858  44.4365  45.0585  45.8723  45.9073
    46.0401  47.3308  47.9756  48.0660  48.4215  48.8881  49.1432  50.1710
    50.3468  50.4377  50.5933  50.7454  51.0590  51.1484  52.4452  52.6700
    52.8174  52.8702  53.3768  53.4135  53.7668  53.8656  54.1921  54.3342
    56.1703

[...]

          k =-0.5000 0.0000 0.0000 (  3722 PWs)   bands (ev):

[...]

     the Fermi energy is    48.2696 ev

!    total energy              =   -1903.18717671 Ry
     Harris-Foulkes estimate   =   -1903.18720672 Ry
     estimated scf accuracy    <       0.00003349 Ry

     The total energy is the sum of the following terms:

     one-electron contribution =     246.93012045 Ry
     hartree contribution      =     162.82122190 Ry
     xc contribution           =    -213.66202856 Ry
     ewald contribution        =   -2098.90799462 Ry
     smearing contrib. (-TS)   =      -0.36849589 Ry

     convergence has been achieved in  11 iterations

     Forces acting on atoms (Ry/au):

     atom    1 type  1   force =     0.00000000   -0.07722792   -0.06851334
     atom    2 type  1   force =     0.00000000    0.07722792    0.06851334
     atom    3 type  1   force =     0.00000000   -0.07722792    0.06851334
     atom    4 type  1   force =     0.00000000    0.07722792   -0.06851334
     atom    5 type  1   force =     0.00000000    0.19086286   -0.31647782
     atom    6 type  1   force =     0.00000000   -0.19086286    0.31647782
     atom    7 type  1   force =     0.00000000    0.19086286    0.31647782
     atom    8 type  1   force =     0.00000000   -0.19086286   -0.31647782
     atom    9 type  2   force =     0.00000000   -0.21734749   -0.01096893
     atom   10 type  2   force =     0.00000000    0.21734749    0.01096893
     atom   11 type  2   force =     0.00000000   -0.21734749    0.01096893
     atom   12 type  2   force =     0.00000000    0.21734749   -0.01096893

     Total force =     0.882282     Total SCF correction =     0.025458

     entering subroutine stress ...

          total   stress  (Ry/bohr**3)                   (kbar)     P= 6768.62
   0.05018304   0.00000000   0.00000000       7382.18      0.00      0.00
   0.00000000   0.04287338   0.00000000          0.00   6306.89      0.00
   0.00000000   0.00000000   0.04498011          0.00      0.00   6616.80

     BFGS Geometry Optimization

     number of scf cycles    =   1
     number of bfgs steps    =   0

     enthalpy new            =   -1903.1871767142 Ry

     new trust radius        =       0.5000000000 bohr
     new conv_thr            =       0.0001000000 Ry

     new unit-cell volume =   1080.34287 a.u.^3 (   160.09029 Ang^3 )

CELL_PARAMETERS (alat=  7.01510508)
   1.085136619   0.000000000   0.000000000
   0.000000000   1.411680792   0.000000000
   0.000000000   0.000000000   2.042857829

ATOMIC_POSITIONS (crystal)
Co       0.750000000   0.825833304   0.435386812
Co       0.250000000   0.174166696   0.564613188
Co       0.750000000   0.325833304   0.064613188
Co       0.250000000   0.674166696   0.935386812
Co       0.250000000   0.538489017   0.280732025
Co       0.750000000   0.461510983   0.719267975
Co       0.250000000   0.038489017   0.219267975
Co       0.750000000   0.961510983   0.780732025
Si       0.250000000   0.201256297   0.893544095
Si       0.750000000   0.798743703   0.106455905
Si       0.250000000   0.701256297   0.606455905
Si       0.750000000   0.298743703   0.393544095

     Writing output data file Prototype-La-oP12-Co2Si.save
     NEW-OLD atomic charge density approx. for the potential
     NEW k-points:
        k(    1) = (   0.0000000   0.0000000   0.0000000), wk =   0.0833333
        k(    2) = (   0.0000000   0.0000000   0.1223776), wk =   0.1666667
        k(    3) = (   0.0000000   0.0000000  -0.2447552), wk =   0.0833333
        k(    4) = (   0.0000000   0.2361251   0.0000000), wk =   0.1666667
        k(    5) = (   0.0000000   0.2361251   0.1223776), wk =   0.3333333
        k(    6) = (   0.0000000   0.2361251  -0.2447552), wk =   0.1666667
        k(    7) = (  -0.4607715   0.0000000   0.0000000), wk =   0.0833333
        k(    8) = (  -0.4607715   0.0000000   0.1223776), wk =   0.1666667
        k(    9) = (  -0.4607715   0.0000000  -0.2447552), wk =   0.0833333
        k(   10) = (  -0.4607715   0.2361251   0.0000000), wk =   0.1666667
        k(   11) = (  -0.4607715   0.2361251   0.1223776), wk =   0.3333333
        k(   12) = (  -0.4607715   0.2361251  -0.2447552), wk =   0.1666667
     Check: negative starting charge=   -0.010751

     negative rho (up, down):  0.112E-01 0.000E+00
     extrapolated charge  208.97692, renormalised to  188.00000

[...]

     negative rho (up, down):  0.238E-02 0.000E+00

[...]

     enthalpy old            =   -1903.1871767142 Ry
     enthalpy new            =   -1909.7768456863 Ry

     CASE: enthalpy_new < enthalpy_old

     small trust_radius: resetting bfgs history

     new trust radius        =       3.1919212434 bohr
     new conv_thr            =       0.0001000000 Ry

[...]

     Writing output data file Prototype-La-oP12-Co2Si.save
     Check: negative starting charge=   -0.010751
     NEW-OLD atomic charge density approx. for the potential
     NEW k-points:
        k(    1) = (   0.0000000   0.0000000   0.0000000), wk =   0.0833333
        k(    2) = (   0.0000000   0.0000000   0.0853618), wk =   0.1666667
        k(    3) = (   0.0000000   0.0000000  -0.1707235), wk =   0.0833333
        k(    4) = (   0.0000000   0.1687518   0.0000000), wk =   0.1666667
        k(    5) = (   0.0000000   0.1687518   0.0853618), wk =   0.3333333
        k(    6) = (   0.0000000   0.1687518  -0.1707235), wk =   0.1666667
        k(    7) = (  -0.3101672   0.0000000   0.0000000), wk =   0.0833333
        k(    8) = (  -0.3101672   0.0000000   0.0853618), wk =   0.1666667
        k(    9) = (  -0.3101672   0.0000000  -0.1707235), wk =   0.0833333
        k(   10) = (  -0.3101672   0.1687518   0.0000000), wk =   0.1666667
        k(   11) = (  -0.3101672   0.1687518   0.0853618), wk =   0.3333333
        k(   12) = (  -0.3101672   0.1687518  -0.1707235), wk =   0.1666667
     Check: negative starting charge=   -0.003770

[...]

     Total force =     0.032220     Total SCF correction =     0.012867
     SCF correction compared to forces is large: reduce conv_thr to get better values

[...]

          total   stress  (Ry/bohr**3)                   (kbar)     P=-1883.99
  -0.01395082   0.00000000   0.00000000      -2052.24      0.00      0.00
   0.00000000  -0.01189800   0.00000000          0.00  -1750.26      0.00
   0.00000000   0.00000000  -0.01257242          0.00      0.00  -1849.47

     number of scf cycles    =   3
     number of bfgs steps    =   2

     enthalpy old            =   -1909.7768456864 Ry
     enthalpy new            =   -1894.6402582243 Ry

     CASE: enthalpy_new > enthalpy_old

     new trust radius        =       1.1636119717 bohr

     trust_radius < trust_radius_min

     resetting bfgs history

     Message from routine bfgs:
     history already reset at previous step: stopping
     new conv_thr            =       0.0001000000 Ry

     new unit-cell volume =   1271.67060 a.u.^3 (   188.44214 Ang^3 )

[...]

ATOMIC_POSITIONS (crystal)
Co       0.750000000   0.825379293   0.435200790
Co       0.250000000   0.174620707   0.564799210
Co       0.750000000   0.325379293   0.064799210
Co       0.250000000   0.674620707   0.935200790
Co       0.250000000   0.539601034   0.279535248
Co       0.750000000   0.460398966   0.720464752
Co       0.250000000   0.039601034   0.220464752
Co       0.750000000   0.960398966   0.779535248
Si       0.250000000   0.200020524   0.893570542
Si       0.750000000   0.799979476   0.106429458
Si       0.250000000   0.700020524   0.606429458
Si       0.750000000   0.299979476   0.393570542

     Writing output data file Prototype-La-oP12-Co2Si.save
     Check: negative starting charge=   -0.003770
     NEW-OLD atomic charge density approx. for the potential
     NEW k-points:
        k(    1) = (   0.0000000   0.0000000   0.0000000), wk =   0.0833333
        k(    2) = (   0.0000000   0.0000000   0.1160593), wk =   0.1666667
        k(    3) = (   0.0000000   0.0000000  -0.2321186), wk =   0.0833333
        k(    4) = (   0.0000000   0.2253647   0.0000000), wk =   0.1666667
        k(    5) = (   0.0000000   0.2253647   0.1160593), wk =   0.3333333
        k(    6) = (   0.0000000   0.2253647  -0.2321186), wk =   0.1666667
        k(    7) = (  -0.4324648   0.0000000   0.0000000), wk =   0.0833333
        k(    8) = (  -0.4324648   0.0000000   0.1160593), wk =   0.1666667
        k(    9) = (  -0.4324648   0.0000000  -0.2321186), wk =   0.0833333
        k(   10) = (  -0.4324648   0.2253647   0.0000000), wk =   0.1666667
        k(   11) = (  -0.4324648   0.2253647   0.1160593), wk =   0.3333333
        k(   12) = (  -0.4324648   0.2253647  -0.2321186), wk =   0.1666667
     Check: negative starting charge=   -0.022536

     negative rho (up, down):  0.713E+02 0.000E+00
     extrapolated charge   28.82110, renormalised to  188.00000

[...]

     The maximum number of steps has been reached.

     End of BFGS Geometry Optimization
Begin final coordinates
     new unit-cell volume =   1271.67060 a.u.^3 (   188.44214 Ang^3 )

CELL_PARAMETERS (alat=  7.01510508)
   1.156163437   0.000000000   0.000000000
   0.000000000   1.479083977   0.000000000
   0.000000000   0.000000000   2.154071062

ATOMIC_POSITIONS (crystal)
Co       0.750000000   0.825379293   0.435200790
Co       0.250000000   0.174620707   0.564799210
Co       0.750000000   0.325379293   0.064799210
Co       0.250000000   0.674620707   0.935200790
Co       0.250000000   0.539601034   0.279535248
Co       0.750000000   0.460398966   0.720464752
Co       0.250000000   0.039601034   0.220464752
Co       0.750000000   0.960398966   0.779535248
Si       0.250000000   0.200020524   0.893570542
Si       0.750000000   0.799979476   0.106429458
Si       0.250000000   0.700020524   0.606429458
Si       0.750000000   0.299979476   0.393570542
End final coordinates

     A final scf calculation at the relaxed structure.
     The G-vectors are recalculated for the final unit cell
     Results may differ from those at the preceding step.

     bravais-lattice index     =            0
     lattice parameter (alat)  =       7.0151  a.u.
     unit-cell volume          =    1271.6706 (a.u.)^3
     number of atoms/cell      =           12
     number of atomic types    =            2
     number of electrons       =       188.00
     number of Kohn-Sham states=          113
     kinetic-energy cutoff     =      40.0000  Ry
     charge density cutoff     =     160.0000  Ry
     convergence threshold     =      1.0E-04
     mixing beta               =       0.7000
     number of iterations used =            8  plain     mixing
     Exchange-correlation      = SLA-PZ-NOGX-NOGC ( 1 1 0 0 0)
     EXX-fraction              =        0.00

     celldm(1)=   7.015105  celldm(2)=   0.000000  celldm(3)=   0.000000
     celldm(4)=   0.000000  celldm(5)=   0.000000  celldm(6)=   0.000000

     crystal axes: (cart. coord. in units of alat)
               a(1) = (   1.156163   0.000000   0.000000 )
               a(2) = (   0.000000   1.479084   0.000000 )
               a(3) = (   0.000000   0.000000   2.154071 )

     reciprocal axes: (cart. coord. in units 2 pi/alat)
               b(1) = (  0.864930  0.000000  0.000000 )
               b(2) = (  0.000000  0.676094  0.000000 )
               b(3) = (  0.000000  0.000000  0.464237 )

     PseudoPot. # 1 for Pr read from file:
     /home/cwx6513/pp.La/Pr.UPF
     MD5 check sum: 70e2b4b153859e92c8c91247dfc63203
     Pseudo is Norm-conserving, Zval = 13.0
     Generated in analytical, separable form
     Using radial grid of 1255 points,  6 beta functions with:
                l(1) =   0
                l(2) =   0
                l(3) =   1
                l(4) =   1
                l(5) =   2
                l(6) =   3

     PseudoPot. # 2 for Ho read from file:
     /home/cwx6513/pp.La/Ho.UPF
     MD5 check sum: f307ee11bce99f5b724fa279e3790763
     Pseudo is Norm-conserving, Zval = 21.0
     Generated in analytical, separable form
     Using radial grid of 1265 points,  6 beta functions with:
                l(1) =   0
                l(2) =   0
                l(3) =   1
                l(4) =   1
                l(5) =   2
                l(6) =   3

     atomic species   valence    mass     pseudopotential
        Co            13.00    58.93320     Pr( 1.00)
        Si            21.00    28.08550     Ho( 1.00)

      8 Sym. Ops., with inversion, found ( 6 have fractional translation)

   Cartesian axes

     site n.     atom                  positions (alat units)
         1           Co  tau(   1) = (   0.8671226   1.2208053   0.9374534  )
         2           Co  tau(   2) = (   0.2890409   0.2582787   1.2166176  )
         3           Co  tau(   3) = (   0.8671226   0.4812633   0.1395821  )
         4           Co  tau(   4) = (   0.2890409   0.9978207   2.0144890  )
         5           Co  tau(   5) = (   0.2890409   0.7981152   0.6021388  )
         6           Co  tau(   6) = (   0.8671226   0.6809687   1.5519323  )
         7           Co  tau(   7) = (   0.2890409   0.0585733   0.4748967  )
         8           Co  tau(   8) = (   0.8671226   1.4205107   1.6791743  )
         9           Si  tau(   9) = (   0.2890409   0.2958472   1.9248144  )
        10           Si  tau(  10) = (   0.8671226   1.1832368   0.2292566  )
        11           Si  tau(  11) = (   0.2890409   1.0353891   1.3062921  )
        12           Si  tau(  12) = (   0.8671226   0.4436948   0.8477789  )

     number of k points=    12  gaussian smearing, width (Ry)=  0.1000
                       cart. coord. in units 2pi/alat
        k(    1) = (   0.0000000   0.0000000   0.0000000), wk =   0.0833333
        k(    2) = (   0.0000000   0.0000000   0.1160593), wk =   0.1666667
        k(    3) = (   0.0000000   0.0000000  -0.2321186), wk =   0.0833333
        k(    4) = (   0.0000000   0.2253647   0.0000000), wk =   0.1666667
        k(    5) = (   0.0000000   0.2253647   0.1160593), wk =   0.3333333
        k(    6) = (   0.0000000   0.2253647  -0.2321186), wk =   0.1666667
        k(    7) = (  -0.4324648   0.0000000   0.0000000), wk =   0.0833333
        k(    8) = (  -0.4324648   0.0000000   0.1160593), wk =   0.1666667
        k(    9) = (  -0.4324648   0.0000000  -0.2321186), wk =   0.0833333
        k(   10) = (  -0.4324648   0.2253647   0.0000000), wk =   0.1666667
        k(   11) = (  -0.4324648   0.2253647   0.1160593), wk =   0.3333333
        k(   12) = (  -0.4324648   0.2253647  -0.2321186), wk =   0.1666667

     Largest allocated arrays     est. size (Mb)     dimensions
     Largest temporary arrays     est. size (Mb)     dimensions

     Initial potential from superposition of free atoms
     Check: negative starting charge=   -0.000897

     starting charge  103.92434, renormalised to  188.00000

     negative rho (up, down):  0.162E-02 0.000E+00
     Starting wfc are  160 randomized atomic wfcs

     Writing output data file Prototype-La-oP12-Co2Si.save

     Self-consistent Calculation

[...]

     negative rho (up, down):  0.456E-04 0.000E+00

[...]

     iteration #  8     ecut=    40.00 Ry     beta=0.70
     CG style diagonalization
     ethr =  3.85E-04,  avg # of iterations =  3.3

[...]

     total energy              =   -1914.49358748 Ry
     Harris-Foulkes estimate   =   -1914.49364817 Ry
     estimated scf accuracy    <       0.00014506 Ry

     iteration # 12     ecut=    40.00 Ry     beta=0.70
     CG style diagonalization
     c_bands:  1 eigenvalues not converged
     ethr =  7.72E-08,  avg # of iterations =  4.3

     End of self-consistent calculation

[...]

          k = 0.0000 0.2254-0.2321 (  5434 PWs)   bands (ev):

[...]

          k =-0.4325 0.2254-0.2321 (  5444 PWs)   bands (ev):

   -60.8526 -60.8526 -60.8478 -60.8478 -25.1791 -25.1791 -25.1773 -25.1773
   -25.1523 -25.1523 -25.1503 -25.1503 -25.0539 -25.0539 -25.0413 -25.0413
   -11.2569 -11.2569 -11.0782 -11.0782 -10.9175 -10.9175 -10.7936 -10.7936
     6.6342   6.6342   7.0317   7.0317   7.1894   7.1894   7.4660   7.4660
     7.4984   7.4984   8.4580   8.4580   8.8571   8.8571   9.1394   9.1394
     9.4538   9.4538   9.4603   9.4603   9.7843   9.7843   9.9567   9.9567
    18.0033  18.0033  18.0737  18.0737  18.2384  18.2384  18.3174  18.3174
    18.5712  18.5712  18.6696  18.6696  18.8425  18.8425  18.8867  18.8867
    19.0237  19.0237  19.0774  19.0774  24.2743  24.2743  25.3123  25.3123
    27.6545  27.6545  27.6598  27.6598  28.0071  28.0071  28.3447  28.3447
    28.4703  28.4703  29.4492  29.4492  29.6233  29.6233  30.0474  30.0474
    30.5194  30.5194  30.9514  30.9514  31.4198  31.4198  32.5188  32.5188
    32.7119  32.7119  33.0133  33.0133  33.7452  33.7452  34.6455  34.6455
    34.7736  34.7737  35.0166  35.0166  35.6017  35.6018  36.3046  36.3048
    38.1059

     the Fermi energy is    32.0670 ev

!    total energy              =   -1914.49364879 Ry
     Harris-Foulkes estimate   =   -1914.49365092 Ry
     estimated scf accuracy    <       0.00000298 Ry

     The total energy is the sum of the following terms:

     one-electron contribution =     -98.56105961 Ry
     hartree contribution      =     232.41734026 Ry
     xc contribution           =    -202.74420672 Ry
     ewald contribution        =   -1845.11106879 Ry
     smearing contrib. (-TS)   =      -0.49465393 Ry

     convergence has been achieved in  12 iterations

     Forces acting on atoms (Ry/au):

     atom    1 type  1   force =     0.00000000   -0.04453808   -0.00916639
     atom    2 type  1   force =     0.00000000    0.04453808    0.00916639
     atom    3 type  1   force =     0.00000000   -0.04453808    0.00916639
     atom    4 type  1   force =     0.00000000    0.04453808   -0.00916639
     atom    5 type  1   force =     0.00000000    0.07834044   -0.12746937
     atom    6 type  1   force =     0.00000000   -0.07834044    0.12746937
     atom    7 type  1   force =     0.00000000    0.07834044    0.12746937
     atom    8 type  1   force =     0.00000000   -0.07834044   -0.12746937
     atom    9 type  2   force =     0.00000000   -0.07018427    0.00729072
     atom   10 type  2   force =     0.00000000    0.07018427   -0.00729072
     atom   11 type  2   force =     0.00000000   -0.07018427   -0.00729072
     atom   12 type  2   force =     0.00000000    0.07018427    0.00729072

     Total force =     0.343117     Total SCF correction =     0.004315

     entering subroutine stress ...

          total   stress  (Ry/bohr**3)                   (kbar)     P= 1410.92
   0.01054794   0.00000000   0.00000000       1551.66      0.00      0.00
   0.00000000   0.00872158   0.00000000          0.00   1282.99      0.00
   0.00000000   0.00000000   0.00950418          0.00      0.00   1398.11

     Writing output data file Prototype-La-oP12-Co2Si.save

     General routines

     Parallel routines

   This run was terminated on:  16:38:31  22Mar2018

   JOB DONE.