     Program PWSCF v.5.0.2 starts on 23Mar2018 at  2:19:39

     Current dimensions of program PWSCF are:
     Max number of different atomic species (ntypx) = 10
     Max number of k-points (npk) =  40000
     Max angular momentum in pseudopotentials (lmaxx) =  3
     Waiting for input...
     Reading input from standard input

     Subspace diagonalization in iterative solution of the eigenvalue problem:
     a serial algorithm will be used

     bravais-lattice index     =            0
     lattice parameter (alat)  =       9.9235  a.u.
     unit-cell volume          =    1361.0366 (a.u.)^3
     number of atoms/cell      =           12
     number of atomic types    =            2
     number of electrons       =       192.00
     number of Kohn-Sham states=          115
     kinetic-energy cutoff     =      40.0000  Ry
     charge density cutoff     =     160.0000  Ry
     convergence threshold     =      1.0E-04
     mixing beta               =       0.7000
     number of iterations used =            8  plain     mixing
     Exchange-correlation      = SLA-PZ-NOGX-NOGC ( 1 1 0 0 0)
     EXX-fraction              =        0.00
     nstep                     =           50

     celldm(1)=   9.923489  celldm(2)=   0.000000  celldm(3)=   0.000000
     celldm(4)=   0.000000  celldm(5)=   0.000000  celldm(6)=   0.000000

     crystal axes: (cart. coord. in units of alat)
               a(1) = (   1.000000   0.000000   0.000000 )
               a(2) = (  -0.500000   0.866025   0.000000 )
               a(3) = (   0.000000   0.000000   1.608222 )

     reciprocal axes: (cart. coord. in units 2 pi/alat)
               b(1) = (  1.000000  0.577350  0.000000 )
               b(2) = (  0.000000  1.154701  0.000000 )
               b(3) = (  0.000000  0.000000  0.621805 )

     PseudoPot. # 1 for Dy read from file:
     /home/cwx6513/pp.La/Dy.UPF
     MD5 check sum: 9597327bec62616a94a14d07f3fd9936
     Pseudo is Norm-conserving, Zval = 20.0
     Generated in analytical, separable form
     Using radial grid of 1265 points,  6 beta functions with:
                l(1) =   0
                l(2) =   0
                l(3) =   1
                l(4) =   1
                l(5) =   2
                l(6) =   3

     PseudoPot. # 2 for Nd read from file:
     /home/cwx6513/pp.La/Nd.UPF
     MD5 check sum: c66c5b6abe7b5840ced9b1e244e3bed6
     Pseudo is Norm-conserving, Zval = 14.0
     Generated in analytical, separable form
     Using radial grid of 1257 points,  6 beta functions with:
                l(1) =   0
                l(2) =   0
                l(3) =   1
                l(4) =   1
                l(5) =   2
                l(6) =   3

     atomic species   valence    mass     pseudopotential
        Mg            20.00    24.30500     Dy( 1.00)
        Zn            14.00    65.39000     Nd( 1.00)

     24 Sym. Ops., with inversion, found (12 have fractional translation)

   Cartesian axes

     site n.     atom                  positions (alat units)
         1           Mg  tau(   1) = (  -0.0000005   0.5773506   0.1003820  )
         2           Mg  tau(   2) = (   0.5000005   0.2886748   0.9044931  )
         3           Mg  tau(   3) = (   0.5000005   0.2886748   1.5078402  )
         4           Mg  tau(   4) = (  -0.0000005   0.5773506   0.7037291  )
         5           Zn  tau(   5) = (   0.0000000   0.0000000   0.0000000  )
         6           Zn  tau(   6) = (   0.0000000   0.0000000   0.8041111  )
         7           Zn  tau(   7) = (   0.0000000   0.2950739   1.2061667  )
         8           Zn  tau(   8) = (   0.7444585   0.1475370   0.4020556  )
         9           Zn  tau(   9) = (   0.2555415   0.1475370   0.4020556  )
        10           Zn  tau(  10) = (   0.2444585   0.7184884   1.2061667  )
        11           Zn  tau(  11) = (  -0.2444585   0.7184884   1.2061667  )
        12           Zn  tau(  12) = (   0.5000000   0.5709515   0.4020556  )

     number of k points=    12  gaussian smearing, width (Ry)=  0.1000
                       cart. coord. in units 2pi/alat
        k(    1) = (   0.0000000   0.0000000   0.0000000), wk =   0.0833333
        k(    2) = (   0.0000000   0.0000000   0.1554512), wk =   0.1666667
        k(    3) = (   0.0000000   0.0000000  -0.3109023), wk =   0.0833333
        k(    4) = (   0.0000000   0.3849002   0.0000000), wk =   0.1666667
        k(    5) = (   0.0000000   0.3849002   0.1554512), wk =   0.3333333
        k(    6) = (   0.0000000   0.3849002  -0.3109023), wk =   0.1666667
        k(    7) = (  -0.5000000  -0.2886751   0.0000000), wk =   0.0833333
        k(    8) = (  -0.5000000  -0.2886751   0.1554512), wk =   0.1666667
        k(    9) = (  -0.5000000  -0.2886751  -0.3109023), wk =   0.0833333
        k(   10) = (  -0.5000000   0.0962250   0.0000000), wk =   0.1666667
        k(   11) = (  -0.5000000   0.0962250   0.1554512), wk =   0.3333333
        k(   12) = (  -0.5000000   0.0962250  -0.3109023), wk =   0.1666667

     Largest allocated arrays     est. size (Mb)     dimensions
     Largest temporary arrays     est. size (Mb)     dimensions

     Initial potential from superposition of free atoms

     Starting from uniform charge
     Starting wfc are    0 randomized atomic wfcs

     Self-consistent Calculation

     iteration #  1     ecut=    40.00 Ry     beta=0.70
     CG style diagonalization
     ethr =  1.00E-02,  avg # of iterations = 12.0

     total energy              =   -1126.17709908 Ry
     Harris-Foulkes estimate   =   -2346.92451392 Ry
     estimated scf accuracy    <    1486.44865273 Ry

[...]

     iteration #  9     ecut=    40.00 Ry     beta=0.70
     CG style diagonalization
     c_bands:  1 eigenvalues not converged
     ethr =  3.04E-05,  avg # of iterations =  4.1

[...]

     End of self-consistent calculation

          k = 0.0000 0.0000 0.0000 (  5769 PWs)   bands (ev):

   -53.5329 -53.5327 -53.5220 -53.5195 -20.5674 -20.5188 -20.5048 -20.5048
   -20.4824 -20.4824 -20.4459 -20.4248 -20.4103 -20.4103 -20.4097 -20.4097
   -19.7958 -19.4052 -18.6229 -18.2154 -18.2154 -18.2093 -18.2092 -18.2024
    -1.6483  -0.8455   0.0154   1.1121   1.1122   1.3355   1.3355   1.5157
     1.5158   2.1985   3.0278   3.0279   3.0563   3.0563   3.3795   4.6128
     4.6151   4.6225   4.6677   4.6678   5.0703   5.0703   5.2226   5.2226
    19.3592  19.3797  19.5722  19.5722  19.9269  19.9432  19.9432  20.1324
    20.1324  20.1602  20.1603  20.3823  20.7081  20.7081  20.7515  20.8916
    21.0295  21.0295  21.0346  21.0347  21.1222  21.1222  21.7052  22.2623
    22.7254  22.7254  23.6675  24.0968  24.0968  24.4083  24.4083  24.5027
    24.8690  25.5308  25.5308  25.6561  26.9912  26.9912  27.2831  27.2831
    27.3021  27.3022  28.3179  30.0307  30.0459  30.0460  30.1220  30.2344
    30.5742  31.5719  31.7655  31.7655  31.8400  31.8400  32.0699  32.0699
    32.2506  32.2506  33.1427  33.9678  33.9678  34.3951  34.3951  34.4058
    34.6687  34.6687  35.2393

[...]

          k =-0.5000-0.2887 0.0000 (  5800 PWs)   bands (ev):

[...]

     the Fermi energy is    29.7498 ev

!    total energy              =   -1923.71104947 Ry
     Harris-Foulkes estimate   =   -1923.71105610 Ry
     estimated scf accuracy    <       0.00000923 Ry

     The total energy is the sum of the following terms:

     one-electron contribution =     -63.36121458 Ry
     hartree contribution      =     209.60992884 Ry
     xc contribution           =    -205.26861535 Ry
     ewald contribution        =   -1864.15861008 Ry
     smearing contrib. (-TS)   =      -0.53253830 Ry

     convergence has been achieved in  11 iterations

     Forces acting on atoms (Ry/au):

     atom    1 type  1   force =     0.00000000    0.00000000    0.02133282
     atom    2 type  1   force =     0.00000000    0.00000000    0.02133282
     atom    3 type  1   force =     0.00000000    0.00000000   -0.02133282
     atom    4 type  1   force =     0.00000000    0.00000000   -0.02133282
     atom    5 type  2   force =     0.00000000    0.00000000    0.00000000
     atom    6 type  2   force =     0.00000000    0.00000000    0.00000000
     atom    7 type  2   force =     0.00000000    0.04294992    0.00000000
     atom    8 type  2   force =    -0.03719573    0.02147496    0.00000000
     atom    9 type  2   force =     0.03719573    0.02147496    0.00000000
     atom   10 type  2   force =    -0.03719573   -0.02147496    0.00000000
     atom   11 type  2   force =     0.03719573   -0.02147496    0.00000000
     atom   12 type  2   force =     0.00000000   -0.04294992    0.00000000

     Total force =     0.113528     Total SCF correction =     0.000000

     entering subroutine stress ...

          total   stress  (Ry/bohr**3)                   (kbar)     P=  909.07
   0.00610431   0.00000000   0.00000000        897.97      0.00      0.00
   0.00000000   0.00610431   0.00000000          0.00    897.97      0.00
   0.00000000   0.00000000   0.00633063          0.00      0.00    931.27

     BFGS Geometry Optimization

     number of scf cycles    =   1
     number of bfgs steps    =   0

     enthalpy new            =   -1923.7110494749 Ry

     new trust radius        =       0.5000000000 bohr
     new conv_thr            =       0.0001000000 Ry

     new unit-cell volume =   1649.39192 a.u.^3 (   244.41466 Ang^3 )

CELL_PARAMETERS (alat=  9.92348860)
   1.065342354   0.000000000   0.000000000
  -0.532671177   0.922613542   0.000000000
   0.000000000   0.000000000   1.717203317

ATOMIC_POSITIONS (crystal)
Mg       0.333333000   0.666667000   0.062990343
Mg       0.666667000   0.333333000   0.562990343
Mg       0.666667000   0.333333000   0.937009657
Mg       0.333333000   0.666667000   0.437009657
Zn       0.000000000   0.000000000   0.000000000
Zn       0.000000000   0.000000000   0.500000000
Zn       0.171430931   0.342861862   0.750000000
Zn       0.828569069   0.171430931   0.250000000
Zn       0.342861862   0.171430931   0.250000000
Zn       0.657138138   0.828569069   0.750000000
Zn       0.171430931   0.828569069   0.750000000
Zn       0.828569069   0.657138138   0.250000000

     Writing output data file Prototype-La-hP12-MgZn2.save
     NEW-OLD atomic charge density approx. for the potential
     NEW k-points:
        k(    1) = (   0.0000000   0.0000000   0.0000000), wk =   0.0833333
        k(    2) = (   0.0000000   0.0000000   0.1455856), wk =   0.1666667
        k(    3) = (   0.0000000   0.0000000  -0.2911711), wk =   0.0833333
        k(    4) = (   0.0000000   0.3612925   0.0000000), wk =   0.1666667
        k(    5) = (   0.0000000   0.3612925   0.1455856), wk =   0.3333333
        k(    6) = (   0.0000000   0.3612925  -0.2911711), wk =   0.1666667
        k(    7) = (  -0.4693327  -0.2709694   0.0000000), wk =   0.0833333
        k(    8) = (  -0.4693327  -0.2709694   0.1455856), wk =   0.1666667
        k(    9) = (  -0.4693327  -0.2709694  -0.2911711), wk =   0.0833333
        k(   10) = (  -0.4693327   0.0903231   0.0000000), wk =   0.1666667
        k(   11) = (  -0.4693327   0.0903231   0.1455856), wk =   0.3333333
        k(   12) = (  -0.4693327   0.0903231  -0.2911711), wk =   0.1666667

[...]

     enthalpy old            =   -1923.7110494749 Ry
     enthalpy new            =   -1924.4130643398 Ry

     CASE: enthalpy_new < enthalpy_old

     small trust_radius: resetting bfgs history

     new trust radius        =       0.1008150846 bohr
     new conv_thr            =       0.0000252635 Ry

[...]

     number of scf cycles    =   3
     number of bfgs steps    =   2

     enthalpy old            =   -1924.4130643398 Ry
     enthalpy new            =   -1924.4130988327 Ry

     CASE: enthalpy_new > enthalpy_old

     new trust radius        =       0.0501774969 bohr

     trust_radius < trust_radius_min

     resetting bfgs history

     Message from routine bfgs:
     history already reset at previous step: stopping
     new conv_thr            =       0.0000252635 Ry

     new unit-cell volume =   1589.91237 a.u.^3 (   235.60070 Ang^3 )

[...]

ATOMIC_POSITIONS (crystal)
Mg       0.333333000   0.666667000   0.064510382
Mg       0.666667000   0.333333000   0.564510382
Mg       0.666667000   0.333333000   0.935489618
Mg       0.333333000   0.666667000   0.435489618
Zn       0.000000000   0.000000000   0.000000000
Zn       0.000000000   0.000000000   0.500000000
Zn       0.170773686   0.341547372   0.750000000
Zn       0.829226314   0.170773686   0.250000000
Zn       0.341547372   0.170773686   0.250000000
Zn       0.658452628   0.829226314   0.750000000
Zn       0.170773686   0.829226314   0.750000000
Zn       0.829226314   0.658452628   0.250000000

     Writing output data file Prototype-La-hP12-MgZn2.save
     NEW-OLD atomic charge density approx. for the potential
     NEW k-points:
        k(    1) = (   0.0000000   0.0000000   0.0000000), wk =   0.0833333
        k(    2) = (   0.0000000   0.0000000   0.1474363), wk =   0.1666667
        k(    3) = (   0.0000000   0.0000000  -0.2948726), wk =   0.0833333
        k(    4) = (   0.0000000   0.3656716   0.0000000), wk =   0.1666667
        k(    5) = (   0.0000000   0.3656716   0.1474363), wk =   0.3333333
        k(    6) = (   0.0000000   0.3656716  -0.2948726), wk =   0.1666667
        k(    7) = (  -0.4750213  -0.2742537   0.0000000), wk =   0.0833333
        k(    8) = (  -0.4750213  -0.2742537   0.1474363), wk =   0.1666667
        k(    9) = (  -0.4750213  -0.2742537  -0.2948726), wk =   0.0833333
        k(   10) = (  -0.4750213   0.0914179   0.0000000), wk =   0.1666667
        k(   11) = (  -0.4750213   0.0914179   0.1474363), wk =   0.3333333
        k(   12) = (  -0.4750213   0.0914179  -0.2948726), wk =   0.1666667

[...]

     The maximum number of steps has been reached.

     End of BFGS Geometry Optimization
Begin final coordinates
     new unit-cell volume =   1589.91237 a.u.^3 (   235.60070 Ang^3 )

CELL_PARAMETERS (alat=  9.92348860)
   1.052584409   0.000000000   0.000000000
  -0.526292204   0.911564838   0.000000000
   0.000000000   0.000000000   1.695647471

ATOMIC_POSITIONS (crystal)
Mg       0.333333000   0.666667000   0.064510382
Mg       0.666667000   0.333333000   0.564510382
Mg       0.666667000   0.333333000   0.935489618
Mg       0.333333000   0.666667000   0.435489618
Zn       0.000000000   0.000000000   0.000000000
Zn       0.000000000   0.000000000   0.500000000
Zn       0.170773686   0.341547372   0.750000000
Zn       0.829226314   0.170773686   0.250000000
Zn       0.341547372   0.170773686   0.250000000
Zn       0.658452628   0.829226314   0.750000000
Zn       0.170773686   0.829226314   0.750000000
Zn       0.829226314   0.658452628   0.250000000
End final coordinates

     A final scf calculation at the relaxed structure.
     The G-vectors are recalculated for the final unit cell
     Results may differ from those at the preceding step.

     bravais-lattice index     =            0
     lattice parameter (alat)  =       9.9235  a.u.
     unit-cell volume          =    1589.9124 (a.u.)^3
     number of atoms/cell      =           12
     number of atomic types    =            2
     number of electrons       =       192.00
     number of Kohn-Sham states=          115
     kinetic-energy cutoff     =      40.0000  Ry
     charge density cutoff     =     160.0000  Ry
     convergence threshold     =      2.5E-05
     mixing beta               =       0.7000
     number of iterations used =            8  plain     mixing
     Exchange-correlation      = SLA-PZ-NOGX-NOGC ( 1 1 0 0 0)
     EXX-fraction              =        0.00

     celldm(1)=   9.923489  celldm(2)=   0.000000  celldm(3)=   0.000000
     celldm(4)=   0.000000  celldm(5)=   0.000000  celldm(6)=   0.000000

     crystal axes: (cart. coord. in units of alat)
               a(1) = (   1.052584   0.000000   0.000000 )
               a(2) = (  -0.526292   0.911565   0.000000 )
               a(3) = (   0.000000   0.000000   1.695647 )

     reciprocal axes: (cart. coord. in units 2 pi/alat)
               b(1) = (  0.950043  0.548507  0.000000 )
               b(2) = (  0.000000  1.097015  0.000000 )
               b(3) = (  0.000000  0.000000  0.589745 )

     PseudoPot. # 1 for Dy read from file:
     /home/cwx6513/pp.La/Dy.UPF
     MD5 check sum: 9597327bec62616a94a14d07f3fd9936
     Pseudo is Norm-conserving, Zval = 20.0
     Generated in analytical, separable form
     Using radial grid of 1265 points,  6 beta functions with:
                l(1) =   0
                l(2) =   0
                l(3) =   1
                l(4) =   1
                l(5) =   2
                l(6) =   3

     PseudoPot. # 2 for Nd read from file:
     /home/cwx6513/pp.La/Nd.UPF
     MD5 check sum: c66c5b6abe7b5840ced9b1e244e3bed6
     Pseudo is Norm-conserving, Zval = 14.0
     Generated in analytical, separable form
     Using radial grid of 1257 points,  6 beta functions with:
                l(1) =   0
                l(2) =   0
                l(3) =   1
                l(4) =   1
                l(5) =   2
                l(6) =   3

     atomic species   valence    mass     pseudopotential
        Mg            20.00    24.30500     Dy( 1.00)
        Zn            14.00    65.39000     Nd( 1.00)

     24 Sym. Ops., with inversion, found (12 have fractional translation)

   Cartesian axes

     site n.     atom                  positions (alat units)
         1           Mg  tau(   1) = (  -0.0000005   0.6077102   0.1093869  )
         2           Mg  tau(   2) = (   0.5262927   0.3038546   0.9572106  )
         3           Mg  tau(   3) = (   0.5262927   0.3038546   1.5862606  )
         4           Mg  tau(   4) = (  -0.0000005   0.6077102   0.7384369  )
         5           Zn  tau(   5) = (   0.0000000   0.0000000   0.0000000  )
         6           Zn  tau(   6) = (   0.0000000   0.0000000   0.8478237  )
         7           Zn  tau(   7) = (   0.0000000   0.3113426   1.2717356  )
         8           Zn  tau(   8) = (   0.7829538   0.1556713   0.4239119  )
         9           Zn  tau(   9) = (   0.2696306   0.1556713   0.4239119  )
        10           Zn  tau(  10) = (   0.2566616   0.7558936   1.2717356  )
        11           Zn  tau(  11) = (  -0.2566616   0.7558936   1.2717356  )
        12           Zn  tau(  12) = (   0.5262922   0.6002223   0.4239119  )

     number of k points=    12  gaussian smearing, width (Ry)=  0.1000
                       cart. coord. in units 2pi/alat
        k(    1) = (   0.0000000   0.0000000   0.0000000), wk =   0.0833333
        k(    2) = (   0.0000000   0.0000000   0.1474363), wk =   0.1666667
        k(    3) = (   0.0000000   0.0000000  -0.2948726), wk =   0.0833333
        k(    4) = (   0.0000000   0.3656716   0.0000000), wk =   0.1666667
        k(    5) = (   0.0000000   0.3656716   0.1474363), wk =   0.3333333
        k(    6) = (   0.0000000   0.3656716  -0.2948726), wk =   0.1666667
        k(    7) = (  -0.4750213  -0.2742537   0.0000000), wk =   0.0833333
        k(    8) = (  -0.4750213  -0.2742537   0.1474363), wk =   0.1666667
        k(    9) = (  -0.4750213  -0.2742537  -0.2948726), wk =   0.0833333
        k(   10) = (  -0.4750213   0.0914179   0.0000000), wk =   0.1666667
        k(   11) = (  -0.4750213   0.0914179   0.1474363), wk =   0.3333333
        k(   12) = (  -0.4750213   0.0914179  -0.2948726), wk =   0.1666667

     Largest allocated arrays     est. size (Mb)     dimensions
     Largest temporary arrays     est. size (Mb)     dimensions

     Initial potential from superposition of free atoms

     Starting from uniform charge
     Starting wfc are    0 randomized atomic wfcs

     Writing output data file Prototype-La-hP12-MgZn2.save

     Self-consistent Calculation

[...]

     negative rho (up, down):  0.439E-06 0.000E+00

[...]

     iteration # 10     ecut=    40.00 Ry     beta=0.70
     CG style diagonalization
     c_bands:  1 eigenvalues not converged
     c_bands:  1 eigenvalues not converged
     ethr =  3.18E-06,  avg # of iterations =  4.1

     total energy              =   -1925.05885125 Ry
     Harris-Foulkes estimate   =   -1925.05918511 Ry
     estimated scf accuracy    <       0.00061376 Ry

     iteration # 11     ecut=    40.00 Ry     beta=0.70
     CG style diagonalization
     ethr =  3.20E-07,  avg # of iterations =  4.1

     End of self-consistent calculation

[...]

          k = 0.0000 0.3657-0.2949 (  6796 PWs)   bands (ev):

[...]

          k =-0.4750 0.0914-0.2949 (  6768 PWs)   bands (ev):

   -57.7975 -57.7975 -57.7925 -57.7925 -24.7220 -24.7220 -24.6982 -24.6982
   -24.6889 -24.6889 -24.6758 -24.6758 -24.6689 -24.6689 -24.6635 -24.6635
   -23.6006 -23.6006 -23.3419 -23.3419 -22.9632 -22.9632 -22.9293 -22.9293
    -3.7971  -3.7971  -2.9969  -2.9969  -2.4544  -2.4544  -2.3757  -2.3757
    -2.1992  -2.1992  -1.9473  -1.9473  -1.5761  -1.5761  -1.1634  -1.1634
    -0.9005  -0.9005  -0.7170  -0.7170  -0.3228  -0.3228  -0.2411  -0.2411
    15.7551  15.7551  15.8487  15.8487  15.9017  15.9017  16.1043  16.1043
    16.2630  16.2630  16.3545  16.3545  16.5539  16.5539  16.6203  16.6203
    16.9272  16.9272  17.0649  17.0649  18.6447  18.6447  19.2180  19.2180
    20.0211  20.0211  20.5112  20.5112  20.9185  20.9185  21.2047  21.2047
    21.4818  21.4818  21.8223  21.8223  22.3510  22.3510  22.4438  22.4438
    22.7987  22.7987  23.7897  23.7897  24.1070  24.1070  24.4847  24.4847
    24.8560  24.8560  25.0675  25.0675  25.4264  25.4264  25.9848  25.9848
    26.5814  26.5815  26.9455  26.9455  27.3636  27.3636  28.4148  28.4151
    29.1471  29.1476  29.8128

     the Fermi energy is    24.8383 ev

!    total energy              =   -1925.05906194 Ry
     Harris-Foulkes estimate   =   -1925.05906761 Ry
     estimated scf accuracy    <       0.00000885 Ry

     The total energy is the sum of the following terms:

     one-electron contribution =    -195.66808445 Ry
     hartree contribution      =     243.54763842 Ry
     xc contribution           =    -202.24870122 Ry
     ewald contribution        =   -1770.08923746 Ry
     smearing contrib. (-TS)   =      -0.60067723 Ry

     convergence has been achieved in  11 iterations

     Forces acting on atoms (Ry/au):

     atom    1 type  1   force =     0.00000000    0.00000000    0.00344664
     atom    2 type  1   force =     0.00000000    0.00000000    0.00344664
     atom    3 type  1   force =     0.00000000    0.00000000   -0.00344664
     atom    4 type  1   force =     0.00000000    0.00000000   -0.00344664
     atom    5 type  2   force =     0.00000000    0.00000000    0.00000000
     atom    6 type  2   force =     0.00000000    0.00000000    0.00000000
     atom    7 type  2   force =     0.00000000    0.02025370    0.00000000
     atom    8 type  2   force =    -0.01754022    0.01012685    0.00000000
     atom    9 type  2   force =     0.01754022    0.01012685    0.00000000
     atom   10 type  2   force =    -0.01754022   -0.01012685    0.00000000
     atom   11 type  2   force =     0.01754022   -0.01012685    0.00000000
     atom   12 type  2   force =     0.00000000   -0.02025370    0.00000000

     Total force =     0.050088     Total SCF correction =     0.000000

     entering subroutine stress ...

          total   stress  (Ry/bohr**3)                   (kbar)     P=  237.88
   0.00160961   0.00000000   0.00000000        236.78      0.00      0.00
   0.00000000   0.00160961   0.00000000          0.00    236.78      0.00
   0.00000000   0.00000000   0.00163207          0.00      0.00    240.09

     Writing output data file Prototype-La-hP12-MgZn2.save

     General routines

     Parallel routines

   This run was terminated on:   2:48: 8  23Mar2018

   JOB DONE.