     Program PWSCF v.5.0.2 starts on 22Mar2018 at 17:36:41

     Current dimensions of program PWSCF are:
     Max number of different atomic species (ntypx) = 10
     Max number of k-points (npk) =  40000
     Max angular momentum in pseudopotentials (lmaxx) =  3
     Waiting for input...
     Reading input from standard input

     Subspace diagonalization in iterative solution of the eigenvalue problem:
     a serial algorithm will be used

     bravais-lattice index     =            0
     lattice parameter (alat)  =       9.9235  a.u.
     unit-cell volume          =    1361.0366 (a.u.)^3
     number of atoms/cell      =           12
     number of atomic types    =            2
     number of electrons       =       240.00
     number of Kohn-Sham states=          144
     kinetic-energy cutoff     =      40.0000  Ry
     charge density cutoff     =     160.0000  Ry
     convergence threshold     =      1.0E-04
     mixing beta               =       0.7000
     number of iterations used =            8  plain     mixing
     Exchange-correlation      = SLA-PZ-NOGX-NOGC ( 1 1 0 0 0)
     EXX-fraction              =        0.00
     nstep                     =           50

     celldm(1)=   9.923489  celldm(2)=   0.000000  celldm(3)=   0.000000
     celldm(4)=   0.000000  celldm(5)=   0.000000  celldm(6)=   0.000000

     crystal axes: (cart. coord. in units of alat)
               a(1) = (   1.000000   0.000000   0.000000 )
               a(2) = (  -0.500000   0.866025   0.000000 )
               a(3) = (   0.000000   0.000000   1.608222 )

     reciprocal axes: (cart. coord. in units 2 pi/alat)
               b(1) = (  1.000000  0.577350  0.000000 )
               b(2) = (  0.000000  1.154701  0.000000 )
               b(3) = (  0.000000  0.000000  0.621805 )

     PseudoPot. # 1 for Nd read from file:
     /home/cwx6513/pp.La/Nd.UPF
     MD5 check sum: c66c5b6abe7b5840ced9b1e244e3bed6
     Pseudo is Norm-conserving, Zval = 14.0
     Generated in analytical, separable form
     Using radial grid of 1257 points,  6 beta functions with:
                l(1) =   0
                l(2) =   0
                l(3) =   1
                l(4) =   1
                l(5) =   2
                l(6) =   3

     PseudoPot. # 2 for Tm read from file:
     /home/cwx6513/pp.La/Tm.UPF
     MD5 check sum: 245516e0878b5372ceeb9443ded2c4e1
     Pseudo is Norm-conserving, Zval = 23.0
     Generated in analytical, separable form
     Using radial grid of 1269 points,  6 beta functions with:
                l(1) =   0
                l(2) =   0
                l(3) =   1
                l(4) =   1
                l(5) =   2
                l(6) =   3

     atomic species   valence    mass     pseudopotential
        Mg            14.00    24.30500     Nd( 1.00)
        Zn            23.00    65.39000     Tm( 1.00)

     24 Sym. Ops., with inversion, found (12 have fractional translation)

   Cartesian axes

     site n.     atom                  positions (alat units)
         1           Mg  tau(   1) = (  -0.0000005   0.5773506   0.1003820  )
         2           Mg  tau(   2) = (   0.5000005   0.2886748   0.9044931  )
         3           Mg  tau(   3) = (   0.5000005   0.2886748   1.5078402  )
         4           Mg  tau(   4) = (  -0.0000005   0.5773506   0.7037291  )
         5           Zn  tau(   5) = (   0.0000000   0.0000000   0.0000000  )
         6           Zn  tau(   6) = (   0.0000000   0.0000000   0.8041111  )
         7           Zn  tau(   7) = (   0.0000000   0.2950739   1.2061667  )
         8           Zn  tau(   8) = (   0.7444585   0.1475370   0.4020556  )
         9           Zn  tau(   9) = (   0.2555415   0.1475370   0.4020556  )
        10           Zn  tau(  10) = (   0.2444585   0.7184884   1.2061667  )
        11           Zn  tau(  11) = (  -0.2444585   0.7184884   1.2061667  )
        12           Zn  tau(  12) = (   0.5000000   0.5709515   0.4020556  )

     number of k points=    12  gaussian smearing, width (Ry)=  0.1000
                       cart. coord. in units 2pi/alat
        k(    1) = (   0.0000000   0.0000000   0.0000000), wk =   0.0833333
        k(    2) = (   0.0000000   0.0000000   0.1554512), wk =   0.1666667
        k(    3) = (   0.0000000   0.0000000  -0.3109023), wk =   0.0833333
        k(    4) = (   0.0000000   0.3849002   0.0000000), wk =   0.1666667
        k(    5) = (   0.0000000   0.3849002   0.1554512), wk =   0.3333333
        k(    6) = (   0.0000000   0.3849002  -0.3109023), wk =   0.1666667
        k(    7) = (  -0.5000000  -0.2886751   0.0000000), wk =   0.0833333
        k(    8) = (  -0.5000000  -0.2886751   0.1554512), wk =   0.1666667
        k(    9) = (  -0.5000000  -0.2886751  -0.3109023), wk =   0.0833333
        k(   10) = (  -0.5000000   0.0962250   0.0000000), wk =   0.1666667
        k(   11) = (  -0.5000000   0.0962250   0.1554512), wk =   0.3333333
        k(   12) = (  -0.5000000   0.0962250  -0.3109023), wk =   0.1666667

     Largest allocated arrays     est. size (Mb)     dimensions
     Largest temporary arrays     est. size (Mb)     dimensions

     Initial potential from superposition of free atoms

     Starting from uniform charge
     Starting wfc are    0 randomized atomic wfcs

     Self-consistent Calculation

     iteration #  1     ecut=    40.00 Ry     beta=0.70
     CG style diagonalization
     ethr =  1.00E-02,  avg # of iterations = 21.1

     total energy              =   -2246.26627458 Ry
     Harris-Foulkes estimate   =   -4718.03137836 Ry
     estimated scf accuracy    <    2962.98300571 Ry

[...]

     iteration #  3     ecut=    40.00 Ry     beta=0.70
     CG style diagonalization
     c_bands:  5 eigenvalues not converged
     c_bands:  5 eigenvalues not converged
     c_bands:  4 eigenvalues not converged
     c_bands:  3 eigenvalues not converged
     c_bands:  2 eigenvalues not converged
     c_bands:  1 eigenvalues not converged
     ethr =  1.00E-02,  avg # of iterations = 15.7

[...]

     End of self-consistent calculation

          k = 0.0000 0.0000 0.0000 (  5769 PWs)   bands (ev):

   -78.6764 -78.6600 -78.6480 -78.6465 -78.6464 -78.6305 -78.6305 -78.5881
   -38.1638 -38.0432 -37.8121 -37.6162 -37.6162 -37.5982 -37.5982 -37.5945
   -37.4694 -37.4693 -37.3896 -37.3337 -37.3336 -37.2940 -37.2940 -37.2608
   -37.2608 -37.2268 -37.2206 -37.2206 -37.1506 -37.1506 -37.1491 -37.1341
   -13.5582 -13.4941 -13.3983 -13.3358   7.2640   7.3362   7.3362   7.3760
     7.4279   7.4280   7.8284   7.8919   7.9655   8.1091   8.1091   8.1122
     8.1122   8.2388   8.9213   9.1974   9.1974   9.3034   9.3034   9.7027
     9.7027   9.8888   9.9531   9.9531  10.6045  10.8734  10.9873  10.9873
    11.3398  11.3399  11.6166  11.7705  11.7705  11.8701  11.8701  11.9319
    12.0530  12.0530  12.1171  12.1352  12.1500  12.1500  12.1965  12.1965
    12.3069  12.3070  12.8477  12.8477  13.1148  13.1149  13.4482  13.4507
    15.9448  17.8411  20.3306  22.6622  23.5244  24.4525  24.4525  25.6263
    26.1714  26.1715  26.3899  26.3899  26.4943  26.4944  27.5429  27.5430
    29.0160  29.8286  29.8286  31.2299  31.9583  32.8410  32.8411  33.0249
    33.0250  33.2319  33.2320  33.3182  33.4599  34.3790  34.3790  34.4174
    34.4174  34.4177  35.0066  36.2169  36.2169  36.3079  36.4030  37.3379
    37.4024  37.4024  37.5221  37.5222  37.6779  37.7861  37.7861  37.9988
    38.1686  38.1688  38.2092  38.4457  38.4459  39.2516  39.3745  39.3932

[...]

          k =-0.5000-0.2887 0.0000 (  5800 PWs)   bands (ev):

[...]

     the Fermi energy is    34.4195 ev

!    total energy              =   -3375.74411290 Ry
     Harris-Foulkes estimate   =   -3375.74411663 Ry
     estimated scf accuracy    <       0.00000427 Ry

     The total energy is the sum of the following terms:

     one-electron contribution =    -844.80963404 Ry
     hartree contribution      =     607.85532736 Ry
     xc contribution           =    -297.44712114 Ry
     ewald contribution        =   -2840.80757570 Ry
     smearing contrib. (-TS)   =      -0.53510937 Ry

     convergence has been achieved in  12 iterations

     Forces acting on atoms (Ry/au):

     atom    1 type  1   force =     0.00000000    0.00000000    0.00549523
     atom    2 type  1   force =     0.00000000    0.00000000    0.00549523
     atom    3 type  1   force =     0.00000000    0.00000000   -0.00549523
     atom    4 type  1   force =     0.00000000    0.00000000   -0.00549523
     atom    5 type  2   force =     0.00000000    0.00000000    0.00000000
     atom    6 type  2   force =     0.00000000    0.00000000    0.00000000
     atom    7 type  2   force =     0.00000000    0.17673808    0.00000000
     atom    8 type  2   force =    -0.15305967    0.08836904    0.00000000
     atom    9 type  2   force =     0.15305967    0.08836904    0.00000000
     atom   10 type  2   force =    -0.15305967   -0.08836904    0.00000000
     atom   11 type  2   force =     0.15305967   -0.08836904    0.00000000
     atom   12 type  2   force =     0.00000000   -0.17673808    0.00000000

     Total force =     0.433058     Total SCF correction =     0.000000

     entering subroutine stress ...

          total   stress  (Ry/bohr**3)                   (kbar)     P= 1105.82
   0.00756517   0.00000000   0.00000000       1112.87      0.00      0.00
   0.00000000   0.00756517   0.00000000          0.00   1112.87      0.00
   0.00000000   0.00000000   0.00742125          0.00      0.00   1091.70

     BFGS Geometry Optimization

     number of scf cycles    =   1
     number of bfgs steps    =   0

     enthalpy new            =   -3375.7441129008 Ry

     new trust radius        =       0.5000000000 bohr
     new conv_thr            =       0.0001000000 Ry

     new unit-cell volume =   1654.90144 a.u.^3 (   245.23109 Ang^3 )

CELL_PARAMETERS (alat=  9.92348860)
   1.067764947   0.000000000   0.000000000
  -0.533882474   0.924711570   0.000000000
   0.000000000   0.000000000   1.715130059

ATOMIC_POSITIONS (crystal)
Mg       0.333333000   0.666667000   0.062541374
Mg       0.666667000   0.333333000   0.562541374
Mg       0.666667000   0.333333000   0.937458626
Mg       0.333333000   0.666667000   0.437458626
Zn       0.000000000   0.000000000   0.000000000
Zn       0.000000000   0.000000000   0.500000000
Zn       0.174045272   0.348090545   0.750000000
Zn       0.825954728   0.174045272   0.250000000
Zn       0.348090545   0.174045272   0.250000000
Zn       0.651909455   0.825954728   0.750000000
Zn       0.174045272   0.825954728   0.750000000
Zn       0.825954728   0.651909455   0.250000000

     Writing output data file Prototype-La-hP12-MgZn2.save
     NEW-OLD atomic charge density approx. for the potential
     NEW k-points:
        k(    1) = (   0.0000000   0.0000000   0.0000000), wk =   0.0833333
        k(    2) = (   0.0000000   0.0000000   0.1457615), wk =   0.1666667
        k(    3) = (   0.0000000   0.0000000  -0.2915231), wk =   0.0833333
        k(    4) = (   0.0000000   0.3604728   0.0000000), wk =   0.1666667
        k(    5) = (   0.0000000   0.3604728   0.1457615), wk =   0.3333333
        k(    6) = (   0.0000000   0.3604728  -0.2915231), wk =   0.1666667
        k(    7) = (  -0.4682679  -0.2703546   0.0000000), wk =   0.0833333
        k(    8) = (  -0.4682679  -0.2703546   0.1457615), wk =   0.1666667
        k(    9) = (  -0.4682679  -0.2703546  -0.2915231), wk =   0.0833333
        k(   10) = (  -0.4682679   0.0901182   0.0000000), wk =   0.1666667
        k(   11) = (  -0.4682679   0.0901182   0.1457615), wk =   0.3333333
        k(   12) = (  -0.4682679   0.0901182  -0.2915231), wk =   0.1666667

[...]

     enthalpy old            =   -3375.7441129008 Ry
     enthalpy new            =   -3376.4204594387 Ry

     CASE: enthalpy_new < enthalpy_old

     small trust_radius: resetting bfgs history

     new trust radius        =       0.4879374251 bohr
     new conv_thr            =       0.0000092861 Ry

[...]

     number of scf cycles    =   3
     number of bfgs steps    =   2

     enthalpy old            =   -3376.4204594387 Ry
     enthalpy new            =   -3376.1401460416 Ry

     CASE: enthalpy_new > enthalpy_old

     new trust radius        =       0.1544728760 bohr

     trust_radius < trust_radius_min

     resetting bfgs history

     Message from routine bfgs:
     history already reset at previous step: stopping
     new conv_thr            =       0.0000092861 Ry

     new unit-cell volume =   1408.23116 a.u.^3 (   208.67833 Ang^3 )

[...]

ATOMIC_POSITIONS (crystal)
Mg       0.333333000   0.666667000   0.062623281
Mg       0.666667000   0.333333000   0.562623281
Mg       0.666667000   0.333333000   0.937376719
Mg       0.333333000   0.666667000   0.437376719
Zn       0.000000000   0.000000000   0.000000000
Zn       0.000000000   0.000000000   0.500000000
Zn       0.173490735   0.346981471   0.750000000
Zn       0.826509265   0.173490735   0.250000000
Zn       0.346981471   0.173490735   0.250000000
Zn       0.653018529   0.826509265   0.750000000
Zn       0.173490735   0.826509265   0.750000000
Zn       0.826509265   0.653018529   0.250000000

     Writing output data file Prototype-La-hP12-MgZn2.save
     NEW-OLD atomic charge density approx. for the potential
     NEW k-points:
        k(    1) = (   0.0000000   0.0000000   0.0000000), wk =   0.0833333
        k(    2) = (   0.0000000   0.0000000   0.1553606), wk =   0.1666667
        k(    3) = (   0.0000000   0.0000000  -0.3107212), wk =   0.0833333
        k(    4) = (   0.0000000   0.3785059   0.0000000), wk =   0.1666667
        k(    5) = (   0.0000000   0.3785059   0.1553606), wk =   0.3333333
        k(    6) = (   0.0000000   0.3785059  -0.3107212), wk =   0.1666667
        k(    7) = (  -0.4916935  -0.2838794   0.0000000), wk =   0.0833333
        k(    8) = (  -0.4916935  -0.2838794   0.1553606), wk =   0.1666667
        k(    9) = (  -0.4916935  -0.2838794  -0.3107212), wk =   0.0833333
        k(   10) = (  -0.4916935   0.0946265   0.0000000), wk =   0.1666667
        k(   11) = (  -0.4916935   0.0946265   0.1553606), wk =   0.3333333
        k(   12) = (  -0.4916935   0.0946265  -0.3107212), wk =   0.1666667

[...]

     The maximum number of steps has been reached.

     End of BFGS Geometry Optimization
Begin final coordinates
     new unit-cell volume =   1408.23116 a.u.^3 (   208.67833 Ang^3 )

CELL_PARAMETERS (alat=  9.92348860)
   1.016893606   0.000000000   0.000000000
  -0.508446803   0.880655695   0.000000000
   0.000000000   0.000000000   1.609159744

ATOMIC_POSITIONS (crystal)
Mg       0.333333000   0.666667000   0.062623281
Mg       0.666667000   0.333333000   0.562623281
Mg       0.666667000   0.333333000   0.937376719
Mg       0.333333000   0.666667000   0.437376719
Zn       0.000000000   0.000000000   0.000000000
Zn       0.000000000   0.000000000   0.500000000
Zn       0.173490735   0.346981471   0.750000000
Zn       0.826509265   0.173490735   0.250000000
Zn       0.346981471   0.173490735   0.250000000
Zn       0.653018529   0.826509265   0.750000000
Zn       0.173490735   0.826509265   0.750000000
Zn       0.826509265   0.653018529   0.250000000
End final coordinates

     A final scf calculation at the relaxed structure.
     The G-vectors are recalculated for the final unit cell
     Results may differ from those at the preceding step.

     bravais-lattice index     =            0
     lattice parameter (alat)  =       9.9235  a.u.
     unit-cell volume          =    1408.2312 (a.u.)^3
     number of atoms/cell      =           12
     number of atomic types    =            2
     number of electrons       =       240.00
     number of Kohn-Sham states=          144
     kinetic-energy cutoff     =      40.0000  Ry
     charge density cutoff     =     160.0000  Ry
     convergence threshold     =      9.3E-06
     mixing beta               =       0.7000
     number of iterations used =            8  plain     mixing
     Exchange-correlation      = SLA-PZ-NOGX-NOGC ( 1 1 0 0 0)
     EXX-fraction              =        0.00

     celldm(1)=   9.923489  celldm(2)=   0.000000  celldm(3)=   0.000000
     celldm(4)=   0.000000  celldm(5)=   0.000000  celldm(6)=   0.000000

     crystal axes: (cart. coord. in units of alat)
               a(1) = (   1.016894   0.000000   0.000000 )
               a(2) = (  -0.508447   0.880656   0.000000 )
               a(3) = (   0.000000   0.000000   1.609160 )

     reciprocal axes: (cart. coord. in units 2 pi/alat)
               b(1) = (  0.983387  0.567759  0.000000 )
               b(2) = (  0.000000  1.135518  0.000000 )
               b(3) = (  0.000000  0.000000  0.621442 )

     PseudoPot. # 1 for Nd read from file:
     /home/cwx6513/pp.La/Nd.UPF
     MD5 check sum: c66c5b6abe7b5840ced9b1e244e3bed6
     Pseudo is Norm-conserving, Zval = 14.0
     Generated in analytical, separable form
     Using radial grid of 1257 points,  6 beta functions with:
                l(1) =   0
                l(2) =   0
                l(3) =   1
                l(4) =   1
                l(5) =   2
                l(6) =   3

     PseudoPot. # 2 for Tm read from file:
     /home/cwx6513/pp.La/Tm.UPF
     MD5 check sum: 245516e0878b5372ceeb9443ded2c4e1
     Pseudo is Norm-conserving, Zval = 23.0
     Generated in analytical, separable form
     Using radial grid of 1269 points,  6 beta functions with:
                l(1) =   0
                l(2) =   0
                l(3) =   1
                l(4) =   1
                l(5) =   2
                l(6) =   3

     atomic species   valence    mass     pseudopotential
        Mg            14.00    24.30500     Nd( 1.00)
        Zn            23.00    65.39000     Tm( 1.00)

     24 Sym. Ops., with inversion, found (12 have fractional translation)

   Cartesian axes

     site n.     atom                  positions (alat units)
         1           Mg  tau(   1) = (  -0.0000005   0.5871041   0.1007709  )
         2           Mg  tau(   2) = (   0.5084473   0.2935516   0.9053507  )
         3           Mg  tau(   3) = (   0.5084473   0.2935516   1.5083889  )
         4           Mg  tau(   4) = (  -0.0000005   0.5871041   0.7038090  )
         5           Zn  tau(   5) = (   0.0000000   0.0000000   0.0000000  )
         6           Zn  tau(   6) = (   0.0000000   0.0000000   0.8045799  )
         7           Zn  tau(   7) = (   0.0000000   0.3055712   1.2068698  )
         8           Zn  tau(   8) = (   0.7522612   0.1527856   0.4022899  )
         9           Zn  tau(   9) = (   0.2646324   0.1527856   0.4022899  )
        10           Zn  tau(  10) = (   0.2438144   0.7278701   1.2068698  )
        11           Zn  tau(  11) = (  -0.2438144   0.7278701   1.2068698  )
        12           Zn  tau(  12) = (   0.5084468   0.5750845   0.4022899  )

     number of k points=    12  gaussian smearing, width (Ry)=  0.1000
                       cart. coord. in units 2pi/alat
        k(    1) = (   0.0000000   0.0000000   0.0000000), wk =   0.0833333
        k(    2) = (   0.0000000   0.0000000   0.1553606), wk =   0.1666667
        k(    3) = (   0.0000000   0.0000000  -0.3107212), wk =   0.0833333
        k(    4) = (   0.0000000   0.3785059   0.0000000), wk =   0.1666667
        k(    5) = (   0.0000000   0.3785059   0.1553606), wk =   0.3333333
        k(    6) = (   0.0000000   0.3785059  -0.3107212), wk =   0.1666667
        k(    7) = (  -0.4916935  -0.2838794   0.0000000), wk =   0.0833333
        k(    8) = (  -0.4916935  -0.2838794   0.1553606), wk =   0.1666667
        k(    9) = (  -0.4916935  -0.2838794  -0.3107212), wk =   0.0833333
        k(   10) = (  -0.4916935   0.0946265   0.0000000), wk =   0.1666667
        k(   11) = (  -0.4916935   0.0946265   0.1553606), wk =   0.3333333
        k(   12) = (  -0.4916935   0.0946265  -0.3107212), wk =   0.1666667

     Largest allocated arrays     est. size (Mb)     dimensions
     Largest temporary arrays     est. size (Mb)     dimensions

     Initial potential from superposition of free atoms

     Starting from uniform charge
     Starting wfc are    0 randomized atomic wfcs

     Writing output data file Prototype-La-hP12-MgZn2.save

     Self-consistent Calculation

[...]

     iteration # 10     ecut=    40.00 Ry     beta=0.70
     CG style diagonalization
     c_bands:  2 eigenvalues not converged
     c_bands:  1 eigenvalues not converged
     c_bands:  1 eigenvalues not converged
     ethr =  1.86E-06,  avg # of iterations =  4.1

[...]

     total energy              =   -3376.43204671 Ry
     Harris-Foulkes estimate   =   -3376.43213269 Ry
     estimated scf accuracy    <       0.00019823 Ry

     iteration # 12     ecut=    40.00 Ry     beta=0.70
     CG style diagonalization
     ethr =  8.26E-08,  avg # of iterations =  3.5

     End of self-consistent calculation

[...]

          k = 0.0000 0.3785-0.3107 (  6010 PWs)   bands (ev):

[...]

          k =-0.4917 0.0946-0.3107 (  6022 PWs)   bands (ev):

   -79.7842 -79.7841 -79.7642 -79.7641 -79.7526 -79.7526 -79.7345 -79.7345
   -38.9925 -38.9925 -38.8519 -38.8519 -38.6582 -38.6582 -38.6382 -38.6382
   -38.5192 -38.5192 -38.4984 -38.4984 -38.4408 -38.4408 -38.3936 -38.3936
   -38.3515 -38.3515 -38.3202 -38.3202 -38.3130 -38.3130 -38.2983 -38.2983
   -14.7203 -14.7201 -14.6473 -14.6471   6.1638   6.1640   6.2542   6.2542
     6.4485   6.4486   6.7360   6.7362   6.8867   6.8868   6.9794   6.9794
     8.0372   8.0372   8.5045   8.5045   8.7244   8.7244   8.8912   8.8912
     8.9452   8.9452   9.4206   9.4207   9.7317   9.7317   9.9550   9.9550
    10.1572  10.1572  10.2178  10.2178  10.3976  10.3976  10.4783  10.4784
    10.6269  10.6269  10.8417  10.8417  10.9363  10.9363  11.1099  11.1099
    11.1455  11.1455  11.1908  11.1908  11.4002  11.4002  11.7746  11.7746
    16.8685  16.8685  18.8099  18.8100  22.2279  22.2279  22.5100  22.5100
    25.6822  25.6822  26.7515  26.7515  27.2400  27.2401  28.3893  28.3893
    28.7558  28.7559  29.6462  29.6463  30.5461  30.5461  31.0056  31.0056
    31.6139  31.6139  31.8915  31.8915  32.0853  32.0853  32.5212  32.5213
    33.2050  33.2050  34.2501  34.2502  34.4481  34.4481  35.3580  35.3580
    35.7492  35.7492  36.2737  36.2738  36.4025  36.4026  37.0315  37.0316
    37.2493  37.2494  37.6447  37.6447  38.2163  38.2164  39.0619  39.0620

     the Fermi energy is    33.1667 ev

!    total energy              =   -3376.43208852 Ry
     Harris-Foulkes estimate   =   -3376.43209607 Ry
     estimated scf accuracy    <       0.00000889 Ry

     The total energy is the sum of the following terms:

     one-electron contribution =    -884.09056214 Ry
     hartree contribution      =     617.35514090 Ry
     xc contribution           =    -296.66508761 Ry
     ewald contribution        =   -2812.48288933 Ry
     smearing contrib. (-TS)   =      -0.54869033 Ry

     convergence has been achieved in  12 iterations

     Forces acting on atoms (Ry/au):

     atom    1 type  1   force =     0.00000000    0.00000000    0.01261530
     atom    2 type  1   force =     0.00000000    0.00000000    0.01261530
     atom    3 type  1   force =     0.00000000    0.00000000   -0.01261530
     atom    4 type  1   force =     0.00000000    0.00000000   -0.01261530
     atom    5 type  2   force =     0.00000000    0.00000000    0.00000000
     atom    6 type  2   force =     0.00000000    0.00000000    0.00000000
     atom    7 type  2   force =     0.00000000    0.00982564    0.00000000
     atom    8 type  2   force =    -0.00850926    0.00491282    0.00000000
     atom    9 type  2   force =     0.00850926    0.00491282    0.00000000
     atom   10 type  2   force =    -0.00850926   -0.00491282    0.00000000
     atom   11 type  2   force =     0.00850926   -0.00491282    0.00000000
     atom   12 type  2   force =     0.00000000   -0.00982564    0.00000000

     Total force =     0.034869     Total SCF correction =     0.000000

     entering subroutine stress ...

          total   stress  (Ry/bohr**3)                   (kbar)     P=  886.12
   0.00614072   0.00000000   0.00000000        903.33      0.00      0.00
   0.00000000   0.00614072   0.00000000          0.00    903.33      0.00
   0.00000000   0.00000000   0.00578965          0.00      0.00    851.69

     Writing output data file Prototype-La-hP12-MgZn2.save

     General routines

     Parallel routines

   This run was terminated on:  18:10:46  22Mar2018

   JOB DONE.