     Program PWSCF v.5.0.2 starts on 22Mar2018 at 22:45:49

     Current dimensions of program PWSCF are:
     Max number of different atomic species (ntypx) = 10
     Max number of k-points (npk) =  40000
     Max angular momentum in pseudopotentials (lmaxx) =  3
     Waiting for input...
     Reading input from standard input

     Subspace diagonalization in iterative solution of the eigenvalue problem:
     a serial algorithm will be used

     bravais-lattice index     =            0
     lattice parameter (alat)  =       9.9235  a.u.
     unit-cell volume          =    1361.0366 (a.u.)^3
     number of atoms/cell      =           12
     number of atomic types    =            2
     number of electrons       =       168.00
     number of Kohn-Sham states=          101
     kinetic-energy cutoff     =      40.0000  Ry
     charge density cutoff     =     160.0000  Ry
     convergence threshold     =      1.0E-04
     mixing beta               =       0.7000
     number of iterations used =            8  plain     mixing
     Exchange-correlation      = SLA-PZ-NOGX-NOGC ( 1 1 0 0 0)
     EXX-fraction              =        0.00
     nstep                     =           50

     celldm(1)=   9.923489  celldm(2)=   0.000000  celldm(3)=   0.000000
     celldm(4)=   0.000000  celldm(5)=   0.000000  celldm(6)=   0.000000

     crystal axes: (cart. coord. in units of alat)
               a(1) = (   1.000000   0.000000   0.000000 )
               a(2) = (  -0.500000   0.866025   0.000000 )
               a(3) = (   0.000000   0.000000   1.608222 )

     reciprocal axes: (cart. coord. in units 2 pi/alat)
               b(1) = (  1.000000  0.577350  0.000000 )
               b(2) = (  0.000000  1.154701  0.000000 )
               b(3) = (  0.000000  0.000000  0.621805 )

     PseudoPot. # 1 for Gd read from file:
     /home/cwx6513/pp.La/Gd.UPF
     MD5 check sum: 09a8be538722f05520810cb6aac0efd2
     Pseudo is Norm-conserving, Zval = 18.0
     Generated in analytical, separable form
     Using radial grid of 1263 points,  6 beta functions with:
                l(1) =   0
                l(2) =   0
                l(3) =   1
                l(4) =   1
                l(5) =   2
                l(6) =   3

     PseudoPot. # 2 for Ce read from file:
     /home/cwx6513/pp.La/Ce.UPF
     MD5 check sum: 44451aa79a44a00cf2bc029dc19922f6
     Pseudo is Norm-conserving, Zval = 12.0
     Generated in analytical, separable form
     Using radial grid of 1255 points,  6 beta functions with:
                l(1) =   0
                l(2) =   0
                l(3) =   1
                l(4) =   1
                l(5) =   2
                l(6) =   3

     atomic species   valence    mass     pseudopotential
        Mg            18.00    24.30500     Gd( 1.00)
        Zn            12.00    65.39000     Ce( 1.00)

     24 Sym. Ops., with inversion, found (12 have fractional translation)

   Cartesian axes

     site n.     atom                  positions (alat units)
         1           Mg  tau(   1) = (  -0.0000005   0.5773506   0.1003820  )
         2           Mg  tau(   2) = (   0.5000005   0.2886748   0.9044931  )
         3           Mg  tau(   3) = (   0.5000005   0.2886748   1.5078402  )
         4           Mg  tau(   4) = (  -0.0000005   0.5773506   0.7037291  )
         5           Zn  tau(   5) = (   0.0000000   0.0000000   0.0000000  )
         6           Zn  tau(   6) = (   0.0000000   0.0000000   0.8041111  )
         7           Zn  tau(   7) = (   0.0000000   0.2950739   1.2061667  )
         8           Zn  tau(   8) = (   0.7444585   0.1475370   0.4020556  )
         9           Zn  tau(   9) = (   0.2555415   0.1475370   0.4020556  )
        10           Zn  tau(  10) = (   0.2444585   0.7184884   1.2061667  )
        11           Zn  tau(  11) = (  -0.2444585   0.7184884   1.2061667  )
        12           Zn  tau(  12) = (   0.5000000   0.5709515   0.4020556  )

     number of k points=    12  gaussian smearing, width (Ry)=  0.1000
                       cart. coord. in units 2pi/alat
        k(    1) = (   0.0000000   0.0000000   0.0000000), wk =   0.0833333
        k(    2) = (   0.0000000   0.0000000   0.1554512), wk =   0.1666667
        k(    3) = (   0.0000000   0.0000000  -0.3109023), wk =   0.0833333
        k(    4) = (   0.0000000   0.3849002   0.0000000), wk =   0.1666667
        k(    5) = (   0.0000000   0.3849002   0.1554512), wk =   0.3333333
        k(    6) = (   0.0000000   0.3849002  -0.3109023), wk =   0.1666667
        k(    7) = (  -0.5000000  -0.2886751   0.0000000), wk =   0.0833333
        k(    8) = (  -0.5000000  -0.2886751   0.1554512), wk =   0.1666667
        k(    9) = (  -0.5000000  -0.2886751  -0.3109023), wk =   0.0833333
        k(   10) = (  -0.5000000   0.0962250   0.0000000), wk =   0.1666667
        k(   11) = (  -0.5000000   0.0962250   0.1554512), wk =   0.3333333
        k(   12) = (  -0.5000000   0.0962250  -0.3109023), wk =   0.1666667

     Largest allocated arrays     est. size (Mb)     dimensions
     Largest temporary arrays     est. size (Mb)     dimensions

     Initial potential from superposition of free atoms

     Starting from uniform charge
     Starting wfc are    0 randomized atomic wfcs

     Self-consistent Calculation

     iteration #  1     ecut=    40.00 Ry     beta=0.70
     CG style diagonalization
     ethr =  1.00E-02,  avg # of iterations = 17.5

     total energy              =    -612.86017381 Ry
     Harris-Foulkes estimate   =   -1699.50793720 Ry
     estimated scf accuracy    <    1316.47009222 Ry

[...]

     iteration #  3     ecut=    40.00 Ry     beta=0.70
     CG style diagonalization
     c_bands:  1 eigenvalues not converged
     c_bands:  1 eigenvalues not converged
     c_bands:  1 eigenvalues not converged
     ethr =  1.00E-02,  avg # of iterations = 11.5

[...]

     negative rho (up, down):  0.401E-05 0.000E+00

[...]

     End of self-consistent calculation

          k = 0.0000 0.0000 0.0000 (  5769 PWs)   bands (ev):

   -40.9522 -40.9468 -40.9328 -40.9208 -12.3635 -12.2892 -12.0698 -12.0698
   -12.0645 -12.0376 -12.0376 -11.9183 -11.9054 -11.9032 -11.9032 -11.8863
   -11.8863 -11.4143 -10.3349  -9.5372  -9.5054  -9.5053  -9.4803  -9.4803
     1.5750   2.7081   3.7181   5.2215   5.2215   5.5496   5.5496   5.7120
     5.7120   6.8472   7.9103   7.9103   7.9980   7.9981   8.7306  10.1421
    10.5066  10.5067  10.5268  10.5429  11.1201  11.1201  11.3440  11.3440
    19.8395  20.7196  21.3369  21.5993  21.5994  21.9888  22.1979  22.1980
    22.4874  22.4874  22.5170  22.5884  22.5885  22.6322  22.9198  22.9198
    23.0837  23.0837  23.2296  23.7888  23.7889  23.8242  23.8243  23.9861
    24.0024  24.0024  25.3794  25.3794  25.4111  25.4111  25.5209  25.9262
    26.8362  27.1285  27.1286  28.4395  28.4395  28.5736  28.7662  28.7662
    29.1151  29.1151  30.2069  31.2446  31.3413  31.4869  31.9717  32.0111
    32.0113  32.9700  33.2932  33.2952  33.3617

[...]

          k =-0.5000-0.2887 0.0000 (  5800 PWs)   bands (ev):

[...]

     the Fermi energy is    28.0783 ev

!    total energy              =   -1421.33764402 Ry
     Harris-Foulkes estimate   =   -1421.33773349 Ry
     estimated scf accuracy    <       0.00009309 Ry

     The total energy is the sum of the following terms:

     one-electron contribution =      48.36591029 Ry
     hartree contribution      =     133.65417504 Ry
     xc contribution           =    -167.17212035 Ry
     ewald contribution        =   -1435.65869938 Ry
     smearing contrib. (-TS)   =      -0.52690961 Ry

     convergence has been achieved in  12 iterations

     Forces acting on atoms (Ry/au):

     atom    1 type  1   force =     0.00000000    0.00000000    0.00662582
     atom    2 type  1   force =     0.00000000    0.00000000    0.00662582
     atom    3 type  1   force =     0.00000000    0.00000000   -0.00662582
     atom    4 type  1   force =     0.00000000    0.00000000   -0.00662582
     atom    5 type  2   force =     0.00000000    0.00000000    0.00000000
     atom    6 type  2   force =     0.00000000    0.00000000    0.00000000
     atom    7 type  2   force =     0.00000000    0.06983971    0.00000000
     atom    8 type  2   force =    -0.06048296    0.03491986    0.00000000
     atom    9 type  2   force =     0.06048296    0.03491986    0.00000000
     atom   10 type  2   force =    -0.06048296   -0.03491986    0.00000000
     atom   11 type  2   force =     0.06048296   -0.03491986    0.00000000
     atom   12 type  2   force =     0.00000000   -0.06983971    0.00000000

     Total force =     0.171584     Total SCF correction =     0.000000

     entering subroutine stress ...

          total   stress  (Ry/bohr**3)                   (kbar)     P= 1046.18
   0.00711969   0.00000000   0.00000000       1047.34      0.00      0.00
   0.00000000   0.00711969   0.00000000          0.00   1047.34      0.00
   0.00000000   0.00000000   0.00709590          0.00      0.00   1043.84

     BFGS Geometry Optimization

     number of scf cycles    =   1
     number of bfgs steps    =   0

     enthalpy new            =   -1421.3376440150 Ry

     new trust radius        =       0.5000000000 bohr
     new conv_thr            =       0.0001000000 Ry

     new unit-cell volume =   1656.55050 a.u.^3 (   245.47545 Ang^3 )

CELL_PARAMETERS (alat=  9.92348860)
   1.067764947   0.000000000   0.000000000
  -0.533882474   0.924711570   0.000000000
   0.000000000   0.000000000   1.716839131

ATOMIC_POSITIONS (crystal)
Mg       0.333333000   0.666667000   0.062576064
Mg       0.666667000   0.333333000   0.562576064
Mg       0.666667000   0.333333000   0.937423936
Mg       0.333333000   0.666667000   0.437423936
Zn       0.000000000   0.000000000   0.000000000
Zn       0.000000000   0.000000000   0.500000000
Zn       0.171907968   0.343815937   0.750000000
Zn       0.828092032   0.171907968   0.250000000
Zn       0.343815937   0.171907968   0.250000000
Zn       0.656184063   0.828092032   0.750000000
Zn       0.171907968   0.828092032   0.750000000
Zn       0.828092032   0.656184063   0.250000000

     Writing output data file Prototype-La-hP12-MgZn2.save
     NEW-OLD atomic charge density approx. for the potential
     NEW k-points:
        k(    1) = (   0.0000000   0.0000000   0.0000000), wk =   0.0833333
        k(    2) = (   0.0000000   0.0000000   0.1456164), wk =   0.1666667
        k(    3) = (   0.0000000   0.0000000  -0.2912329), wk =   0.0833333
        k(    4) = (   0.0000000   0.3604728   0.0000000), wk =   0.1666667
        k(    5) = (   0.0000000   0.3604728   0.1456164), wk =   0.3333333
        k(    6) = (   0.0000000   0.3604728  -0.2912329), wk =   0.1666667
        k(    7) = (  -0.4682679  -0.2703546   0.0000000), wk =   0.0833333
        k(    8) = (  -0.4682679  -0.2703546   0.1456164), wk =   0.1666667
        k(    9) = (  -0.4682679  -0.2703546  -0.2912329), wk =   0.0833333
        k(   10) = (  -0.4682679   0.0901182   0.0000000), wk =   0.1666667
        k(   11) = (  -0.4682679   0.0901182   0.1456164), wk =   0.3333333
        k(   12) = (  -0.4682679   0.0901182  -0.2912329), wk =   0.1666667

[...]

     enthalpy old            =   -1421.3376440151 Ry
     enthalpy new            =   -1422.4310359558 Ry

     CASE: enthalpy_new < enthalpy_old

     small trust_radius: resetting bfgs history

[...]

     number of scf cycles    =   3
     number of bfgs steps    =   2

     enthalpy old            =   -1422.4310359558 Ry
     enthalpy new            =   -1422.4672608935 Ry

     CASE: enthalpy_new < enthalpy_old

     Message from routine bfgs:
     history already reset at previous step: stopping
     small trust_radius: resetting bfgs history

     new trust radius        =       0.1172866051 bohr
     new conv_thr            =       0.0000040277 Ry

     new unit-cell volume =   1728.47609 a.u.^3 (   256.13373 Ang^3 )

[...]

ATOMIC_POSITIONS (crystal)
Mg       0.333333000   0.666667000   0.063471347
Mg       0.666667000   0.333333000   0.563471347
Mg       0.666667000   0.333333000   0.936528653
Mg       0.333333000   0.666667000   0.436528653
Zn       0.000000000   0.000000000   0.000000000
Zn       0.000000000   0.000000000   0.500000000
Zn       0.172663109   0.345326219   0.750000000
Zn       0.827336891   0.172663109   0.250000000
Zn       0.345326219   0.172663109   0.250000000
Zn       0.654673781   0.827336891   0.750000000
Zn       0.172663109   0.827336891   0.750000000
Zn       0.827336891   0.654673781   0.250000000

     Writing output data file Prototype-La-hP12-MgZn2.save
     NEW-OLD atomic charge density approx. for the potential
     NEW k-points:
        k(    1) = (   0.0000000   0.0000000   0.0000000), wk =   0.0833333
        k(    2) = (   0.0000000   0.0000000   0.1439731), wk =   0.1666667
        k(    3) = (   0.0000000   0.0000000  -0.2879463), wk =   0.0833333
        k(    4) = (   0.0000000   0.3549013   0.0000000), wk =   0.1666667
        k(    5) = (   0.0000000   0.3549013   0.1439731), wk =   0.3333333
        k(    6) = (   0.0000000   0.3549013  -0.2879463), wk =   0.1666667
        k(    7) = (  -0.4610303  -0.2661760   0.0000000), wk =   0.0833333
        k(    8) = (  -0.4610303  -0.2661760   0.1439731), wk =   0.1666667
        k(    9) = (  -0.4610303  -0.2661760  -0.2879463), wk =   0.0833333
        k(   10) = (  -0.4610303   0.0887253   0.0000000), wk =   0.1666667
        k(   11) = (  -0.4610303   0.0887253   0.1439731), wk =   0.3333333
        k(   12) = (  -0.4610303   0.0887253  -0.2879463), wk =   0.1666667

[...]

     The maximum number of steps has been reached.

     End of BFGS Geometry Optimization
Begin final coordinates
     new unit-cell volume =   1728.47609 a.u.^3 (   256.13373 Ang^3 )

CELL_PARAMETERS (alat=  9.92348860)
   1.084527406   0.000000000   0.000000000
  -0.542263703   0.939228284   0.000000000
   0.000000000   0.000000000   1.736435108

ATOMIC_POSITIONS (crystal)
Mg       0.333333000   0.666667000   0.063471347
Mg       0.666667000   0.333333000   0.563471347
Mg       0.666667000   0.333333000   0.936528653
Mg       0.333333000   0.666667000   0.436528653
Zn       0.000000000   0.000000000   0.000000000
Zn       0.000000000   0.000000000   0.500000000
Zn       0.172663109   0.345326219   0.750000000
Zn       0.827336891   0.172663109   0.250000000
Zn       0.345326219   0.172663109   0.250000000
Zn       0.654673781   0.827336891   0.750000000
Zn       0.172663109   0.827336891   0.750000000
Zn       0.827336891   0.654673781   0.250000000
End final coordinates

     A final scf calculation at the relaxed structure.
     The G-vectors are recalculated for the final unit cell
     Results may differ from those at the preceding step.

     bravais-lattice index     =            0
     lattice parameter (alat)  =       9.9235  a.u.
     unit-cell volume          =    1728.4761 (a.u.)^3
     number of atoms/cell      =           12
     number of atomic types    =            2
     number of electrons       =       168.00
     number of Kohn-Sham states=          101
     kinetic-energy cutoff     =      40.0000  Ry
     charge density cutoff     =     160.0000  Ry
     convergence threshold     =      4.0E-06
     mixing beta               =       0.7000
     number of iterations used =            8  plain     mixing
     Exchange-correlation      = SLA-PZ-NOGX-NOGC ( 1 1 0 0 0)
     EXX-fraction              =        0.00

     celldm(1)=   9.923489  celldm(2)=   0.000000  celldm(3)=   0.000000
     celldm(4)=   0.000000  celldm(5)=   0.000000  celldm(6)=   0.000000

     crystal axes: (cart. coord. in units of alat)
               a(1) = (   1.084527   0.000000   0.000000 )
               a(2) = (  -0.542264   0.939228   0.000000 )
               a(3) = (   0.000000   0.000000   1.736435 )

     reciprocal axes: (cart. coord. in units 2 pi/alat)
               b(1) = (  0.922061  0.532352  0.000000 )
               b(2) = (  0.000000  1.064704  0.000000 )
               b(3) = (  0.000000  0.000000  0.575893 )

     PseudoPot. # 1 for Gd read from file:
     /home/cwx6513/pp.La/Gd.UPF
     MD5 check sum: 09a8be538722f05520810cb6aac0efd2
     Pseudo is Norm-conserving, Zval = 18.0
     Generated in analytical, separable form
     Using radial grid of 1263 points,  6 beta functions with:
                l(1) =   0
                l(2) =   0
                l(3) =   1
                l(4) =   1
                l(5) =   2
                l(6) =   3

     PseudoPot. # 2 for Ce read from file:
     /home/cwx6513/pp.La/Ce.UPF
     MD5 check sum: 44451aa79a44a00cf2bc029dc19922f6
     Pseudo is Norm-conserving, Zval = 12.0
     Generated in analytical, separable form
     Using radial grid of 1255 points,  6 beta functions with:
                l(1) =   0
                l(2) =   0
                l(3) =   1
                l(4) =   1
                l(5) =   2
                l(6) =   3

     atomic species   valence    mass     pseudopotential
        Mg            18.00    24.30500     Gd( 1.00)
        Zn            12.00    65.39000     Ce( 1.00)

     24 Sym. Ops., with inversion, found (12 have fractional translation)

   Cartesian axes

     site n.     atom                  positions (alat units)
         1           Mg  tau(   1) = (  -0.0000005   0.6261525   0.1102139  )
         2           Mg  tau(   2) = (   0.5422642   0.3130758   0.9784314  )
         3           Mg  tau(   3) = (   0.5422642   0.3130758   1.6262212  )
         4           Mg  tau(   4) = (  -0.0000005   0.6261525   0.7580037  )
         5           Zn  tau(   5) = (   0.0000000   0.0000000   0.0000000  )
         6           Zn  tau(   6) = (   0.0000000   0.0000000   0.8682176  )
         7           Zn  tau(   7) = (   0.0000000   0.3243402   1.3023263  )
         8           Zn  tau(   8) = (   0.8036406   0.1621701   0.4341088  )
         9           Zn  tau(   9) = (   0.2808868   0.1621701   0.4341088  )
        10           Zn  tau(  10) = (   0.2613769   0.7770582   1.3023263  )
        11           Zn  tau(  11) = (  -0.2613769   0.7770582   1.3023263  )
        12           Zn  tau(  12) = (   0.5422637   0.6148881   0.4341088  )

     number of k points=    12  gaussian smearing, width (Ry)=  0.1000
                       cart. coord. in units 2pi/alat
        k(    1) = (   0.0000000   0.0000000   0.0000000), wk =   0.0833333
        k(    2) = (   0.0000000   0.0000000   0.1439731), wk =   0.1666667
        k(    3) = (   0.0000000   0.0000000  -0.2879463), wk =   0.0833333
        k(    4) = (   0.0000000   0.3549013   0.0000000), wk =   0.1666667
        k(    5) = (   0.0000000   0.3549013   0.1439731), wk =   0.3333333
        k(    6) = (   0.0000000   0.3549013  -0.2879463), wk =   0.1666667
        k(    7) = (  -0.4610303  -0.2661760   0.0000000), wk =   0.0833333
        k(    8) = (  -0.4610303  -0.2661760   0.1439731), wk =   0.1666667
        k(    9) = (  -0.4610303  -0.2661760  -0.2879463), wk =   0.0833333
        k(   10) = (  -0.4610303   0.0887253   0.0000000), wk =   0.1666667
        k(   11) = (  -0.4610303   0.0887253   0.1439731), wk =   0.3333333
        k(   12) = (  -0.4610303   0.0887253  -0.2879463), wk =   0.1666667

     Largest allocated arrays     est. size (Mb)     dimensions
     Largest temporary arrays     est. size (Mb)     dimensions

     Initial potential from superposition of free atoms

     Starting from uniform charge
     Starting wfc are    0 randomized atomic wfcs

     Writing output data file Prototype-La-hP12-MgZn2.save

     Self-consistent Calculation

[...]

     iteration # 12     ecut=    40.00 Ry     beta=0.70
     CG style diagonalization
     c_bands:  1 eigenvalues not converged
     c_bands:  1 eigenvalues not converged
     ethr =  2.73E-07,  avg # of iterations =  4.8

[...]

     total energy              =   -1423.11402846 Ry
     Harris-Foulkes estimate   =   -1423.11403594 Ry
     estimated scf accuracy    <       0.00001423 Ry

     iteration # 14     ecut=    40.00 Ry     beta=0.70
     CG style diagonalization
     ethr =  8.47E-09,  avg # of iterations =  4.8

     End of self-consistent calculation

[...]

          k = 0.0000 0.3549-0.2879 (  7394 PWs)   bands (ev):

[...]

          k =-0.4610 0.0887-0.2879 (  7392 PWs)   bands (ev):

   -46.8276 -46.8276 -46.8230 -46.8230 -17.8237 -17.8237 -17.8124 -17.8124
   -17.7956 -17.7956 -17.7610 -17.7610 -17.7390 -17.7390 -17.7313 -17.7313
   -17.1003 -17.1003 -16.7581 -16.7581 -16.1602 -16.1602 -16.0951 -16.0951
    -1.2483  -1.2483  -0.2816  -0.2816   0.4134   0.4134   0.5418   0.5418
     0.7430   0.7430   1.0343   1.0343   1.6417   1.6417   2.1133   2.1133
     2.4735   2.4735   2.7558   2.7558   3.2568   3.2568   3.3750   3.3750
    16.1114  16.1114  16.4412  16.4412  16.5596  16.5596  16.7681  16.7681
    16.7974  16.7974  17.1749  17.1749  17.3287  17.3287  17.5057  17.5057
    17.8471  17.8471  18.1742  18.1742  18.4990  18.4990  18.8701  18.8701
    19.3430  19.3430  19.5587  19.5587  20.0773  20.0773  20.5260  20.5260
    20.7640  20.7640  21.0371  21.0371  21.6247  21.6248  21.8197  21.8197
    22.0676  22.0676  23.0642  23.0642  23.3984  23.3984  23.7946  23.7948
    24.1699  24.1700  24.3709  24.3727  24.6161

     the Fermi energy is    21.3326 ev

!    total energy              =   -1423.11403490 Ry
     Harris-Foulkes estimate   =   -1423.11403820 Ry
     estimated scf accuracy    <       0.00000355 Ry

     The total energy is the sum of the following terms:

     one-electron contribution =    -104.21492773 Ry
     hartree contribution      =     170.45789157 Ry
     xc contribution           =    -162.96759305 Ry
     ewald contribution        =   -1325.73817631 Ry
     smearing contrib. (-TS)   =      -0.65122938 Ry

     convergence has been achieved in  14 iterations

     Forces acting on atoms (Ry/au):

     atom    1 type  1   force =     0.00000000    0.00000000    0.00327805
     atom    2 type  1   force =     0.00000000    0.00000000    0.00327805
     atom    3 type  1   force =     0.00000000    0.00000000   -0.00327805
     atom    4 type  1   force =     0.00000000    0.00000000   -0.00327805
     atom    5 type  2   force =     0.00000000    0.00000000    0.00000000
     atom    6 type  2   force =     0.00000000    0.00000000    0.00000000
     atom    7 type  2   force =     0.00000000    0.00285519    0.00000000
     atom    8 type  2   force =    -0.00247267    0.00142760    0.00000000
     atom    9 type  2   force =     0.00247267    0.00142760    0.00000000
     atom   10 type  2   force =    -0.00247267   -0.00142760    0.00000000
     atom   11 type  2   force =     0.00247267   -0.00142760    0.00000000
     atom   12 type  2   force =     0.00000000   -0.00285519    0.00000000

     Total force =     0.009586     Total SCF correction =     0.000000

     entering subroutine stress ...

          total   stress  (Ry/bohr**3)                   (kbar)     P=  190.45
   0.00133309   0.00000000   0.00000000        196.10      0.00      0.00
   0.00000000   0.00133309   0.00000000          0.00    196.10      0.00
   0.00000000   0.00000000   0.00121771          0.00      0.00    179.13

     Writing output data file Prototype-La-hP12-MgZn2.save

     General routines

     Parallel routines

   This run was terminated on:  23:11:32  22Mar2018

   JOB DONE.