     Program PWSCF v.5.0.2 starts on 22Mar2018 at 22:45:48

     Current dimensions of program PWSCF are:
     Max number of different atomic species (ntypx) = 10
     Max number of k-points (npk) =  40000
     Max angular momentum in pseudopotentials (lmaxx) =  3
     Waiting for input...
     Reading input from standard input

     Subspace diagonalization in iterative solution of the eigenvalue problem:
     a serial algorithm will be used

     bravais-lattice index     =            0
     lattice parameter (alat)  =       8.5346  a.u.
     unit-cell volume          =     621.6493 (a.u.)^3
     number of atoms/cell      =            8
     number of atomic types    =            2
     number of electrons       =       132.00
     number of Kohn-Sham states=           79
     kinetic-energy cutoff     =      40.0000  Ry
     charge density cutoff     =     160.0000  Ry
     convergence threshold     =      1.0E-04
     mixing beta               =       0.7000
     number of iterations used =            8  plain     mixing
     Exchange-correlation      = SLA-PZ-NOGX-NOGC ( 1 1 0 0 0)
     EXX-fraction              =        0.00
     nstep                     =           50

     celldm(1)=   8.534573  celldm(2)=   0.000000  celldm(3)=   0.000000
     celldm(4)=   0.000000  celldm(5)=   0.000000  celldm(6)=   0.000000

     crystal axes: (cart. coord. in units of alat)
               a(1) = (   1.000000   0.000000   0.000000 )
               a(2) = (   0.000000   1.000000   0.000000 )
               a(3) = (   0.000000   0.000000   1.000000 )

     reciprocal axes: (cart. coord. in units 2 pi/alat)
               b(1) = (  1.000000  0.000000  0.000000 )
               b(2) = (  0.000000  1.000000  0.000000 )
               b(3) = (  0.000000  0.000000  1.000000 )

     PseudoPot. # 1 for Gd read from file:
     /home/cwx6513/pp.La/Gd.UPF
     MD5 check sum: 09a8be538722f05520810cb6aac0efd2
     Pseudo is Norm-conserving, Zval = 18.0
     Generated in analytical, separable form
     Using radial grid of 1263 points,  6 beta functions with:
                l(1) =   0
                l(2) =   0
                l(3) =   1
                l(4) =   1
                l(5) =   2
                l(6) =   3

     PseudoPot. # 2 for Ce read from file:
     /home/cwx6513/pp.La/Ce.UPF
     MD5 check sum: 44451aa79a44a00cf2bc029dc19922f6
     Pseudo is Norm-conserving, Zval = 12.0
     Generated in analytical, separable form
     Using radial grid of 1255 points,  6 beta functions with:
                l(1) =   0
                l(2) =   0
                l(3) =   1
                l(4) =   1
                l(5) =   2
                l(6) =   3

     atomic species   valence    mass     pseudopotential
        Cr            18.00    51.99610     Gd( 1.00)
        Si            12.00    28.08550     Ce( 1.00)

     48 Sym. Ops., with inversion, found (24 have fractional translation)

   Cartesian axes

     site n.     atom                  positions (alat units)
         1           Cr  tau(   1) = (   0.0000000   0.5000000   0.2500000  )
         2           Cr  tau(   2) = (   0.0000000   0.5000000   0.7500000  )
         3           Cr  tau(   3) = (   0.5000000   0.7500000   0.0000000  )
         4           Cr  tau(   4) = (   0.5000000   0.2500000   0.0000000  )
         5           Cr  tau(   5) = (   0.7500000   0.0000000   0.5000000  )
         6           Cr  tau(   6) = (   0.2500000   0.0000000   0.5000000  )
         7           Si  tau(   7) = (   0.5000000   0.5000000   0.5000000  )
         8           Si  tau(   8) = (   0.0000000   0.0000000   0.0000000  )

     number of k points=    48  gaussian smearing, width (Ry)=  0.1000
                       cart. coord. in units 2pi/alat
        k(    1) = (   0.0000000   0.0000000   0.0000000), wk =   0.0095238
        k(    2) = (   0.0000000   0.0000000   0.1428571), wk =   0.0190476
        k(    3) = (   0.0000000   0.0000000   0.2857143), wk =   0.0190476
        k(    4) = (   0.0000000   0.0000000   0.4285714), wk =   0.0190476
        k(    5) = (   0.0000000   0.1666667   0.0000000), wk =   0.0190476
        k(    6) = (   0.0000000   0.1666667   0.1428571), wk =   0.0380952
        k(    7) = (   0.0000000   0.1666667   0.2857143), wk =   0.0380952
        k(    8) = (   0.0000000   0.1666667   0.4285714), wk =   0.0380952
        k(    9) = (   0.0000000   0.3333333   0.0000000), wk =   0.0190476
        k(   10) = (   0.0000000   0.3333333   0.1428571), wk =   0.0380952
        k(   11) = (   0.0000000   0.3333333   0.2857143), wk =   0.0380952
        k(   12) = (   0.0000000   0.3333333   0.4285714), wk =   0.0380952
        k(   13) = (   0.0000000  -0.5000000   0.0000000), wk =   0.0095238
        k(   14) = (   0.0000000  -0.5000000   0.1428571), wk =   0.0190476
        k(   15) = (   0.0000000  -0.5000000   0.2857143), wk =   0.0190476
        k(   16) = (   0.0000000  -0.5000000   0.4285714), wk =   0.0190476
        k(   17) = (   0.2000000   0.0000000   0.0000000), wk =   0.0190476
        k(   18) = (   0.2000000   0.0000000   0.1428571), wk =   0.0380952
        k(   19) = (   0.2000000   0.0000000   0.2857143), wk =   0.0380952
        k(   20) = (   0.2000000   0.0000000   0.4285714), wk =   0.0380952
        k(   21) = (   0.2000000   0.1666667   0.0000000), wk =   0.0380952
        k(   22) = (   0.2000000   0.1666667   0.1428571), wk =   0.0761905
        k(   23) = (   0.2000000   0.1666667   0.2857143), wk =   0.0761905
        k(   24) = (   0.2000000   0.1666667   0.4285714), wk =   0.0761905
        k(   25) = (   0.2000000   0.3333333   0.0000000), wk =   0.0380952
        k(   26) = (   0.2000000   0.3333333   0.1428571), wk =   0.0761905
        k(   27) = (   0.2000000   0.3333333   0.2857143), wk =   0.0761905
        k(   28) = (   0.2000000   0.3333333   0.4285714), wk =   0.0761905
        k(   29) = (   0.2000000  -0.5000000   0.0000000), wk =   0.0190476
        k(   30) = (   0.2000000  -0.5000000   0.1428571), wk =   0.0380952
        k(   31) = (   0.2000000  -0.5000000   0.2857143), wk =   0.0380952
        k(   32) = (   0.2000000  -0.5000000   0.4285714), wk =   0.0380952
        k(   33) = (   0.4000000   0.0000000   0.0000000), wk =   0.0190476
        k(   34) = (   0.4000000   0.0000000   0.1428571), wk =   0.0380952
        k(   35) = (   0.4000000   0.0000000   0.2857143), wk =   0.0380952
        k(   36) = (   0.4000000   0.0000000   0.4285714), wk =   0.0380952
        k(   37) = (   0.4000000   0.1666667   0.0000000), wk =   0.0380952
        k(   38) = (   0.4000000   0.1666667   0.1428571), wk =   0.0761905
        k(   39) = (   0.4000000   0.1666667   0.2857143), wk =   0.0761905
        k(   40) = (   0.4000000   0.1666667   0.4285714), wk =   0.0761905
        k(   41) = (   0.4000000   0.3333333   0.0000000), wk =   0.0380952
        k(   42) = (   0.4000000   0.3333333   0.1428571), wk =   0.0761905
        k(   43) = (   0.4000000   0.3333333   0.2857143), wk =   0.0761905
        k(   44) = (   0.4000000   0.3333333   0.4285714), wk =   0.0761905
        k(   45) = (   0.4000000  -0.5000000   0.0000000), wk =   0.0190476
        k(   46) = (   0.4000000  -0.5000000   0.1428571), wk =   0.0380952
        k(   47) = (   0.4000000  -0.5000000   0.2857143), wk =   0.0380952
        k(   48) = (   0.4000000  -0.5000000   0.4285714), wk =   0.0380952

     Largest allocated arrays     est. size (Mb)     dimensions
     Largest temporary arrays     est. size (Mb)     dimensions

     Initial potential from superposition of free atoms

     Starting from uniform charge
     Starting wfc are    0 randomized atomic wfcs

     Self-consistent Calculation

     iteration #  1     ecut=    40.00 Ry     beta=0.70
     CG style diagonalization
     c_bands:  2 eigenvalues not converged
     c_bands:  3 eigenvalues not converged
     c_bands:  3 eigenvalues not converged
     c_bands:  1 eigenvalues not converged
     c_bands:  5 eigenvalues not converged
     c_bands:  1 eigenvalues not converged
     c_bands:  4 eigenvalues not converged
     ethr =  1.00E-02,  avg # of iterations = 15.2

     total energy              =   -1182.66676524 Ry
     Harris-Foulkes estimate   =   -1524.70701069 Ry
     estimated scf accuracy    <     433.01014343 Ry

[...]

     iteration #  4     ecut=    40.00 Ry     beta=0.70
     CG style diagonalization
     ethr =  1.00E-02,  avg # of iterations =  3.6

[...]

     End of self-consistent calculation

          k = 0.0000 0.0000 0.0000 (  2601 PWs)   bands (ev):

   -27.6075 -27.2368 -27.2368 -26.2465 -26.2465 -26.2465  -1.7655  -1.7655
    -1.5334   0.5610   0.5610   0.5610   2.0744   2.0744   2.0744   2.1159
     2.1159   2.1159   2.5668   2.5668   2.5668   4.3970   4.3970   4.3970
     4.9964   5.3709  21.5771  21.5771  21.5771  21.9952  21.9952  21.9952
    30.5988  30.5988  30.8893  31.3154  31.3154  31.3154  32.3550  33.9954
    33.9954  33.9954  34.5598  34.5598  34.9027  37.0307  37.0307  37.0307
    37.2263  38.7544  38.7544  38.7544  40.0823  40.0823  40.3325  40.3325
    40.3325  40.8656  40.8656  40.8656  41.0874  41.0874  41.0874  41.2236
    41.2236  43.9195  43.9195  43.9195  45.0510  45.0510  48.7777  48.7777
    48.7780  50.3652  50.3653  50.3687  50.3693  50.3694  52.2259

[...]

     the Fermi energy is    44.6423 ev

!    total energy              =   -1356.49492568 Ry
     Harris-Foulkes estimate   =   -1356.49499544 Ry
     estimated scf accuracy    <       0.00007656 Ry

     The total energy is the sum of the following terms:

     one-electron contribution =     182.79382445 Ry
     hartree contribution      =     100.10242726 Ry
     xc contribution           =    -149.79191021 Ry
     ewald contribution        =   -1489.40469331 Ry
     smearing contrib. (-TS)   =      -0.19457386 Ry

     convergence has been achieved in   9 iterations

     Forces acting on atoms (Ry/au):

     atom    1 type  1   force =     0.00000000    0.00000000    0.00000000
     atom    2 type  1   force =     0.00000000    0.00000000    0.00000000
     atom    3 type  1   force =     0.00000000    0.00000000    0.00000000
     atom    4 type  1   force =     0.00000000    0.00000000    0.00000000
     atom    5 type  1   force =     0.00000000    0.00000000    0.00000000
     atom    6 type  1   force =     0.00000000    0.00000000    0.00000000
     atom    7 type  2   force =     0.00000000    0.00000000    0.00000000
     atom    8 type  2   force =     0.00000000    0.00000000    0.00000000

     Total force =     0.000000     Total SCF correction =     0.000000

     entering subroutine stress ...

          total   stress  (Ry/bohr**3)                   (kbar)     P= 5102.32
   0.03468487   0.00000000   0.00000000       5102.32      0.00      0.00
   0.00000000   0.03468487   0.00000000          0.00   5102.32      0.00
   0.00000000   0.00000000   0.03468487          0.00      0.00   5102.32

     BFGS Geometry Optimization

     number of scf cycles    =   1
     number of bfgs steps    =   0

     enthalpy new            =   -1356.4949256817 Ry

     new trust radius        =       0.5000000000 bohr
[...]

     CASE: enthalpy_new < enthalpy_old

     small trust_radius: resetting bfgs history

     new trust radius        =       0.9530177051 bohr
     new conv_thr            =       0.0000010000 Ry

[...]

     negative rho (up, down):  0.137E-05 0.000E+00

[...]

          total   stress  (Ry/bohr**3)                   (kbar)     P=-1092.38
  -0.00742587   0.00000000   0.00000000      -1092.38      0.00      0.00
   0.00000000  -0.00742587   0.00000000          0.00  -1092.38      0.00
   0.00000000   0.00000000  -0.00742587          0.00      0.00  -1092.38

     number of scf cycles    =   3
     number of bfgs steps    =   2

     enthalpy old            =   -1360.2434431702 Ry
     enthalpy new            =   -1358.8315740636 Ry

     CASE: enthalpy_new > enthalpy_old

     new trust radius        =       0.3388636178 bohr

     trust_radius < trust_radius_min

     resetting bfgs history

     Message from routine bfgs:
     history already reset at previous step: stopping
     new conv_thr            =       0.0000010000 Ry

     new unit-cell volume =   1044.43830 a.u.^3 (   154.76979 Ang^3 )

[...]

ATOMIC_POSITIONS (crystal)
Cr       0.000000000   0.500000000   0.250000000
Cr       0.000000000   0.500000000   0.750000000
Cr       0.500000000   0.750000000   0.000000000
Cr       0.500000000   0.250000000   0.000000000
Cr       0.750000000   0.000000000   0.500000000
Cr       0.250000000   0.000000000   0.500000000
Si       0.500000000   0.500000000   0.500000000
Si       0.000000000   0.000000000   0.000000000

     Writing output data file Prototype-La-cP8-Cr3Si.save
     NEW-OLD atomic charge density approx. for the potential
     NEW k-points:
        k(    1) = (   0.0000000   0.0000000   0.0000000), wk =   0.0095238
        k(    2) = (   0.0000000   0.0000000   0.1201682), wk =   0.0190476
        k(    3) = (   0.0000000   0.0000000   0.2403364), wk =   0.0190476
        k(    4) = (   0.0000000   0.0000000   0.3605046), wk =   0.0190476
        k(    5) = (   0.0000000   0.1401962   0.0000000), wk =   0.0190476
        k(    6) = (   0.0000000   0.1401962   0.1201682), wk =   0.0380952
        k(    7) = (   0.0000000   0.1401962   0.2403364), wk =   0.0380952
        k(    8) = (   0.0000000   0.1401962   0.3605046), wk =   0.0380952
        k(    9) = (   0.0000000   0.2803924   0.0000000), wk =   0.0190476
        k(   10) = (   0.0000000   0.2803924   0.1201682), wk =   0.0380952
        k(   11) = (   0.0000000   0.2803924   0.2403364), wk =   0.0380952
        k(   12) = (   0.0000000   0.2803924   0.3605046), wk =   0.0380952
        k(   13) = (   0.0000000  -0.4205886   0.0000000), wk =   0.0095238
        k(   14) = (   0.0000000  -0.4205886   0.1201682), wk =   0.0190476
        k(   15) = (   0.0000000  -0.4205886   0.2403364), wk =   0.0190476
        k(   16) = (   0.0000000  -0.4205886   0.3605046), wk =   0.0190476
        k(   17) = (   0.1682355   0.0000000   0.0000000), wk =   0.0190476
        k(   18) = (   0.1682355   0.0000000   0.1201682), wk =   0.0380952
        k(   19) = (   0.1682355   0.0000000   0.2403364), wk =   0.0380952
        k(   20) = (   0.1682355   0.0000000   0.3605046), wk =   0.0380952
        k(   21) = (   0.1682355   0.1401962   0.0000000), wk =   0.0380952
        k(   22) = (   0.1682355   0.1401962   0.1201682), wk =   0.0761905
        k(   23) = (   0.1682355   0.1401962   0.2403364), wk =   0.0761905
        k(   24) = (   0.1682355   0.1401962   0.3605046), wk =   0.0761905
        k(   25) = (   0.1682355   0.2803924   0.0000000), wk =   0.0380952
        k(   26) = (   0.1682355   0.2803924   0.1201682), wk =   0.0761905
        k(   27) = (   0.1682355   0.2803924   0.2403364), wk =   0.0761905
        k(   28) = (   0.1682355   0.2803924   0.3605046), wk =   0.0761905
        k(   29) = (   0.1682355  -0.4205886   0.0000000), wk =   0.0190476
        k(   30) = (   0.1682355  -0.4205886   0.1201682), wk =   0.0380952
        k(   31) = (   0.1682355  -0.4205886   0.2403364), wk =   0.0380952
        k(   32) = (   0.1682355  -0.4205886   0.3605046), wk =   0.0380952
        k(   33) = (   0.3364709   0.0000000   0.0000000), wk =   0.0190476
        k(   34) = (   0.3364709   0.0000000   0.1201682), wk =   0.0380952
        k(   35) = (   0.3364709   0.0000000   0.2403364), wk =   0.0380952
        k(   36) = (   0.3364709   0.0000000   0.3605046), wk =   0.0380952
        k(   37) = (   0.3364709   0.1401962   0.0000000), wk =   0.0380952
        k(   38) = (   0.3364709   0.1401962   0.1201682), wk =   0.0761905
        k(   39) = (   0.3364709   0.1401962   0.2403364), wk =   0.0761905
        k(   40) = (   0.3364709   0.1401962   0.3605046), wk =   0.0761905
        k(   41) = (   0.3364709   0.2803924   0.0000000), wk =   0.0380952
        k(   42) = (   0.3364709   0.2803924   0.1201682), wk =   0.0761905
        k(   43) = (   0.3364709   0.2803924   0.2403364), wk =   0.0761905
        k(   44) = (   0.3364709   0.2803924   0.3605046), wk =   0.0761905
        k(   45) = (   0.3364709  -0.4205886   0.0000000), wk =   0.0190476
        k(   46) = (   0.3364709  -0.4205886   0.1201682), wk =   0.0380952
        k(   47) = (   0.3364709  -0.4205886   0.2403364), wk =   0.0380952
        k(   48) = (   0.3364709  -0.4205886   0.3605046), wk =   0.0380952

[...]

     The maximum number of steps has been reached.

     End of BFGS Geometry Optimization
Begin final coordinates
     new unit-cell volume =   1044.43830 a.u.^3 (   154.76979 Ang^3 )

CELL_PARAMETERS (alat=  8.53457320)
   1.188810018   0.000000000   0.000000000
   0.000000000   1.188810018   0.000000000
   0.000000000   0.000000000   1.188810018

ATOMIC_POSITIONS (crystal)
Cr       0.000000000   0.500000000   0.250000000
Cr       0.000000000   0.500000000   0.750000000
Cr       0.500000000   0.750000000   0.000000000
Cr       0.500000000   0.250000000   0.000000000
Cr       0.750000000   0.000000000   0.500000000
Cr       0.250000000   0.000000000   0.500000000
Si       0.500000000   0.500000000   0.500000000
Si       0.000000000   0.000000000   0.000000000
End final coordinates

     A final scf calculation at the relaxed structure.
     The G-vectors are recalculated for the final unit cell
     Results may differ from those at the preceding step.

     bravais-lattice index     =            0
     lattice parameter (alat)  =       8.5346  a.u.
     unit-cell volume          =    1044.4383 (a.u.)^3
     number of atoms/cell      =            8
     number of atomic types    =            2
     number of electrons       =       132.00
     number of Kohn-Sham states=           79
     kinetic-energy cutoff     =      40.0000  Ry
     charge density cutoff     =     160.0000  Ry
     convergence threshold     =      1.0E-06
     mixing beta               =       0.7000
     number of iterations used =            8  plain     mixing
     Exchange-correlation      = SLA-PZ-NOGX-NOGC ( 1 1 0 0 0)
     EXX-fraction              =        0.00

     celldm(1)=   8.534573  celldm(2)=   0.000000  celldm(3)=   0.000000
     celldm(4)=   0.000000  celldm(5)=   0.000000  celldm(6)=   0.000000

     crystal axes: (cart. coord. in units of alat)
               a(1) = (   1.188810   0.000000   0.000000 )
               a(2) = (   0.000000   1.188810   0.000000 )
               a(3) = (   0.000000   0.000000   1.188810 )

     reciprocal axes: (cart. coord. in units 2 pi/alat)
               b(1) = (  0.841177  0.000000  0.000000 )
               b(2) = (  0.000000  0.841177  0.000000 )
               b(3) = (  0.000000  0.000000  0.841177 )

     PseudoPot. # 1 for Gd read from file:
     /home/cwx6513/pp.La/Gd.UPF
     MD5 check sum: 09a8be538722f05520810cb6aac0efd2
     Pseudo is Norm-conserving, Zval = 18.0
     Generated in analytical, separable form
     Using radial grid of 1263 points,  6 beta functions with:
                l(1) =   0
                l(2) =   0
                l(3) =   1
                l(4) =   1
                l(5) =   2
                l(6) =   3

     PseudoPot. # 2 for Ce read from file:
     /home/cwx6513/pp.La/Ce.UPF
     MD5 check sum: 44451aa79a44a00cf2bc029dc19922f6
     Pseudo is Norm-conserving, Zval = 12.0
     Generated in analytical, separable form
     Using radial grid of 1255 points,  6 beta functions with:
                l(1) =   0
                l(2) =   0
                l(3) =   1
                l(4) =   1
                l(5) =   2
                l(6) =   3

     atomic species   valence    mass     pseudopotential
        Cr            18.00    51.99610     Gd( 1.00)
        Si            12.00    28.08550     Ce( 1.00)

     48 Sym. Ops., with inversion, found (24 have fractional translation)

   Cartesian axes

     site n.     atom                  positions (alat units)
         1           Cr  tau(   1) = (   0.0000000   0.5944050   0.2972025  )
         2           Cr  tau(   2) = (   0.0000000   0.5944050   0.8916075  )
         3           Cr  tau(   3) = (   0.5944050   0.8916075   0.0000000  )
         4           Cr  tau(   4) = (   0.5944050   0.2972025   0.0000000  )
         5           Cr  tau(   5) = (   0.8916075   0.0000000   0.5944050  )
         6           Cr  tau(   6) = (   0.2972025   0.0000000   0.5944050  )
         7           Si  tau(   7) = (   0.5944050   0.5944050   0.5944050  )
         8           Si  tau(   8) = (   0.0000000   0.0000000   0.0000000  )

     number of k points=    48  gaussian smearing, width (Ry)=  0.1000
                       cart. coord. in units 2pi/alat
        k(    1) = (   0.0000000   0.0000000   0.0000000), wk =   0.0095238
        k(    2) = (   0.0000000   0.0000000   0.1201682), wk =   0.0190476
        k(    3) = (   0.0000000   0.0000000   0.2403364), wk =   0.0190476
        k(    4) = (   0.0000000   0.0000000   0.3605046), wk =   0.0190476
        k(    5) = (   0.0000000   0.1401962   0.0000000), wk =   0.0190476
        k(    6) = (   0.0000000   0.1401962   0.1201682), wk =   0.0380952
        k(    7) = (   0.0000000   0.1401962   0.2403364), wk =   0.0380952
        k(    8) = (   0.0000000   0.1401962   0.3605046), wk =   0.0380952
        k(    9) = (   0.0000000   0.2803924   0.0000000), wk =   0.0190476
        k(   10) = (   0.0000000   0.2803924   0.1201682), wk =   0.0380952
        k(   11) = (   0.0000000   0.2803924   0.2403364), wk =   0.0380952
        k(   12) = (   0.0000000   0.2803924   0.3605046), wk =   0.0380952
        k(   13) = (   0.0000000  -0.4205886   0.0000000), wk =   0.0095238
        k(   14) = (   0.0000000  -0.4205886   0.1201682), wk =   0.0190476
        k(   15) = (   0.0000000  -0.4205886   0.2403364), wk =   0.0190476
        k(   16) = (   0.0000000  -0.4205886   0.3605046), wk =   0.0190476
        k(   17) = (   0.1682355   0.0000000   0.0000000), wk =   0.0190476
        k(   18) = (   0.1682355   0.0000000   0.1201682), wk =   0.0380952
        k(   19) = (   0.1682355   0.0000000   0.2403364), wk =   0.0380952
        k(   20) = (   0.1682355   0.0000000   0.3605046), wk =   0.0380952
        k(   21) = (   0.1682355   0.1401962   0.0000000), wk =   0.0380952
        k(   22) = (   0.1682355   0.1401962   0.1201682), wk =   0.0761905
        k(   23) = (   0.1682355   0.1401962   0.2403364), wk =   0.0761905
        k(   24) = (   0.1682355   0.1401962   0.3605046), wk =   0.0761905
        k(   25) = (   0.1682355   0.2803924   0.0000000), wk =   0.0380952
        k(   26) = (   0.1682355   0.2803924   0.1201682), wk =   0.0761905
        k(   27) = (   0.1682355   0.2803924   0.2403364), wk =   0.0761905
        k(   28) = (   0.1682355   0.2803924   0.3605046), wk =   0.0761905
        k(   29) = (   0.1682355  -0.4205886   0.0000000), wk =   0.0190476
        k(   30) = (   0.1682355  -0.4205886   0.1201682), wk =   0.0380952
        k(   31) = (   0.1682355  -0.4205886   0.2403364), wk =   0.0380952
        k(   32) = (   0.1682355  -0.4205886   0.3605046), wk =   0.0380952
        k(   33) = (   0.3364709   0.0000000   0.0000000), wk =   0.0190476
        k(   34) = (   0.3364709   0.0000000   0.1201682), wk =   0.0380952
        k(   35) = (   0.3364709   0.0000000   0.2403364), wk =   0.0380952
        k(   36) = (   0.3364709   0.0000000   0.3605046), wk =   0.0380952
        k(   37) = (   0.3364709   0.1401962   0.0000000), wk =   0.0380952
        k(   38) = (   0.3364709   0.1401962   0.1201682), wk =   0.0761905
        k(   39) = (   0.3364709   0.1401962   0.2403364), wk =   0.0761905
        k(   40) = (   0.3364709   0.1401962   0.3605046), wk =   0.0761905
        k(   41) = (   0.3364709   0.2803924   0.0000000), wk =   0.0380952
        k(   42) = (   0.3364709   0.2803924   0.1201682), wk =   0.0761905
        k(   43) = (   0.3364709   0.2803924   0.2403364), wk =   0.0761905
        k(   44) = (   0.3364709   0.2803924   0.3605046), wk =   0.0761905
        k(   45) = (   0.3364709  -0.4205886   0.0000000), wk =   0.0190476
        k(   46) = (   0.3364709  -0.4205886   0.1201682), wk =   0.0380952
        k(   47) = (   0.3364709  -0.4205886   0.2403364), wk =   0.0380952
        k(   48) = (   0.3364709  -0.4205886   0.3605046), wk =   0.0380952

     Largest allocated arrays     est. size (Mb)     dimensions
     Largest temporary arrays     est. size (Mb)     dimensions

     Initial potential from superposition of free atoms

     Starting from uniform charge
     Starting wfc are    0 randomized atomic wfcs

     Writing output data file Prototype-La-cP8-Cr3Si.save

     Self-consistent Calculation

[...]

     negative rho (up, down):  0.499E-06 0.000E+00

[...]

     iteration # 11     ecut=    40.00 Ry     beta=0.70
     CG style diagonalization
     c_bands:  1 eigenvalues not converged
     ethr =  2.54E-07,  avg # of iterations =  3.5

[...]

     total energy              =   -1362.71780828 Ry
     Harris-Foulkes estimate   =   -1362.71782201 Ry
     estimated scf accuracy    <       0.00003753 Ry

     iteration # 13     ecut=    40.00 Ry     beta=0.70
     CG style diagonalization
     ethr =  2.63E-09,  avg # of iterations =  4.1

     End of self-consistent calculation

[...]

          k = 0.3365-0.4206 0.3605 (  4478 PWs)   bands (ev):

   -44.0419 -44.0344 -44.0164 -44.0162 -43.9984 -43.9908 -15.4285 -15.3717
   -15.2613 -15.2582 -15.2101 -15.2090 -15.0770 -15.0442 -14.9902 -14.9770
   -14.9598 -14.9498 -14.9255 -14.9175 -14.9111 -14.9077 -14.8998 -14.8988
   -13.4983 -13.4981   4.2316   4.2344   4.2510   4.2510   4.2608   4.2619
    17.9878  17.9878  18.0803  18.1627  18.2383  18.2542  18.8367  18.8735
    18.8863  18.9383  18.9934  18.9970  19.0468  19.0683  19.1492  19.2409
    20.0274  20.0280  20.1783  20.2461  20.5364  20.5465  21.0584  21.2077
    21.2612  21.3107  21.5374  21.5596  21.7512  21.8322  23.8399  23.8402
    24.3523  24.4050  24.5198  24.6606  26.4019  26.4050  27.4773  27.4919
    27.5514  27.5531  27.6288  27.8444  28.4988  28.5186  29.2209

     the Fermi energy is    24.3161 ev

!    total energy              =   -1362.71781264 Ry
     Harris-Foulkes estimate   =   -1362.71781334 Ry
     estimated scf accuracy    <       0.00000077 Ry

     The total energy is the sum of the following terms:

     one-electron contribution =    -143.87478647 Ry
     hartree contribution      =     175.85987583 Ry
     xc contribution           =    -141.57790566 Ry
     ewald contribution        =   -1252.85341719 Ry
     smearing contrib. (-TS)   =      -0.27157915 Ry

     convergence has been achieved in  13 iterations

     Forces acting on atoms (Ry/au):

     atom    1 type  1   force =     0.00000000    0.00000000    0.00000000
     atom    2 type  1   force =     0.00000000    0.00000000    0.00000000
     atom    3 type  1   force =     0.00000000    0.00000000    0.00000000
     atom    4 type  1   force =     0.00000000    0.00000000    0.00000000
     atom    5 type  1   force =     0.00000000    0.00000000    0.00000000
     atom    6 type  1   force =     0.00000000    0.00000000    0.00000000
     atom    7 type  2   force =     0.00000000    0.00000000    0.00000000
     atom    8 type  2   force =     0.00000000    0.00000000    0.00000000

     Total force =     0.000000     Total SCF correction =     0.000000

     entering subroutine stress ...

          total   stress  (Ry/bohr**3)                   (kbar)     P=  182.00
   0.00123723   0.00000000   0.00000000        182.00      0.00      0.00
   0.00000000   0.00123723   0.00000000          0.00    182.00      0.00
   0.00000000   0.00000000   0.00123723          0.00      0.00    182.00

     Writing output data file Prototype-La-cP8-Cr3Si.save

     General routines

     Parallel routines

   This run was terminated on:  23:11:44  22Mar2018

   JOB DONE.