     Program PWSCF v.5.0.2 starts on 22Mar2018 at 16:20:30

     Current dimensions of program PWSCF are:
     Max number of different atomic species (ntypx) = 10
     Max number of k-points (npk) =  40000
     Max angular momentum in pseudopotentials (lmaxx) =  3
     Waiting for input...
     Reading input from standard input

     Subspace diagonalization in iterative solution of the eigenvalue problem:
     a serial algorithm will be used

     bravais-lattice index     =            0
     lattice parameter (alat)  =       9.9235  a.u.
     unit-cell volume          =    1361.0366 (a.u.)^3
     number of atoms/cell      =           12
     number of atomic types    =            2
     number of electrons       =       204.00
     number of Kohn-Sham states=          122
     kinetic-energy cutoff     =      40.0000  Ry
     charge density cutoff     =     160.0000  Ry
     convergence threshold     =      1.0E-04
     mixing beta               =       0.7000
     number of iterations used =            8  plain     mixing
     Exchange-correlation      = SLA-PZ-NOGX-NOGC ( 1 1 0 0 0)
     EXX-fraction              =        0.00
     nstep                     =           50

     celldm(1)=   9.923489  celldm(2)=   0.000000  celldm(3)=   0.000000
     celldm(4)=   0.000000  celldm(5)=   0.000000  celldm(6)=   0.000000

     crystal axes: (cart. coord. in units of alat)
               a(1) = (   1.000000   0.000000   0.000000 )
               a(2) = (  -0.500000   0.866025   0.000000 )
               a(3) = (   0.000000   0.000000   1.608222 )

     reciprocal axes: (cart. coord. in units 2 pi/alat)
               b(1) = (  1.000000  0.577350  0.000000 )
               b(2) = (  0.000000  1.154701  0.000000 )
               b(3) = (  0.000000  0.000000  0.621805 )

     PseudoPot. # 1 for Pr read from file:
     /home/cwx6513/pp.La/Pr.UPF
     MD5 check sum: 70e2b4b153859e92c8c91247dfc63203
     Pseudo is Norm-conserving, Zval = 13.0
     Generated in analytical, separable form
     Using radial grid of 1255 points,  6 beta functions with:
                l(1) =   0
                l(2) =   0
                l(3) =   1
                l(4) =   1
                l(5) =   2
                l(6) =   3

     PseudoPot. # 2 for Tb read from file:
     /home/cwx6513/pp.La/Tb.UPF
     MD5 check sum: 3d6088a3f0cf7fd2e110c43f7f8e95c2
     Pseudo is Norm-conserving, Zval = 19.0
     Generated in analytical, separable form
     Using radial grid of 1263 points,  6 beta functions with:
                l(1) =   0
                l(2) =   0
                l(3) =   1
                l(4) =   1
                l(5) =   2
                l(6) =   3

     atomic species   valence    mass     pseudopotential
        Mg            13.00    24.30500     Pr( 1.00)
        Zn            19.00    65.39000     Tb( 1.00)

     24 Sym. Ops., with inversion, found (12 have fractional translation)

   Cartesian axes

     site n.     atom                  positions (alat units)
         1           Mg  tau(   1) = (  -0.0000005   0.5773506   0.1003820  )
         2           Mg  tau(   2) = (   0.5000005   0.2886748   0.9044931  )
         3           Mg  tau(   3) = (   0.5000005   0.2886748   1.5078402  )
         4           Mg  tau(   4) = (  -0.0000005   0.5773506   0.7037291  )
         5           Zn  tau(   5) = (   0.0000000   0.0000000   0.0000000  )
         6           Zn  tau(   6) = (   0.0000000   0.0000000   0.8041111  )
         7           Zn  tau(   7) = (   0.0000000   0.2950739   1.2061667  )
         8           Zn  tau(   8) = (   0.7444585   0.1475370   0.4020556  )
         9           Zn  tau(   9) = (   0.2555415   0.1475370   0.4020556  )
        10           Zn  tau(  10) = (   0.2444585   0.7184884   1.2061667  )
        11           Zn  tau(  11) = (  -0.2444585   0.7184884   1.2061667  )
        12           Zn  tau(  12) = (   0.5000000   0.5709515   0.4020556  )

     number of k points=    12  gaussian smearing, width (Ry)=  0.1000
                       cart. coord. in units 2pi/alat
        k(    1) = (   0.0000000   0.0000000   0.0000000), wk =   0.0833333
        k(    2) = (   0.0000000   0.0000000   0.1554512), wk =   0.1666667
        k(    3) = (   0.0000000   0.0000000  -0.3109023), wk =   0.0833333
        k(    4) = (   0.0000000   0.3849002   0.0000000), wk =   0.1666667
        k(    5) = (   0.0000000   0.3849002   0.1554512), wk =   0.3333333
        k(    6) = (   0.0000000   0.3849002  -0.3109023), wk =   0.1666667
        k(    7) = (  -0.5000000  -0.2886751   0.0000000), wk =   0.0833333
        k(    8) = (  -0.5000000  -0.2886751   0.1554512), wk =   0.1666667
        k(    9) = (  -0.5000000  -0.2886751  -0.3109023), wk =   0.0833333
        k(   10) = (  -0.5000000   0.0962250   0.0000000), wk =   0.1666667
        k(   11) = (  -0.5000000   0.0962250   0.1554512), wk =   0.3333333
        k(   12) = (  -0.5000000   0.0962250  -0.3109023), wk =   0.1666667

     Largest allocated arrays     est. size (Mb)     dimensions
     Largest temporary arrays     est. size (Mb)     dimensions

     Initial potential from superposition of free atoms
     Check: negative starting charge=   -0.002087

     starting charge   51.96217, renormalised to  204.00000

     negative rho (up, down):  0.819E-02 0.000E+00
     Starting wfc are   80 randomized atomic wfcs

     Self-consistent Calculation

     iteration #  1     ecut=    40.00 Ry     beta=0.70
     CG style diagonalization
     c_bands:  1 eigenvalues not converged
     c_bands:  1 eigenvalues not converged
     c_bands:  1 eigenvalues not converged
     c_bands:  1 eigenvalues not converged
     c_bands:  2 eigenvalues not converged
     c_bands:  1 eigenvalues not converged
     c_bands:  1 eigenvalues not converged
     c_bands:  2 eigenvalues not converged
     c_bands:  2 eigenvalues not converged
     c_bands:  1 eigenvalues not converged
     c_bands:  4 eigenvalues not converged
     ethr =  1.00E-02,  avg # of iterations = 33.4

     negative rho (up, down):  0.244E-02 0.000E+00

     total energy              =   -1553.86096078 Ry
     Harris-Foulkes estimate   =   -6079.88317911 Ry
     estimated scf accuracy    <    5281.03900946 Ry

[...]

     iteration #  3     ecut=    40.00 Ry     beta=0.70
     CG style diagonalization
     ethr =  1.00E-02,  avg # of iterations = 18.1

[...]

     End of self-consistent calculation

          k = 0.0000 0.0000 0.0000 (  5769 PWs)   bands (ev):

   -46.9295 -46.8861 -46.6519 -46.6519 -46.6485 -46.6484 -46.6093 -46.5474
   -16.8727 -16.5828 -16.0662 -15.7036 -15.7036 -15.6435 -15.6435 -15.4953
   -15.4953 -15.3495 -15.0692 -15.0692 -15.0623 -14.9674 -14.9674 -14.5953
   -14.5791 -14.5571 -14.5571 -14.5263 -14.5225 -14.5224 -14.4723 -14.4723
   -13.3847 -13.2437 -13.1607 -13.0728   6.1648   6.1741   6.2003   6.2004
     6.2212   6.2213   6.9752   6.9895   6.9985   6.9985   7.0637   7.0637
    16.6104  17.3563  17.8352  18.7370  18.7370  19.1584  19.1584  19.5358
    19.6643  19.6644  20.0276  20.0277  20.3826  20.5382  20.9008  20.9009
    20.9843  21.8564  21.8564  22.4642  22.4643  22.5341  22.9937  22.9937
    22.9962  23.6394  24.0882  24.1044  24.1044  24.1131  24.1131  24.1439
    24.1440  24.2773  24.5575  24.5575  25.2295  25.6638  25.6638  26.6833
    26.6833  26.8915  26.8915  27.1599  27.3632  27.3632  28.0890  28.0937
    28.1791  28.1792  28.5408  28.7811  29.0024  29.0024  29.9338  29.9338
    30.1280  30.1280  31.8630  32.1304  32.6016  32.8999  32.8999  33.1242
    33.1242  35.5408  35.5408  36.2883  36.6521  36.6523  36.6743  36.8426
    36.9083  37.1146

[...]

          k =-0.5000-0.2887 0.0000 (  5800 PWs)   bands (ev):

[...]

     the Fermi energy is    29.8212 ev

!    total energy              =   -2205.09004385 Ry
     Harris-Foulkes estimate   =   -2205.09006855 Ry
     estimated scf accuracy    <       0.00003099 Ry

     The total energy is the sum of the following terms:

     one-electron contribution =    -244.72720459 Ry
     hartree contribution      =     311.54893966 Ry
     xc contribution           =    -226.37605062 Ry
     ewald contribution        =   -2045.04509159 Ry
     smearing contrib. (-TS)   =      -0.49063671 Ry

     convergence has been achieved in  11 iterations

     Forces acting on atoms (Ry/au):

     atom    1 type  1   force =     0.00000000    0.00000000    0.00131191
     atom    2 type  1   force =     0.00000000    0.00000000    0.00131191
     atom    3 type  1   force =     0.00000000    0.00000000   -0.00131191
     atom    4 type  1   force =     0.00000000    0.00000000   -0.00131191
     atom    5 type  2   force =     0.00000000    0.00000000    0.00000000
     atom    6 type  2   force =     0.00000000    0.00000000    0.00000000
     atom    7 type  2   force =     0.00000000    0.05771047    0.00000000
     atom    8 type  2   force =    -0.04997873    0.02885524    0.00000000
     atom    9 type  2   force =     0.04997873    0.02885524    0.00000000
     atom   10 type  2   force =    -0.04997873   -0.02885524    0.00000000
     atom   11 type  2   force =     0.04997873   -0.02885524    0.00000000
     atom   12 type  2   force =     0.00000000   -0.05771047    0.00000000

     Total force =     0.141386     Total SCF correction =     0.013679

     entering subroutine stress ...

          total   stress  (Ry/bohr**3)                   (kbar)     P=  729.23
   0.00487976   0.00000000   0.00000000        717.84      0.00      0.00
   0.00000000   0.00487976   0.00000000          0.00    717.84      0.00
   0.00000000   0.00000000   0.00511205          0.00      0.00    752.01

     BFGS Geometry Optimization

     number of scf cycles    =   1
     number of bfgs steps    =   0

     enthalpy new            =   -2205.0900438541 Ry

     new trust radius        =       0.5000000000 bohr
     new conv_thr            =       0.0001000000 Ry

     new unit-cell volume =   1647.35934 a.u.^3 (   244.11347 Ang^3 )

CELL_PARAMETERS (alat=  9.92348860)
   1.064685731   0.000000000   0.000000000
  -0.532342865   0.922044890   0.000000000
   0.000000000   0.000000000   1.717203317

ATOMIC_POSITIONS (crystal)
Mg       0.333333000   0.666667000   0.062461588
Mg       0.666667000   0.333333000   0.562461588
Mg       0.666667000   0.333333000   0.937538412
Mg       0.333333000   0.666667000   0.437538412
Zn       0.000000000   0.000000000   0.000000000
Zn       0.000000000   0.000000000   0.500000000
Zn       0.172141327   0.344282655   0.750000000
Zn       0.827858673   0.172141327   0.250000000
Zn       0.344282655   0.172141327   0.250000000
Zn       0.655717345   0.827858673   0.750000000
Zn       0.172141327   0.827858673   0.750000000
Zn       0.827858673   0.655717345   0.250000000

     Writing output data file Prototype-La-hP12-MgZn2.save
     Check: negative starting charge=   -0.002087
     NEW-OLD atomic charge density approx. for the potential
     NEW k-points:
        k(    1) = (   0.0000000   0.0000000   0.0000000), wk =   0.0833333
        k(    2) = (   0.0000000   0.0000000   0.1455856), wk =   0.1666667
        k(    3) = (   0.0000000   0.0000000  -0.2911711), wk =   0.0833333
        k(    4) = (   0.0000000   0.3615153   0.0000000), wk =   0.1666667
        k(    5) = (   0.0000000   0.3615153   0.1455856), wk =   0.3333333
        k(    6) = (   0.0000000   0.3615153  -0.2911711), wk =   0.1666667
        k(    7) = (  -0.4696221  -0.2711365   0.0000000), wk =   0.0833333
        k(    8) = (  -0.4696221  -0.2711365   0.1455856), wk =   0.1666667
        k(    9) = (  -0.4696221  -0.2711365  -0.2911711), wk =   0.0833333
        k(   10) = (  -0.4696221   0.0903788   0.0000000), wk =   0.1666667
        k(   11) = (  -0.4696221   0.0903788   0.1455856), wk =   0.3333333
        k(   12) = (  -0.4696221   0.0903788  -0.2911711), wk =   0.1666667
     Check: negative starting charge=   -0.006914

     negative rho (up, down):  0.459E-02 0.000E+00
     extrapolated charge  213.03139, renormalised to  204.00000

[...]

     enthalpy old            =   -2205.0900438541 Ry
     enthalpy new            =   -2205.3040963430 Ry

     CASE: enthalpy_new < enthalpy_old

     small trust_radius: resetting bfgs history

     new trust radius        =       0.5167844128 bohr
     new conv_thr            =       0.0000172302 Ry

[...]

     Writing output data file Prototype-La-hP12-MgZn2.save
     Check: negative starting charge=   -0.006914
     NEW-OLD atomic charge density approx. for the potential
     NEW k-points:
        k(    1) = (   0.0000000   0.0000000   0.0000000), wk =   0.0833333
        k(    2) = (   0.0000000   0.0000000   0.1554841), wk =   0.1666667
        k(    3) = (   0.0000000   0.0000000  -0.3109682), wk =   0.0833333
        k(    4) = (   0.0000000   0.3847882   0.0000000), wk =   0.1666667
        k(    5) = (   0.0000000   0.3847882   0.1554841), wk =   0.3333333
        k(    6) = (   0.0000000   0.3847882  -0.3109682), wk =   0.1666667
        k(    7) = (  -0.4998546  -0.2885912   0.0000000), wk =   0.0833333
        k(    8) = (  -0.4998546  -0.2885912   0.1554841), wk =   0.1666667
        k(    9) = (  -0.4998546  -0.2885912  -0.3109682), wk =   0.0833333
        k(   10) = (  -0.4998546   0.0961971   0.0000000), wk =   0.1666667
        k(   11) = (  -0.4998546   0.0961971   0.1554841), wk =   0.3333333
        k(   12) = (  -0.4998546   0.0961971  -0.3109682), wk =   0.1666667
     Check: negative starting charge=   -0.002096

     negative rho (up, down):  0.708E+00 0.000E+00
     extrapolated charge  193.09192, renormalised to  204.00000

[...]

     number of scf cycles    =   3
     number of bfgs steps    =   2

     enthalpy old            =   -2205.3040963430 Ry
     enthalpy new            =   -2205.0950465737 Ry

     CASE: enthalpy_new > enthalpy_old

     new trust radius        =       0.1962491679 bohr

     trust_radius < trust_radius_min

     resetting bfgs history

     Message from routine bfgs:
     history already reset at previous step: stopping
     new conv_thr            =       0.0000172302 Ry

     new unit-cell volume =   1361.29233 a.u.^3 (   201.72271 Ang^3 )

[...]

ATOMIC_POSITIONS (crystal)
Mg       0.333333000   0.666667000   0.062430276
Mg       0.666667000   0.333333000   0.562430276
Mg       0.666667000   0.333333000   0.937569724
Mg       0.333333000   0.666667000   0.437569724
Zn       0.000000000   0.000000000   0.000000000
Zn       0.000000000   0.000000000   0.500000000
Zn       0.171139294   0.342278588   0.750000000
Zn       0.828860706   0.171139294   0.250000000
Zn       0.342278588   0.171139294   0.250000000
Zn       0.657721412   0.828860706   0.750000000
Zn       0.171139294   0.828860706   0.750000000
Zn       0.828860706   0.657721412   0.250000000

     Writing output data file Prototype-La-hP12-MgZn2.save
     Check: negative starting charge=   -0.002096
     NEW-OLD atomic charge density approx. for the potential
     NEW k-points:
        k(    1) = (   0.0000000   0.0000000   0.0000000), wk =   0.0833333
        k(    2) = (   0.0000000   0.0000000   0.1554470), wk =   0.1666667
        k(    3) = (   0.0000000   0.0000000  -0.3108939), wk =   0.0833333
        k(    4) = (   0.0000000   0.3848692   0.0000000), wk =   0.1666667
        k(    5) = (   0.0000000   0.3848692   0.1554470), wk =   0.3333333
        k(    6) = (   0.0000000   0.3848692  -0.3108939), wk =   0.1666667
        k(    7) = (  -0.4999598  -0.2886519   0.0000000), wk =   0.0833333
        k(    8) = (  -0.4999598  -0.2886519   0.1554470), wk =   0.1666667
        k(    9) = (  -0.4999598  -0.2886519  -0.3108939), wk =   0.0833333
        k(   10) = (  -0.4999598   0.0962173   0.0000000), wk =   0.1666667
        k(   11) = (  -0.4999598   0.0962173   0.1554470), wk =   0.3333333
        k(   12) = (  -0.4999598   0.0962173  -0.3108939), wk =   0.1666667
     Check: negative starting charge=   -0.002091
     extrapolated charge  203.99054, renormalised to  204.00000

[...]

     Total force =     0.015463     Total SCF correction =     0.004461
     SCF correction compared to forces is large: reduce conv_thr to get better values

[...]

     The maximum number of steps has been reached.

     End of BFGS Geometry Optimization
Begin final coordinates
     new unit-cell volume =   1361.29233 a.u.^3 (   201.72271 Ang^3 )

CELL_PARAMETERS (alat=  9.92348860)
   1.000080483   0.000000000   0.000000000
  -0.500040242   0.866095104   0.000000000
   0.000000000   0.000000000   1.608265463

ATOMIC_POSITIONS (crystal)
Mg       0.333333000   0.666667000   0.062430276
Mg       0.666667000   0.333333000   0.562430276
Mg       0.666667000   0.333333000   0.937569724
Mg       0.333333000   0.666667000   0.437569724
Zn       0.000000000   0.000000000   0.000000000
Zn       0.000000000   0.000000000   0.500000000
Zn       0.171139294   0.342278588   0.750000000
Zn       0.828860706   0.171139294   0.250000000
Zn       0.342278588   0.171139294   0.250000000
Zn       0.657721412   0.828860706   0.750000000
Zn       0.171139294   0.828860706   0.750000000
Zn       0.828860706   0.657721412   0.250000000
End final coordinates

     A final scf calculation at the relaxed structure.
     The G-vectors are recalculated for the final unit cell
     Results may differ from those at the preceding step.

     bravais-lattice index     =            0
     lattice parameter (alat)  =       9.9235  a.u.
     unit-cell volume          =    1361.2923 (a.u.)^3
     number of atoms/cell      =           12
     number of atomic types    =            2
     number of electrons       =       204.00
     number of Kohn-Sham states=          122
     kinetic-energy cutoff     =      40.0000  Ry
     charge density cutoff     =     160.0000  Ry
     convergence threshold     =      1.7E-05
     mixing beta               =       0.7000
     number of iterations used =            8  plain     mixing
     Exchange-correlation      = SLA-PZ-NOGX-NOGC ( 1 1 0 0 0)
     EXX-fraction              =        0.00

     celldm(1)=   9.923489  celldm(2)=   0.000000  celldm(3)=   0.000000
     celldm(4)=   0.000000  celldm(5)=   0.000000  celldm(6)=   0.000000

     crystal axes: (cart. coord. in units of alat)
               a(1) = (   1.000080   0.000000   0.000000 )
               a(2) = (  -0.500040   0.866095   0.000000 )
               a(3) = (   0.000000   0.000000   1.608265 )

     reciprocal axes: (cart. coord. in units 2 pi/alat)
               b(1) = (  0.999920  0.577304  0.000000 )
               b(2) = (  0.000000  1.154608  0.000000 )
               b(3) = (  0.000000  0.000000  0.621788 )

     PseudoPot. # 1 for Pr read from file:
     /home/cwx6513/pp.La/Pr.UPF
     MD5 check sum: 70e2b4b153859e92c8c91247dfc63203
     Pseudo is Norm-conserving, Zval = 13.0
     Generated in analytical, separable form
     Using radial grid of 1255 points,  6 beta functions with:
                l(1) =   0
                l(2) =   0
                l(3) =   1
                l(4) =   1
                l(5) =   2
                l(6) =   3

     PseudoPot. # 2 for Tb read from file:
     /home/cwx6513/pp.La/Tb.UPF
     MD5 check sum: 3d6088a3f0cf7fd2e110c43f7f8e95c2
     Pseudo is Norm-conserving, Zval = 19.0
     Generated in analytical, separable form
     Using radial grid of 1263 points,  6 beta functions with:
                l(1) =   0
                l(2) =   0
                l(3) =   1
                l(4) =   1
                l(5) =   2
                l(6) =   3

     atomic species   valence    mass     pseudopotential
        Mg            13.00    24.30500     Pr( 1.00)
        Zn            19.00    65.39000     Tb( 1.00)

     24 Sym. Ops., with inversion, found (12 have fractional translation)

   Cartesian axes

     site n.     atom                  positions (alat units)
         1           Mg  tau(   1) = (  -0.0000005   0.5773970   0.1004045  )
         2           Mg  tau(   2) = (   0.5000407   0.2886981   0.9045372  )
         3           Mg  tau(   3) = (   0.5000407   0.2886981   1.5078610  )
         4           Mg  tau(   4) = (  -0.0000005   0.5773970   0.7037283  )
         5           Zn  tau(   5) = (   0.0000000   0.0000000   0.0000000  )
         6           Zn  tau(   6) = (   0.0000000   0.0000000   0.8041327  )
         7           Zn  tau(   7) = (   0.0000000   0.2964458   1.2061991  )
         8           Zn  tau(   8) = (   0.7433509   0.1482229   0.4020664  )
         9           Zn  tau(   9) = (   0.2567296   0.1482229   0.4020664  )
        10           Zn  tau(  10) = (   0.2433106   0.7178722   1.2061991  )
        11           Zn  tau(  11) = (  -0.2433106   0.7178722   1.2061991  )
        12           Zn  tau(  12) = (   0.5000402   0.5696493   0.4020664  )

     number of k points=    12  gaussian smearing, width (Ry)=  0.1000
                       cart. coord. in units 2pi/alat
        k(    1) = (   0.0000000   0.0000000   0.0000000), wk =   0.0833333
        k(    2) = (   0.0000000   0.0000000   0.1554470), wk =   0.1666667
        k(    3) = (   0.0000000   0.0000000  -0.3108939), wk =   0.0833333
        k(    4) = (   0.0000000   0.3848692   0.0000000), wk =   0.1666667
        k(    5) = (   0.0000000   0.3848692   0.1554470), wk =   0.3333333
        k(    6) = (   0.0000000   0.3848692  -0.3108939), wk =   0.1666667
        k(    7) = (  -0.4999598  -0.2886519   0.0000000), wk =   0.0833333
        k(    8) = (  -0.4999598  -0.2886519   0.1554470), wk =   0.1666667
        k(    9) = (  -0.4999598  -0.2886519  -0.3108939), wk =   0.0833333
        k(   10) = (  -0.4999598   0.0962173   0.0000000), wk =   0.1666667
        k(   11) = (  -0.4999598   0.0962173   0.1554470), wk =   0.3333333
        k(   12) = (  -0.4999598   0.0962173  -0.3108939), wk =   0.1666667

     Largest allocated arrays     est. size (Mb)     dimensions
     Largest temporary arrays     est. size (Mb)     dimensions

     Initial potential from superposition of free atoms
     Check: negative starting charge=   -0.002091

     starting charge   51.96217, renormalised to  204.00000

     negative rho (up, down):  0.821E-02 0.000E+00
     Starting wfc are   80 randomized atomic wfcs

     Writing output data file Prototype-La-hP12-MgZn2.save

     Self-consistent Calculation

[...]

     negative rho (up, down):  0.313E-03 0.000E+00

[...]

     iteration # 10     ecut=    40.00 Ry     beta=0.70
     CG style diagonalization
     c_bands:  1 eigenvalues not converged
     c_bands:  3 eigenvalues not converged
     c_bands:  1 eigenvalues not converged
     c_bands:  1 eigenvalues not converged
     ethr =  9.32E-07,  avg # of iterations =  5.5

[...]

     total energy              =   -2205.09468299 Ry
     Harris-Foulkes estimate   =   -2205.09469832 Ry
     estimated scf accuracy    <       0.00003150 Ry

     iteration # 12     ecut=    40.00 Ry     beta=0.70
     CG style diagonalization
     ethr =  1.54E-08,  avg # of iterations =  4.4

     End of self-consistent calculation

[...]

          k = 0.0000 0.3849-0.3109 (  5816 PWs)   bands (ev):

[...]

          k =-0.5000 0.0962-0.3109 (  5830 PWs)   bands (ev):

   -46.8417 -46.8417 -46.7521 -46.7521 -46.6557 -46.6557 -46.5593 -46.5593
   -16.3095 -16.3095 -15.8870 -15.8869 -15.5248 -15.5248 -15.4714 -15.4714
   -15.3771 -15.3771 -15.3167 -15.3167 -15.1217 -15.1217 -14.9263 -14.9263
   -14.7694 -14.7694 -14.6798 -14.6798 -14.5933 -14.5933 -14.5533 -14.5533
   -13.2470 -13.2469 -13.1695 -13.1694   6.1003   6.1004   6.1290   6.1291
     6.3998   6.3999   6.7946   6.7947   7.0832   7.0833   7.1157   7.1157
    18.2887  18.2887  19.2330  19.2330  19.6197  19.6197  19.9523  19.9523
    20.1205  20.1205  20.3782  20.3782  20.9297  20.9297  20.9962  20.9962
    21.4753  21.4753  21.6569  21.6569  21.9729  21.9729  22.3256  22.3256
    22.6396  22.6396  23.0619  23.0619  23.3853  23.3853  23.7249  23.7249
    23.9790  23.9791  24.1837  24.1837  24.3034  24.3034  24.8876  24.8876
    25.6079  25.6079  26.3904  26.3904  27.5746  27.5746  28.1732  28.1732
    28.6987  28.6988  29.0825  29.0825  29.3293  29.3294  30.0652  30.0653
    30.7308  30.7308  31.7143  31.7144  32.0565  32.0565  32.3713  32.3713
    33.1944  33.1945  33.9703  33.9704  35.9537  35.9538  36.9044  36.9044
    37.6193  37.6193

     the Fermi energy is    29.8137 ev

!    total energy              =   -2205.09469826 Ry
     Harris-Foulkes estimate   =   -2205.09470255 Ry
     estimated scf accuracy    <       0.00000484 Ry

     The total energy is the sum of the following terms:

     one-electron contribution =    -243.54544755 Ry
     hartree contribution      =     310.93151163 Ry
     xc contribution           =    -226.36869686 Ry
     ewald contribution        =   -2045.62158898 Ry
     smearing contrib. (-TS)   =      -0.49047650 Ry

     convergence has been achieved in  12 iterations

     Forces acting on atoms (Ry/au):

     atom    1 type  1   force =     0.00000000    0.00000000    0.00281751
     atom    2 type  1   force =     0.00000000    0.00000000    0.00281751
     atom    3 type  1   force =     0.00000000    0.00000000   -0.00281751
     atom    4 type  1   force =     0.00000000    0.00000000   -0.00281751
     atom    5 type  2   force =     0.00000000    0.00000000    0.00000000
     atom    6 type  2   force =     0.00000000    0.00000000    0.00000000
     atom    7 type  2   force =     0.00000000    0.00901826    0.00000000
     atom    8 type  2   force =    -0.00781004    0.00450913    0.00000000
     atom    9 type  2   force =     0.00781004    0.00450913    0.00000000
     atom   10 type  2   force =    -0.00781004   -0.00450913    0.00000000
     atom   11 type  2   force =     0.00781004   -0.00450913    0.00000000
     atom   12 type  2   force =     0.00000000   -0.00901826    0.00000000

     Total force =     0.022798     Total SCF correction =     0.000111

     entering subroutine stress ...

          total   stress  (Ry/bohr**3)                   (kbar)     P=  726.69
   0.00490179   0.00000000   0.00000000        721.08      0.00      0.00
   0.00000000   0.00490179   0.00000000          0.00    721.08      0.00
   0.00000000   0.00000000   0.00501617          0.00      0.00    737.90

     Writing output data file Prototype-La-hP12-MgZn2.save

     General routines

     Parallel routines

   This run was terminated on:  16:46:13  22Mar2018

   JOB DONE.