     Program PWSCF v.5.0.2 starts on 22Mar2018 at 16:20:29

     Current dimensions of program PWSCF are:
     Max number of different atomic species (ntypx) = 10
     Max number of k-points (npk) =  40000
     Max angular momentum in pseudopotentials (lmaxx) =  3
     Waiting for input...
     Reading input from standard input

     Subspace diagonalization in iterative solution of the eigenvalue problem:
     a serial algorithm will be used

     bravais-lattice index     =            0
     lattice parameter (alat)  =       7.0151  a.u.
     unit-cell volume          =     862.2778 (a.u.)^3
     number of atoms/cell      =           12
     number of atomic types    =            2
     number of electrons       =       180.00
     number of Kohn-Sham states=          108
     kinetic-energy cutoff     =      40.0000  Ry
     charge density cutoff     =     160.0000  Ry
     convergence threshold     =      1.0E-04
     mixing beta               =       0.7000
     number of iterations used =            8  plain     mixing
     Exchange-correlation      = SLA-PZ-NOGX-NOGC ( 1 1 0 0 0)
     EXX-fraction              =        0.00
     nstep                     =           50

     celldm(1)=   7.015105  celldm(2)=   0.000000  celldm(3)=   0.000000
     celldm(4)=   0.000000  celldm(5)=   0.000000  celldm(6)=   0.000000

     crystal axes: (cart. coord. in units of alat)
               a(1) = (   1.000000   0.000000   0.000000 )
               a(2) = (   0.000000   1.315963   0.000000 )
               a(3) = (   0.000000   0.000000   1.898020 )

     reciprocal axes: (cart. coord. in units 2 pi/alat)
               b(1) = (  1.000000  0.000000  0.000000 )
               b(2) = (  0.000000  0.759900  0.000000 )
               b(3) = (  0.000000  0.000000  0.526865 )

     PseudoPot. # 1 for Pr read from file:
     /home/cwx6513/pp.La/Pr.UPF
     MD5 check sum: 70e2b4b153859e92c8c91247dfc63203
     Pseudo is Norm-conserving, Zval = 13.0
     Generated in analytical, separable form
     Using radial grid of 1255 points,  6 beta functions with:
                l(1) =   0
                l(2) =   0
                l(3) =   1
                l(4) =   1
                l(5) =   2
                l(6) =   3

     PseudoPot. # 2 for Tb read from file:
     /home/cwx6513/pp.La/Tb.UPF
     MD5 check sum: 3d6088a3f0cf7fd2e110c43f7f8e95c2
     Pseudo is Norm-conserving, Zval = 19.0
     Generated in analytical, separable form
     Using radial grid of 1263 points,  6 beta functions with:
                l(1) =   0
                l(2) =   0
                l(3) =   1
                l(4) =   1
                l(5) =   2
                l(6) =   3

     atomic species   valence    mass     pseudopotential
        Co            13.00    58.93320     Pr( 1.00)
        Si            19.00    28.08550     Tb( 1.00)

      8 Sym. Ops., with inversion, found ( 6 have fractional translation)

   Cartesian axes

     site n.     atom                  positions (alat units)
         1           Co  tau(   1) = (   0.7500000   1.0875135   0.8270358  )
         2           Co  tau(   2) = (   0.2500000   0.2284499   1.0709846  )
         3           Co  tau(   3) = (   0.7500000   0.4295318   0.1219744  )
         4           Co  tau(   4) = (   0.2500000   0.8864316   1.7760460  )
         5           Co  tau(   5) = (   0.2500000   0.7067855   0.5358966  )
         6           Co  tau(   6) = (   0.7500000   0.6091779   1.3621238  )
         7           Co  tau(   7) = (   0.2500000   0.0488038   0.4131136  )
         8           Co  tau(   8) = (   0.7500000   1.2671596   1.4849068  )
         9           Si  tau(   9) = (   0.2500000   0.2669484   1.6960710  )
        10           Si  tau(  10) = (   0.7500000   1.0490149   0.2019494  )
        11           Si  tau(  11) = (   0.2500000   0.9249301   1.1509596  )
        12           Si  tau(  12) = (   0.7500000   0.3910333   0.7470608  )

     number of k points=    12  gaussian smearing, width (Ry)=  0.1000
                       cart. coord. in units 2pi/alat
        k(    1) = (   0.0000000   0.0000000   0.0000000), wk =   0.0833333
        k(    2) = (   0.0000000   0.0000000   0.1317162), wk =   0.1666667
        k(    3) = (   0.0000000   0.0000000  -0.2634324), wk =   0.0833333
        k(    4) = (   0.0000000   0.2532999   0.0000000), wk =   0.1666667
        k(    5) = (   0.0000000   0.2532999   0.1317162), wk =   0.3333333
        k(    6) = (   0.0000000   0.2532999  -0.2634324), wk =   0.1666667
        k(    7) = (  -0.5000000   0.0000000   0.0000000), wk =   0.0833333
        k(    8) = (  -0.5000000   0.0000000   0.1317162), wk =   0.1666667
        k(    9) = (  -0.5000000   0.0000000  -0.2634324), wk =   0.0833333
        k(   10) = (  -0.5000000   0.2532999   0.0000000), wk =   0.1666667
        k(   11) = (  -0.5000000   0.2532999   0.1317162), wk =   0.3333333
        k(   12) = (  -0.5000000   0.2532999  -0.2634324), wk =   0.1666667

     Largest allocated arrays     est. size (Mb)     dimensions
     Largest temporary arrays     est. size (Mb)     dimensions

     Initial potential from superposition of free atoms

     starting charge  103.92434, renormalised to  180.00000
     Starting wfc are  160 randomized atomic wfcs

     Self-consistent Calculation

     iteration #  1     ecut=    40.00 Ry     beta=0.70
     CG style diagonalization
     c_bands:  2 eigenvalues not converged
     ethr =  1.00E-02,  avg # of iterations = 17.3

     total energy              =    -332.00983812 Ry
     Harris-Foulkes estimate   =   -2730.68780895 Ry
     estimated scf accuracy    <    2871.56785121 Ry

     iteration #  2     ecut=    40.00 Ry     beta=0.70
     CG style diagonalization
     ethr =  1.00E-02,  avg # of iterations = 19.5

[...]

     End of self-consistent calculation

          k = 0.0000 0.0000 0.0000 (  3675 PWs)   bands (ev):

   -32.6773 -32.6444 -32.6381 -32.6246  -2.7620  -2.7470  -2.1315  -2.1281
    -2.0560  -2.0275  -2.0125  -1.9230  -1.8466  -1.7238  -1.4138  -1.3485
     0.0898   2.1407   2.4507   2.7866   3.2442   3.7136   3.8735   3.8804
    16.7319  17.4607  18.1509  18.4944  18.8709  18.9971  19.4281  19.9840
    20.4707  20.8093  20.9310  21.0643  21.2059  21.8804  22.2848  22.6216
    22.8183  22.9630  23.3876  24.0676  24.9187  25.2788  25.7450  26.3881
    31.4200  32.0232  32.7837  32.9728  32.9792  33.1607  33.4372  33.7254
    33.9568  34.7284  35.2542  35.3975  35.4368  37.0618  37.0855  37.1864
    37.2790  37.7221  38.0861  38.3991  38.5140  40.6645  40.9492  41.8582
    42.3199  42.3726  42.4716  42.5974  43.0998  43.2969  43.3770  43.7166
    44.1853  45.0339  45.2812  45.5754  45.6586  45.8823  46.0308  46.8043
    46.9719  47.7528  48.0747  48.2267  48.9276  49.0971  49.4203  50.3997
    50.4671  50.8702  51.2107  51.7418  51.7836  52.4103  52.8323  53.1925
    53.2873  53.5480  53.8683  54.1691

[...]

          k =-0.5000 0.0000 0.0000 (  3722 PWs)   bands (ev):

[...]

     the Fermi energy is    47.3845 ev

!    total energy              =   -1647.83175003 Ry
     Harris-Foulkes estimate   =   -1647.83178582 Ry
     estimated scf accuracy    <       0.00003912 Ry

     The total energy is the sum of the following terms:

     one-electron contribution =     345.80680598 Ry
     hartree contribution      =     107.07958751 Ry
     xc contribution           =    -197.62456635 Ry
     ewald contribution        =   -1902.72078713 Ry
     smearing contrib. (-TS)   =      -0.37279005 Ry

     convergence has been achieved in  11 iterations

     Forces acting on atoms (Ry/au):

     atom    1 type  1   force =     0.00000000   -0.07991956   -0.07535160
     atom    2 type  1   force =     0.00000000    0.07991956    0.07535160
     atom    3 type  1   force =     0.00000000   -0.07991956    0.07535160
     atom    4 type  1   force =     0.00000000    0.07991956   -0.07535160
     atom    5 type  1   force =     0.00000000    0.15214195   -0.27789733
     atom    6 type  1   force =     0.00000000   -0.15214195    0.27789733
     atom    7 type  1   force =     0.00000000    0.15214195    0.27789733
     atom    8 type  1   force =     0.00000000   -0.15214195   -0.27789733
     atom    9 type  2   force =     0.00000000   -0.18911966   -0.03443535
     atom   10 type  2   force =     0.00000000    0.18911966    0.03443535
     atom   11 type  2   force =     0.00000000   -0.18911966    0.03443535
     atom   12 type  2   force =     0.00000000    0.18911966   -0.03443535

     Total force =     0.773023     Total SCF correction =     0.031230

     entering subroutine stress ...

          total   stress  (Ry/bohr**3)                   (kbar)     P= 6482.57
   0.04814478   0.00000000   0.00000000       7082.34      0.00      0.00
   0.00000000   0.04109160   0.00000000          0.00   6044.78      0.00
   0.00000000   0.00000000   0.04296651          0.00      0.00   6320.59

     BFGS Geometry Optimization

     number of scf cycles    =   1
     number of bfgs steps    =   0

     enthalpy new            =   -1647.8317500336 Ry

     new trust radius        =       0.5000000000 bohr
     new conv_thr            =       0.0001000000 Ry

     new unit-cell volume =   1079.93959 a.u.^3 (   160.03053 Ang^3 )

CELL_PARAMETERS (alat=  7.01510508)
   1.085136619   0.000000000   0.000000000
   0.000000000   1.411586740   0.000000000
   0.000000000   0.000000000   2.042231316

ATOMIC_POSITIONS (crystal)
Co       0.750000000   0.825788646   0.435335701
Co       0.250000000   0.174211354   0.564664299
Co       0.750000000   0.325788646   0.064664299
Co       0.250000000   0.674211354   0.935335701
Co       0.250000000   0.538251730   0.280868694
Co       0.750000000   0.461748270   0.719131306
Co       0.250000000   0.038251730   0.219131306
Co       0.750000000   0.961748270   0.780868694
Si       0.250000000   0.201404942   0.893417065
Si       0.750000000   0.798595058   0.106582935
Si       0.250000000   0.701404942   0.606582935
Si       0.750000000   0.298595058   0.393417065

     Writing output data file Prototype-La-oP12-Co2Si.save
     NEW-OLD atomic charge density approx. for the potential
     NEW k-points:
        k(    1) = (   0.0000000   0.0000000   0.0000000), wk =   0.0833333
        k(    2) = (   0.0000000   0.0000000   0.1224151), wk =   0.1666667
        k(    3) = (   0.0000000   0.0000000  -0.2448302), wk =   0.0833333
        k(    4) = (   0.0000000   0.2361409   0.0000000), wk =   0.1666667
        k(    5) = (   0.0000000   0.2361409   0.1224151), wk =   0.3333333
        k(    6) = (   0.0000000   0.2361409  -0.2448302), wk =   0.1666667
        k(    7) = (  -0.4607715   0.0000000   0.0000000), wk =   0.0833333
        k(    8) = (  -0.4607715   0.0000000   0.1224151), wk =   0.1666667
        k(    9) = (  -0.4607715   0.0000000  -0.2448302), wk =   0.0833333
        k(   10) = (  -0.4607715   0.2361409   0.0000000), wk =   0.1666667
        k(   11) = (  -0.4607715   0.2361409   0.1224151), wk =   0.3333333
        k(   12) = (  -0.4607715   0.2361409  -0.2448302), wk =   0.1666667
     Check: negative starting charge=   -0.010679

     negative rho (up, down):  0.111E-01 0.000E+00
     extrapolated charge  200.94594, renormalised to  180.00000

[...]

     negative rho (up, down):  0.235E-02 0.000E+00

[...]

     enthalpy old            =   -1647.8317500336 Ry
     enthalpy new            =   -1654.0494157639 Ry

     CASE: enthalpy_new < enthalpy_old

     small trust_radius: resetting bfgs history

     new trust radius        =       2.9217270224 bohr
     new conv_thr            =       0.0001000000 Ry

[...]

     Writing output data file Prototype-La-oP12-Co2Si.save
     Check: negative starting charge=   -0.010679
     NEW-OLD atomic charge density approx. for the potential
     NEW k-points:
        k(    1) = (   0.0000000   0.0000000   0.0000000), wk =   0.0833333
        k(    2) = (   0.0000000   0.0000000   0.0876251), wk =   0.1666667
        k(    3) = (   0.0000000   0.0000000  -0.1752501), wk =   0.0833333
        k(    4) = (   0.0000000   0.1713786   0.0000000), wk =   0.1666667
        k(    5) = (   0.0000000   0.1713786   0.0876251), wk =   0.3333333
        k(    6) = (   0.0000000   0.1713786  -0.1752501), wk =   0.1666667
        k(    7) = (  -0.3189747   0.0000000   0.0000000), wk =   0.0833333
        k(    8) = (  -0.3189747   0.0000000   0.0876251), wk =   0.1666667
        k(    9) = (  -0.3189747   0.0000000  -0.1752501), wk =   0.0833333
        k(   10) = (  -0.3189747   0.1713786   0.0000000), wk =   0.1666667
        k(   11) = (  -0.3189747   0.1713786   0.0876251), wk =   0.3333333
        k(   12) = (  -0.3189747   0.1713786  -0.1752501), wk =   0.1666667
     Check: negative starting charge=   -0.012511

[...]

          total   stress  (Ry/bohr**3)                   (kbar)     P=-1382.55
  -0.00992536   0.00000000   0.00000000      -1460.07      0.00      0.00
   0.00000000  -0.00904241   0.00000000          0.00  -1330.18      0.00
   0.00000000   0.00000000  -0.00922744          0.00      0.00  -1357.40

     number of scf cycles    =   3
     number of bfgs steps    =   2

     enthalpy old            =   -1654.0494157639 Ry
     enthalpy new            =   -1643.6097890744 Ry

     CASE: enthalpy_new > enthalpy_old

     new trust radius        =       1.1385072642 bohr

     trust_radius < trust_radius_min

     resetting bfgs history

     Message from routine bfgs:
     history already reset at previous step: stopping
     new conv_thr            =       0.0001000000 Ry

     new unit-cell volume =   1276.38172 a.u.^3 (   189.14025 Ang^3 )

[...]

ATOMIC_POSITIONS (crystal)
Co       0.750000000   0.825258657   0.435085119
Co       0.250000000   0.174741343   0.564914881
Co       0.750000000   0.325258657   0.064914881
Co       0.250000000   0.674741343   0.935085119
Co       0.250000000   0.539153256   0.279713535
Co       0.750000000   0.460846744   0.720286465
Co       0.250000000   0.039153256   0.220286465
Co       0.750000000   0.960846744   0.779713535
Si       0.250000000   0.200529879   0.893380864
Si       0.750000000   0.799470121   0.106619136
Si       0.250000000   0.700529879   0.606619136
Si       0.750000000   0.299470121   0.393380864

     Writing output data file Prototype-La-oP12-Co2Si.save
     Check: negative starting charge=   -0.012511
     NEW-OLD atomic charge density approx. for the potential
     NEW k-points:
        k(    1) = (   0.0000000   0.0000000   0.0000000), wk =   0.0833333
        k(    2) = (   0.0000000   0.0000000   0.1160277), wk =   0.1666667
        k(    3) = (   0.0000000   0.0000000  -0.2320554), wk =   0.0833333
        k(    4) = (   0.0000000   0.2246884   0.0000000), wk =   0.1666667
        k(    5) = (   0.0000000   0.2246884   0.1160277), wk =   0.3333333
        k(    6) = (   0.0000000   0.2246884  -0.2320554), wk =   0.1666667
        k(    7) = (  -0.4322834   0.0000000   0.0000000), wk =   0.0833333
        k(    8) = (  -0.4322834   0.0000000   0.1160277), wk =   0.1666667
        k(    9) = (  -0.4322834   0.0000000  -0.2320554), wk =   0.0833333
        k(   10) = (  -0.4322834   0.2246884   0.0000000), wk =   0.1666667
        k(   11) = (  -0.4322834   0.2246884   0.1160277), wk =   0.3333333
        k(   12) = (  -0.4322834   0.2246884  -0.2320554), wk =   0.1666667
     Check: negative starting charge=   -0.022903

     negative rho (up, down):  0.568E+02 0.000E+00
     extrapolated charge   39.41989, renormalised to  180.00000

[...]

     The maximum number of steps has been reached.

     End of BFGS Geometry Optimization
Begin final coordinates
     new unit-cell volume =   1276.38172 a.u.^3 (   189.14025 Ang^3 )

CELL_PARAMETERS (alat=  7.01510508)
   1.156648580   0.000000000   0.000000000
   0.000000000   1.483536334   0.000000000
   0.000000000   0.000000000   2.154658347

ATOMIC_POSITIONS (crystal)
Co       0.750000000   0.825258657   0.435085119
Co       0.250000000   0.174741343   0.564914881
Co       0.750000000   0.325258657   0.064914881
Co       0.250000000   0.674741343   0.935085119
Co       0.250000000   0.539153256   0.279713535
Co       0.750000000   0.460846744   0.720286465
Co       0.250000000   0.039153256   0.220286465
Co       0.750000000   0.960846744   0.779713535
Si       0.250000000   0.200529879   0.893380864
Si       0.750000000   0.799470121   0.106619136
Si       0.250000000   0.700529879   0.606619136
Si       0.750000000   0.299470121   0.393380864
End final coordinates

     A final scf calculation at the relaxed structure.
     The G-vectors are recalculated for the final unit cell
     Results may differ from those at the preceding step.

     bravais-lattice index     =            0
     lattice parameter (alat)  =       7.0151  a.u.
     unit-cell volume          =    1276.3817 (a.u.)^3
     number of atoms/cell      =           12
     number of atomic types    =            2
     number of electrons       =       180.00
     number of Kohn-Sham states=          108
     kinetic-energy cutoff     =      40.0000  Ry
     charge density cutoff     =     160.0000  Ry
     convergence threshold     =      1.0E-04
     mixing beta               =       0.7000
     number of iterations used =            8  plain     mixing
     Exchange-correlation      = SLA-PZ-NOGX-NOGC ( 1 1 0 0 0)
     EXX-fraction              =        0.00

     celldm(1)=   7.015105  celldm(2)=   0.000000  celldm(3)=   0.000000
     celldm(4)=   0.000000  celldm(5)=   0.000000  celldm(6)=   0.000000

     crystal axes: (cart. coord. in units of alat)
               a(1) = (   1.156649   0.000000   0.000000 )
               a(2) = (   0.000000   1.483536   0.000000 )
               a(3) = (   0.000000   0.000000   2.154658 )

     reciprocal axes: (cart. coord. in units 2 pi/alat)
               b(1) = (  0.864567  0.000000  0.000000 )
               b(2) = (  0.000000  0.674065  0.000000 )
               b(3) = (  0.000000  0.000000  0.464111 )

     PseudoPot. # 1 for Pr read from file:
     /home/cwx6513/pp.La/Pr.UPF
     MD5 check sum: 70e2b4b153859e92c8c91247dfc63203
     Pseudo is Norm-conserving, Zval = 13.0
     Generated in analytical, separable form
     Using radial grid of 1255 points,  6 beta functions with:
                l(1) =   0
                l(2) =   0
                l(3) =   1
                l(4) =   1
                l(5) =   2
                l(6) =   3

     PseudoPot. # 2 for Tb read from file:
     /home/cwx6513/pp.La/Tb.UPF
     MD5 check sum: 3d6088a3f0cf7fd2e110c43f7f8e95c2
     Pseudo is Norm-conserving, Zval = 19.0
     Generated in analytical, separable form
     Using radial grid of 1263 points,  6 beta functions with:
                l(1) =   0
                l(2) =   0
                l(3) =   1
                l(4) =   1
                l(5) =   2
                l(6) =   3

     atomic species   valence    mass     pseudopotential
        Co            13.00    58.93320     Pr( 1.00)
        Si            19.00    28.08550     Tb( 1.00)

      8 Sym. Ops., with inversion, found ( 6 have fractional translation)

   Cartesian axes

     site n.     atom                  positions (alat units)
         1           Co  tau(   1) = (   0.8674864   1.2243012   0.9374598  )
         2           Co  tau(   2) = (   0.2891621   0.2592351   1.2171986  )
         3           Co  tau(   3) = (   0.8674864   0.4825330   0.1398694  )
         4           Co  tau(   4) = (   0.2891621   1.0010033   2.0147890  )
         5           Co  tau(   5) = (   0.2891621   0.7998534   0.6026871  )
         6           Co  tau(   6) = (   0.8674864   0.6836829   1.5519712  )
         7           Co  tau(   7) = (   0.2891621   0.0580853   0.4746421  )
         8           Co  tau(   8) = (   0.8674864   1.4254511   1.6800163  )
         9           Si  tau(   9) = (   0.2891621   0.2974934   1.9249305  )
        10           Si  tau(  10) = (   0.8674864   1.1860430   0.2297278  )
        11           Si  tau(  11) = (   0.2891621   1.0392615   1.3070570  )
        12           Si  tau(  12) = (   0.8674864   0.4442748   0.8476014  )

     number of k points=    12  gaussian smearing, width (Ry)=  0.1000
                       cart. coord. in units 2pi/alat
        k(    1) = (   0.0000000   0.0000000   0.0000000), wk =   0.0833333
        k(    2) = (   0.0000000   0.0000000   0.1160277), wk =   0.1666667
        k(    3) = (   0.0000000   0.0000000  -0.2320554), wk =   0.0833333
        k(    4) = (   0.0000000   0.2246884   0.0000000), wk =   0.1666667
        k(    5) = (   0.0000000   0.2246884   0.1160277), wk =   0.3333333
        k(    6) = (   0.0000000   0.2246884  -0.2320554), wk =   0.1666667
        k(    7) = (  -0.4322834   0.0000000   0.0000000), wk =   0.0833333
        k(    8) = (  -0.4322834   0.0000000   0.1160277), wk =   0.1666667
        k(    9) = (  -0.4322834   0.0000000  -0.2320554), wk =   0.0833333
        k(   10) = (  -0.4322834   0.2246884   0.0000000), wk =   0.1666667
        k(   11) = (  -0.4322834   0.2246884   0.1160277), wk =   0.3333333
        k(   12) = (  -0.4322834   0.2246884  -0.2320554), wk =   0.1666667

     Largest allocated arrays     est. size (Mb)     dimensions
     Largest temporary arrays     est. size (Mb)     dimensions

     Initial potential from superposition of free atoms
     Check: negative starting charge=   -0.000942

     starting charge  103.92434, renormalised to  180.00000

     negative rho (up, down):  0.163E-02 0.000E+00
     Starting wfc are  160 randomized atomic wfcs

     Writing output data file Prototype-La-oP12-Co2Si.save

     Self-consistent Calculation

[...]

     negative rho (up, down):  0.500E-04 0.000E+00

[...]

     iteration #  7     ecut=    40.00 Ry     beta=0.70
     CG style diagonalization
     ethr =  1.53E-03,  avg # of iterations =  4.3

[...]

     total energy              =   -1658.43648258 Ry
     Harris-Foulkes estimate   =   -1658.43770687 Ry
     estimated scf accuracy    <       0.00254246 Ry

     iteration # 11     ecut=    40.00 Ry     beta=0.70
     CG style diagonalization
     c_bands:  1 eigenvalues not converged
     ethr =  1.41E-06,  avg # of iterations =  3.8

     End of self-consistent calculation

[...]

          k = 0.0000 0.2247-0.2321 (  5464 PWs)   bands (ev):

[...]

          k =-0.4323 0.2247-0.2321 (  5476 PWs)   bands (ev):

   -45.9903 -45.9903 -45.9885 -45.9885 -14.8117 -14.8117 -14.7465 -14.7465
   -14.5980 -14.5980 -14.5953 -14.5953 -14.4191 -14.4191 -14.4169 -14.4169
   -11.9211 -11.9211 -11.8789 -11.8789 -11.7852 -11.7852 -11.5953 -11.5953
     5.9319   5.9319   6.3382   6.3382   6.5037   6.5037   6.7864   6.7865
     6.8254   6.8254   7.6762   7.6762   8.1123   8.1123   8.4079   8.4079
     8.6589   8.6589   8.6832   8.6832   8.9852   8.9852   9.1356   9.1356
    21.6229  21.6229  21.8838  21.8838  22.0962  22.0962  22.3160  22.3160
    22.6029  22.6029  22.7498  22.7498  23.0546  23.0546  23.0703  23.0703
    23.6011  23.6011  23.6117  23.6117  25.8903  25.8903  26.6708  26.6708
    27.6632  27.6632  27.9745  27.9745  28.0044  28.0044  28.3898  28.3898
    28.4086  28.4086  29.4706  29.4706  29.6565  29.6565  30.4394  30.4394
    30.4439  30.4439  31.2281  31.2281  31.5330  31.5330  32.4104  32.4104
    32.4666  32.4666  32.9721  32.9721  33.7096  33.7096  34.8190  34.8193
    35.0718  35.0723  35.4931  35.4932

     the Fermi energy is    31.1687 ev

!    total energy              =   -1658.43707046 Ry
     Harris-Foulkes estimate   =   -1658.43710656 Ry
     estimated scf accuracy    <       0.00004960 Ry

     The total energy is the sum of the following terms:

     one-electron contribution =      34.88889358 Ry
     hartree contribution      =     164.36294809 Ry
     xc contribution           =    -186.65929592 Ry
     ewald contribution        =   -1670.48878834 Ry
     smearing contrib. (-TS)   =      -0.54082786 Ry

     convergence has been achieved in  11 iterations

     Forces acting on atoms (Ry/au):

     atom    1 type  1   force =     0.00000000   -0.03585955   -0.01126518
     atom    2 type  1   force =     0.00000000    0.03585955    0.01126518
     atom    3 type  1   force =     0.00000000   -0.03585955    0.01126518
     atom    4 type  1   force =     0.00000000    0.03585955   -0.01126518
     atom    5 type  1   force =     0.00000000    0.05094751   -0.10100517
     atom    6 type  1   force =     0.00000000   -0.05094751    0.10100517
     atom    7 type  1   force =     0.00000000    0.05094751    0.10100517
     atom    8 type  1   force =     0.00000000   -0.05094751   -0.10100517
     atom    9 type  2   force =     0.00000000   -0.05138059   -0.01084083
     atom   10 type  2   force =     0.00000000    0.05138059    0.01084083
     atom   11 type  2   force =     0.00000000   -0.05138059    0.01084083
     atom   12 type  2   force =     0.00000000    0.05138059   -0.01084083

     Total force =     0.260523     Total SCF correction =     0.018066

     entering subroutine stress ...

          total   stress  (Ry/bohr**3)                   (kbar)     P= 1244.30
   0.00926013   0.00000000   0.00000000       1362.21      0.00      0.00
   0.00000000   0.00788690   0.00000000          0.00   1160.20      0.00
   0.00000000   0.00000000   0.00822868          0.00      0.00   1210.48

     Writing output data file Prototype-La-oP12-Co2Si.save

     General routines

     Parallel routines

   This run was terminated on:  16:46:50  22Mar2018

   JOB DONE.