     Program PWSCF v.5.0.2 starts on 22Mar2018 at 21:33:52

     Current dimensions of program PWSCF are:
     Max number of different atomic species (ntypx) = 10
     Max number of k-points (npk) =  40000
     Max angular momentum in pseudopotentials (lmaxx) =  3
     Waiting for input...
     Reading input from standard input

     Subspace diagonalization in iterative solution of the eigenvalue problem:
     a serial algorithm will be used

     bravais-lattice index     =            0
     lattice parameter (alat)  =       9.9235  a.u.
     unit-cell volume          =    1361.0366 (a.u.)^3
     number of atoms/cell      =           12
     number of atomic types    =            2
     number of electrons       =       204.00
     number of Kohn-Sham states=          122
     kinetic-energy cutoff     =      40.0000  Ry
     charge density cutoff     =     160.0000  Ry
     convergence threshold     =      1.0E-04
     mixing beta               =       0.7000
     number of iterations used =            8  plain     mixing
     Exchange-correlation      = SLA-PZ-NOGX-NOGC ( 1 1 0 0 0)
     EXX-fraction              =        0.00
     nstep                     =           50

     celldm(1)=   9.923489  celldm(2)=   0.000000  celldm(3)=   0.000000
     celldm(4)=   0.000000  celldm(5)=   0.000000  celldm(6)=   0.000000

     crystal axes: (cart. coord. in units of alat)
               a(1) = (   1.000000   0.000000   0.000000 )
               a(2) = (  -0.500000   0.866025   0.000000 )
               a(3) = (   0.000000   0.000000   1.608222 )

     reciprocal axes: (cart. coord. in units 2 pi/alat)
               b(1) = (  1.000000  0.577350  0.000000 )
               b(2) = (  0.000000  1.154701  0.000000 )
               b(3) = (  0.000000  0.000000  0.621805 )

     PseudoPot. # 1 for Tm read from file:
     /home/cwx6513/pp.La/Tm.UPF
     MD5 check sum: 245516e0878b5372ceeb9443ded2c4e1
     Pseudo is Norm-conserving, Zval = 23.0
     Generated in analytical, separable form
     Using radial grid of 1269 points,  6 beta functions with:
                l(1) =   0
                l(2) =   0
                l(3) =   1
                l(4) =   1
                l(5) =   2
                l(6) =   3

     PseudoPot. # 2 for Nd read from file:
     /home/cwx6513/pp.La/Nd.UPF
     MD5 check sum: c66c5b6abe7b5840ced9b1e244e3bed6
     Pseudo is Norm-conserving, Zval = 14.0
     Generated in analytical, separable form
     Using radial grid of 1257 points,  6 beta functions with:
                l(1) =   0
                l(2) =   0
                l(3) =   1
                l(4) =   1
                l(5) =   2
                l(6) =   3

     atomic species   valence    mass     pseudopotential
        Mg            23.00    24.30500     Tm( 1.00)
        Zn            14.00    65.39000     Nd( 1.00)

     24 Sym. Ops., with inversion, found (12 have fractional translation)

   Cartesian axes

     site n.     atom                  positions (alat units)
         1           Mg  tau(   1) = (  -0.0000005   0.5773506   0.1003820  )
         2           Mg  tau(   2) = (   0.5000005   0.2886748   0.9044931  )
         3           Mg  tau(   3) = (   0.5000005   0.2886748   1.5078402  )
         4           Mg  tau(   4) = (  -0.0000005   0.5773506   0.7037291  )
         5           Zn  tau(   5) = (   0.0000000   0.0000000   0.0000000  )
         6           Zn  tau(   6) = (   0.0000000   0.0000000   0.8041111  )
         7           Zn  tau(   7) = (   0.0000000   0.2950739   1.2061667  )
         8           Zn  tau(   8) = (   0.7444585   0.1475370   0.4020556  )
         9           Zn  tau(   9) = (   0.2555415   0.1475370   0.4020556  )
        10           Zn  tau(  10) = (   0.2444585   0.7184884   1.2061667  )
        11           Zn  tau(  11) = (  -0.2444585   0.7184884   1.2061667  )
        12           Zn  tau(  12) = (   0.5000000   0.5709515   0.4020556  )

     number of k points=    12  gaussian smearing, width (Ry)=  0.1000
                       cart. coord. in units 2pi/alat
        k(    1) = (   0.0000000   0.0000000   0.0000000), wk =   0.0833333
        k(    2) = (   0.0000000   0.0000000   0.1554512), wk =   0.1666667
        k(    3) = (   0.0000000   0.0000000  -0.3109023), wk =   0.0833333
        k(    4) = (   0.0000000   0.3849002   0.0000000), wk =   0.1666667
        k(    5) = (   0.0000000   0.3849002   0.1554512), wk =   0.3333333
        k(    6) = (   0.0000000   0.3849002  -0.3109023), wk =   0.1666667
        k(    7) = (  -0.5000000  -0.2886751   0.0000000), wk =   0.0833333
        k(    8) = (  -0.5000000  -0.2886751   0.1554512), wk =   0.1666667
        k(    9) = (  -0.5000000  -0.2886751  -0.3109023), wk =   0.0833333
        k(   10) = (  -0.5000000   0.0962250   0.0000000), wk =   0.1666667
        k(   11) = (  -0.5000000   0.0962250   0.1554512), wk =   0.3333333
        k(   12) = (  -0.5000000   0.0962250  -0.3109023), wk =   0.1666667

     Largest allocated arrays     est. size (Mb)     dimensions
     Largest temporary arrays     est. size (Mb)     dimensions

     Initial potential from superposition of free atoms

     Starting from uniform charge
     Starting wfc are    0 randomized atomic wfcs

     Self-consistent Calculation

     iteration #  1     ecut=    40.00 Ry     beta=0.70
     CG style diagonalization
     c_bands:  4 eigenvalues not converged
     c_bands:  5 eigenvalues not converged
     c_bands:  3 eigenvalues not converged
     c_bands:  3 eigenvalues not converged
     c_bands:  4 eigenvalues not converged
     c_bands:  3 eigenvalues not converged
     c_bands:  2 eigenvalues not converged
     c_bands:  1 eigenvalues not converged
     c_bands:  4 eigenvalues not converged
     c_bands:  2 eigenvalues not converged
     c_bands:  3 eigenvalues not converged
     ethr =  1.00E-02,  avg # of iterations = 13.2

     total energy              =   -1117.80202348 Ry
     Harris-Foulkes estimate   =   -3127.90635440 Ry
     estimated scf accuracy    <    2393.32860149 Ry

     iteration #  2     ecut=    40.00 Ry     beta=0.70
     CG style diagonalization
     ethr =  1.00E-02,  avg # of iterations = 19.5

[...]

     End of self-consistent calculation

          k = 0.0000 0.0000 0.0000 (  5769 PWs)   bands (ev):

   -80.2985 -80.2839 -80.2782 -80.2361 -38.9957 -38.9791 -38.9728 -38.9728
   -38.9543 -38.9527 -38.9527 -38.9294 -38.9294 -38.9293 -38.9203 -38.9203
   -18.0885 -17.7388 -16.9015 -16.4975 -16.4975 -16.4910 -16.4910 -16.4775
     0.0424   0.8363   1.6576   2.6921   2.6922   2.9306   2.9307   3.0609
     3.0610   3.7501   4.6205   4.6206   4.6287   4.6287   5.1013   6.2555
     6.2785   6.2818   6.3090   6.3090   6.7456   6.7456   6.9082   6.9082
     9.7694   9.7694   9.7716   9.7980   9.8924   9.8924  10.0019  10.0019
    10.0492  10.0492  10.1528  10.1733  10.1733  10.2137  10.2137  10.3080
    10.3080  10.3166  10.3166  10.3217  17.2815  19.1023  19.7760  22.7623
    22.7624  22.9156  23.0442  24.1963  24.4735  24.4952  24.5801  24.5802
    25.6434  25.6435  25.7600  25.7600  26.4828  26.4828  26.5806  26.7457
    27.8185  27.8185  28.3471  28.3471  29.4414  29.4416  30.6470  31.0180
    31.5979  31.6912  31.9581  31.9583  32.4157  32.4158  32.6649  32.6650
    32.8806  32.9379  32.9379  33.0131  33.0132  33.4508  33.4734  33.4735
    33.4747  33.9230  34.5964  34.5965  35.6346  35.7668  35.7669  37.0431
    37.0444  37.0216

[...]

          k =-0.5000-0.2887 0.0000 (  5800 PWs)   bands (ev):

[...]

     the Fermi energy is    31.4757 ev

!    total energy              =   -2350.76514709 Ry
     Harris-Foulkes estimate   =   -2350.76516573 Ry
     estimated scf accuracy    <       0.00002158 Ry

     The total energy is the sum of the following terms:

     one-electron contribution =    -297.85411444 Ry
     hartree contribution      =     320.69557519 Ry
     xc contribution           =    -229.85663685 Ry
     ewald contribution        =   -2143.19937982 Ry
     smearing contrib. (-TS)   =      -0.55059117 Ry

     convergence has been achieved in  11 iterations

     Forces acting on atoms (Ry/au):

     atom    1 type  1   force =     0.00000000    0.00000000    0.01394643
     atom    2 type  1   force =     0.00000000    0.00000000    0.01394643
     atom    3 type  1   force =     0.00000000    0.00000000   -0.01394643
     atom    4 type  1   force =     0.00000000    0.00000000   -0.01394643
     atom    5 type  2   force =     0.00000000    0.00000000    0.00000000
     atom    6 type  2   force =     0.00000000    0.00000000    0.00000000
     atom    7 type  2   force =     0.00000000    0.03119038    0.00000000
     atom    8 type  2   force =    -0.02701166    0.01559519    0.00000000
     atom    9 type  2   force =     0.02701166    0.01559519    0.00000000
     atom   10 type  2   force =    -0.02701166   -0.01559519    0.00000000
     atom   11 type  2   force =     0.02701166   -0.01559519    0.00000000
     atom   12 type  2   force =     0.00000000   -0.03119038    0.00000000

     Total force =     0.081333     Total SCF correction =     0.000000

     entering subroutine stress ...

          total   stress  (Ry/bohr**3)                   (kbar)     P=  879.52
   0.00582764   0.00000000   0.00000000        857.28      0.00      0.00
   0.00000000   0.00582764   0.00000000          0.00    857.28      0.00
   0.00000000   0.00000000   0.00628132          0.00      0.00    924.01

     BFGS Geometry Optimization

     number of scf cycles    =   1
     number of bfgs steps    =   0

     enthalpy new            =   -2350.7651470880 Ry

     new trust radius        =       0.5000000000 bohr
     new conv_thr            =       0.0001000000 Ry

     new unit-cell volume =   1641.74691 a.u.^3 (   243.28179 Ang^3 )

CELL_PARAMETERS (alat=  9.92348860)
   1.062870531   0.000000000   0.000000000
  -0.531435266   0.920472881   0.000000000
   0.000000000   0.000000000   1.717203317

ATOMIC_POSITIONS (crystal)
Mg       0.333333000   0.666667000   0.062795109
Mg       0.666667000   0.333333000   0.562795109
Mg       0.666667000   0.333333000   0.937204891
Mg       0.333333000   0.666667000   0.437204891
Zn       0.000000000   0.000000000   0.000000000
Zn       0.000000000   0.000000000   0.500000000
Zn       0.171144087   0.342288173   0.750000000
Zn       0.828855913   0.171144087   0.250000000
Zn       0.342288173   0.171144087   0.250000000
Zn       0.657711827   0.828855913   0.750000000
Zn       0.171144087   0.828855913   0.750000000
Zn       0.828855913   0.657711827   0.250000000

     Writing output data file Prototype-La-hP12-MgZn2.save
     NEW-OLD atomic charge density approx. for the potential
     NEW k-points:
        k(    1) = (   0.0000000   0.0000000   0.0000000), wk =   0.0833333
        k(    2) = (   0.0000000   0.0000000   0.1455856), wk =   0.1666667
        k(    3) = (   0.0000000   0.0000000  -0.2911711), wk =   0.0833333
        k(    4) = (   0.0000000   0.3621327   0.0000000), wk =   0.1666667
        k(    5) = (   0.0000000   0.3621327   0.1455856), wk =   0.3333333
        k(    6) = (   0.0000000   0.3621327  -0.2911711), wk =   0.1666667
        k(    7) = (  -0.4704242  -0.2715995   0.0000000), wk =   0.0833333
        k(    8) = (  -0.4704242  -0.2715995   0.1455856), wk =   0.1666667
        k(    9) = (  -0.4704242  -0.2715995  -0.2911711), wk =   0.0833333
        k(   10) = (  -0.4704242   0.0905332   0.0000000), wk =   0.1666667
        k(   11) = (  -0.4704242   0.0905332   0.1455856), wk =   0.3333333
        k(   12) = (  -0.4704242   0.0905332  -0.2911711), wk =   0.1666667

[...]

     enthalpy old            =   -2350.7651470880 Ry
     enthalpy new            =   -2351.3118646165 Ry

     CASE: enthalpy_new < enthalpy_old

     small trust_radius: resetting bfgs history

     new trust radius        =       0.2837697275 bohr
     new conv_thr            =       0.0000186632 Ry

[...]

     number of scf cycles    =   3
     number of bfgs steps    =   2

     enthalpy old            =   -2351.3118646165 Ry
     enthalpy new            =   -2351.2558111112 Ry

     CASE: enthalpy_new > enthalpy_old

     new trust radius        =       0.1119704834 bohr

     trust_radius < trust_radius_min

     resetting bfgs history

     Message from routine bfgs:
     history already reset at previous step: stopping
     new conv_thr            =       0.0000186632 Ry

     new unit-cell volume =   1476.13061 a.u.^3 (   218.73999 Ang^3 )

[...]

ATOMIC_POSITIONS (crystal)
Mg       0.333333000   0.666667000   0.063961380
Mg       0.666667000   0.333333000   0.563961380
Mg       0.666667000   0.333333000   0.936038620
Mg       0.333333000   0.666667000   0.436038620
Zn       0.000000000   0.000000000   0.000000000
Zn       0.000000000   0.000000000   0.500000000
Zn       0.171994850   0.343989701   0.750000000
Zn       0.828005150   0.171994850   0.250000000
Zn       0.343989701   0.171994850   0.250000000
Zn       0.656010299   0.828005150   0.750000000
Zn       0.171994850   0.828005150   0.750000000
Zn       0.828005150   0.656010299   0.250000000

     Writing output data file Prototype-La-hP12-MgZn2.save
     NEW-OLD atomic charge density approx. for the potential
     NEW k-points:
        k(    1) = (   0.0000000   0.0000000   0.0000000), wk =   0.0833333
        k(    2) = (   0.0000000   0.0000000   0.1504291), wk =   0.1666667
        k(    3) = (   0.0000000   0.0000000  -0.3008582), wk =   0.0833333
        k(    4) = (   0.0000000   0.3757091   0.0000000), wk =   0.1666667
        k(    5) = (   0.0000000   0.3757091   0.1504291), wk =   0.3333333
        k(    6) = (   0.0000000   0.3757091  -0.3008582), wk =   0.1666667
        k(    7) = (  -0.4880604  -0.2817818   0.0000000), wk =   0.0833333
        k(    8) = (  -0.4880604  -0.2817818   0.1504291), wk =   0.1666667
        k(    9) = (  -0.4880604  -0.2817818  -0.3008582), wk =   0.0833333
        k(   10) = (  -0.4880604   0.0939273   0.0000000), wk =   0.1666667
        k(   11) = (  -0.4880604   0.0939273   0.1504291), wk =   0.3333333
        k(   12) = (  -0.4880604   0.0939273  -0.3008582), wk =   0.1666667

[...]

     The maximum number of steps has been reached.

     End of BFGS Geometry Optimization
Begin final coordinates
     new unit-cell volume =   1476.13061 a.u.^3 (   218.73999 Ang^3 )

CELL_PARAMETERS (alat=  9.92348860)
   1.024463334   0.000000000   0.000000000
  -0.512231667   0.887211273   0.000000000
   0.000000000   0.000000000   1.661912639

ATOMIC_POSITIONS (crystal)
Mg       0.333333000   0.666667000   0.063961380
Mg       0.666667000   0.333333000   0.563961380
Mg       0.666667000   0.333333000   0.936038620
Mg       0.333333000   0.666667000   0.436038620
Zn       0.000000000   0.000000000   0.000000000
Zn       0.000000000   0.000000000   0.500000000
Zn       0.171994850   0.343989701   0.750000000
Zn       0.828005150   0.171994850   0.250000000
Zn       0.343989701   0.171994850   0.250000000
Zn       0.656010299   0.828005150   0.750000000
Zn       0.171994850   0.828005150   0.750000000
Zn       0.828005150   0.656010299   0.250000000
End final coordinates

     A final scf calculation at the relaxed structure.
     The G-vectors are recalculated for the final unit cell
     Results may differ from those at the preceding step.

     bravais-lattice index     =            0
     lattice parameter (alat)  =       9.9235  a.u.
     unit-cell volume          =    1476.1306 (a.u.)^3
     number of atoms/cell      =           12
     number of atomic types    =            2
     number of electrons       =       204.00
     number of Kohn-Sham states=          122
     kinetic-energy cutoff     =      40.0000  Ry
     charge density cutoff     =     160.0000  Ry
     convergence threshold     =      1.9E-05
     mixing beta               =       0.7000
     number of iterations used =            8  plain     mixing
     Exchange-correlation      = SLA-PZ-NOGX-NOGC ( 1 1 0 0 0)
     EXX-fraction              =        0.00

     celldm(1)=   9.923489  celldm(2)=   0.000000  celldm(3)=   0.000000
     celldm(4)=   0.000000  celldm(5)=   0.000000  celldm(6)=   0.000000

     crystal axes: (cart. coord. in units of alat)
               a(1) = (   1.024463   0.000000   0.000000 )
               a(2) = (  -0.512232   0.887211   0.000000 )
               a(3) = (   0.000000   0.000000   1.661913 )

     reciprocal axes: (cart. coord. in units 2 pi/alat)
               b(1) = (  0.976121  0.563564  0.000000 )
               b(2) = (  0.000000  1.127127  0.000000 )
               b(3) = (  0.000000  0.000000  0.601716 )

     PseudoPot. # 1 for Tm read from file:
     /home/cwx6513/pp.La/Tm.UPF
     MD5 check sum: 245516e0878b5372ceeb9443ded2c4e1
     Pseudo is Norm-conserving, Zval = 23.0
     Generated in analytical, separable form
     Using radial grid of 1269 points,  6 beta functions with:
                l(1) =   0
                l(2) =   0
                l(3) =   1
                l(4) =   1
                l(5) =   2
                l(6) =   3

     PseudoPot. # 2 for Nd read from file:
     /home/cwx6513/pp.La/Nd.UPF
     MD5 check sum: c66c5b6abe7b5840ced9b1e244e3bed6
     Pseudo is Norm-conserving, Zval = 14.0
     Generated in analytical, separable form
     Using radial grid of 1257 points,  6 beta functions with:
                l(1) =   0
                l(2) =   0
                l(3) =   1
                l(4) =   1
                l(5) =   2
                l(6) =   3

     atomic species   valence    mass     pseudopotential
        Mg            23.00    24.30500     Tm( 1.00)
        Zn            14.00    65.39000     Nd( 1.00)

     24 Sym. Ops., with inversion, found (12 have fractional translation)

   Cartesian axes

     site n.     atom                  positions (alat units)
         1           Mg  tau(   1) = (  -0.0000005   0.5914745   0.1062982  )
         2           Mg  tau(   2) = (   0.5122322   0.2957368   0.9372545  )
         3           Mg  tau(   3) = (   0.5122322   0.2957368   1.5556144  )
         4           Mg  tau(   4) = (  -0.0000005   0.5914745   0.7246581  )
         5           Zn  tau(   5) = (   0.0000000   0.0000000   0.0000000  )
         6           Zn  tau(   6) = (   0.0000000   0.0000000   0.8309563  )
         7           Zn  tau(   7) = (   0.0000000   0.3051915   1.2464345  )
         8           Zn  tau(   8) = (   0.7601597   0.1525958   0.4154782  )
         9           Zn  tau(   9) = (   0.2643036   0.1525958   0.4154782  )
        10           Zn  tau(  10) = (   0.2479280   0.7346155   1.2464345  )
        11           Zn  tau(  11) = (  -0.2479280   0.7346155   1.2464345  )
        12           Zn  tau(  12) = (   0.5122317   0.5820197   0.4154782  )

     number of k points=    12  gaussian smearing, width (Ry)=  0.1000
                       cart. coord. in units 2pi/alat
        k(    1) = (   0.0000000   0.0000000   0.0000000), wk =   0.0833333
        k(    2) = (   0.0000000   0.0000000   0.1504291), wk =   0.1666667
        k(    3) = (   0.0000000   0.0000000  -0.3008582), wk =   0.0833333
        k(    4) = (   0.0000000   0.3757091   0.0000000), wk =   0.1666667
        k(    5) = (   0.0000000   0.3757091   0.1504291), wk =   0.3333333
        k(    6) = (   0.0000000   0.3757091  -0.3008582), wk =   0.1666667
        k(    7) = (  -0.4880604  -0.2817818   0.0000000), wk =   0.0833333
        k(    8) = (  -0.4880604  -0.2817818   0.1504291), wk =   0.1666667
        k(    9) = (  -0.4880604  -0.2817818  -0.3008582), wk =   0.0833333
        k(   10) = (  -0.4880604   0.0939273   0.0000000), wk =   0.1666667
        k(   11) = (  -0.4880604   0.0939273   0.1504291), wk =   0.3333333
        k(   12) = (  -0.4880604   0.0939273  -0.3008582), wk =   0.1666667

     Largest allocated arrays     est. size (Mb)     dimensions
     Largest temporary arrays     est. size (Mb)     dimensions

     Initial potential from superposition of free atoms

     Starting from uniform charge
     Starting wfc are    0 randomized atomic wfcs

     Writing output data file Prototype-La-hP12-MgZn2.save

     Self-consistent Calculation

[...]

     iteration #  7     ecut=    40.00 Ry     beta=0.70
     CG style diagonalization
     ethr =  3.67E-04,  avg # of iterations =  4.2

[...]

     total energy              =   -2351.74059383 Ry
     Harris-Foulkes estimate   =   -2351.74077081 Ry
     estimated scf accuracy    <       0.00034680 Ry

     iteration # 11     ecut=    40.00 Ry     beta=0.70
     CG style diagonalization
     c_bands:  1 eigenvalues not converged
     ethr =  1.70E-07,  avg # of iterations =  4.0

     End of self-consistent calculation

[...]

          k = 0.0000 0.3757-0.3009 (  6294 PWs)   bands (ev):

[...]

          k =-0.4881 0.0939-0.3009 (  6306 PWs)   bands (ev):

   -82.8225 -82.8225 -82.8174 -82.8174 -41.4874 -41.4874 -41.4732 -41.4732
   -41.4668 -41.4668 -41.4605 -41.4605 -41.4568 -41.4568 -41.4538 -41.4538
   -19.9144 -19.9144 -19.5929 -19.5929 -19.0741 -19.0741 -19.0316 -19.0316
    -0.4763  -0.4763   0.4181   0.4181   1.0351   1.0351   1.1267   1.1267
     1.3382   1.3382   1.5860   1.5860   2.1565   2.1565   2.6021   2.6021
     2.9003   2.9003   3.1571   3.1571   3.6573   3.6574   3.7688   3.7688
     7.3675   7.3675   7.3841   7.3841   7.4921   7.4922   7.5666   7.5666
     7.6115   7.6115   7.6540   7.6540   7.6789   7.6789   7.7007   7.7007
     7.8162   7.8162   7.8429   7.8429  17.2792  17.2792  18.1171  18.1171
    22.0935  22.0935  22.3786  22.3787  23.0694  23.0694  23.4773  23.4773
    23.7092  23.7092  24.1476  24.1476  24.7702  24.7702  24.9544  24.9544
    25.2865  25.2865  26.1032  26.1032  26.6635  26.6635  26.8415  26.8415
    27.6646  27.6646  27.9271  27.9271  28.5091  28.5091  28.5425  28.5426
    28.7937  28.7937  29.7692  29.7692  30.3596  30.3596  30.8675  30.8675
    31.6058  31.6058  31.9455  31.9456  32.2961  32.2961  32.7008  32.7008
    33.5408  33.5410

     the Fermi energy is    28.7805 ev

!    total energy              =   -2351.74069282 Ry
     Harris-Foulkes estimate   =   -2351.74069691 Ry
     estimated scf accuracy    <       0.00000541 Ry

     The total energy is the sum of the following terms:

     one-electron contribution =    -379.18875152 Ry
     hartree contribution      =     342.09962603 Ry
     xc contribution           =    -228.09957975 Ry
     ewald contribution        =   -2085.97256441 Ry
     smearing contrib. (-TS)   =      -0.57942317 Ry

     convergence has been achieved in  11 iterations

     Forces acting on atoms (Ry/au):

     atom    1 type  1   force =     0.00000000    0.00000000   -0.00052851
     atom    2 type  1   force =     0.00000000    0.00000000   -0.00052851
     atom    3 type  1   force =     0.00000000    0.00000000    0.00052851
     atom    4 type  1   force =     0.00000000    0.00000000    0.00052851
     atom    5 type  2   force =     0.00000000    0.00000000    0.00000000
     atom    6 type  2   force =     0.00000000    0.00000000    0.00000000
     atom    7 type  2   force =     0.00000000   -0.02214632    0.00000000
     atom    8 type  2   force =     0.01917927   -0.01107316    0.00000000
     atom    9 type  2   force =    -0.01917927   -0.01107316    0.00000000
     atom   10 type  2   force =     0.01917927    0.01107316    0.00000000
     atom   11 type  2   force =    -0.01917927    0.01107316    0.00000000
     atom   12 type  2   force =     0.00000000    0.02214632    0.00000000

     Total force =     0.054257     Total SCF correction =     0.000000

     entering subroutine stress ...

          total   stress  (Ry/bohr**3)                   (kbar)     P=  471.48
   0.00315827   0.00000000   0.00000000        464.60      0.00      0.00
   0.00000000   0.00315827   0.00000000          0.00    464.60      0.00
   0.00000000   0.00000000   0.00329868          0.00      0.00    485.25

     Writing output data file Prototype-La-hP12-MgZn2.save

     General routines

     Parallel routines

   This run was terminated on:  21:57:12  22Mar2018

   JOB DONE.