     Program PWSCF v.5.0.2 starts on 22Mar2018 at 21:35:35

     Current dimensions of program PWSCF are:
     Max number of different atomic species (ntypx) = 10
     Max number of k-points (npk) =  40000
     Max angular momentum in pseudopotentials (lmaxx) =  3
     Waiting for input...
     Reading input from standard input

     Subspace diagonalization in iterative solution of the eigenvalue problem:
     a serial algorithm will be used

     bravais-lattice index     =            0
     lattice parameter (alat)  =      12.0168  a.u.
     unit-cell volume          =    1187.3413 (a.u.)^3
     number of atoms/cell      =            8
     number of atomic types    =            2
     number of electrons       =       166.00
     number of Kohn-Sham states=          100
     kinetic-energy cutoff     =      40.0000  Ry
     charge density cutoff     =     160.0000  Ry
     convergence threshold     =      1.0E-04
     mixing beta               =       0.7000
     number of iterations used =            8  plain     mixing
     Exchange-correlation      = SLA-PZ-NOGX-NOGC ( 1 1 0 0 0)
     EXX-fraction              =        0.00
     nstep                     =           50

     celldm(1)=  12.016801  celldm(2)=   0.000000  celldm(3)=   0.000000
     celldm(4)=   0.000000  celldm(5)=   0.000000  celldm(6)=   0.000000

     crystal axes: (cart. coord. in units of alat)
               a(1) = (   1.000000   0.000000   0.000000 )
               a(2) = (  -0.500000   0.866025   0.000000 )
               a(3) = (   0.000000   0.000000   0.790093 )

     reciprocal axes: (cart. coord. in units 2 pi/alat)
               b(1) = (  1.000000  0.577350  0.000000 )
               b(2) = (  0.000000  1.154701  0.000000 )
               b(3) = (  0.000000  0.000000  1.265674 )

     PseudoPot. # 1 for Tm read from file:
     /home/cwx6513/pp.La/Tm.UPF
     MD5 check sum: 245516e0878b5372ceeb9443ded2c4e1
     Pseudo is Norm-conserving, Zval = 23.0
     Generated in analytical, separable form
     Using radial grid of 1269 points,  6 beta functions with:
                l(1) =   0
                l(2) =   0
                l(3) =   1
                l(4) =   1
                l(5) =   2
                l(6) =   3

     PseudoPot. # 2 for Nd read from file:
     /home/cwx6513/pp.La/Nd.UPF
     MD5 check sum: c66c5b6abe7b5840ced9b1e244e3bed6
     Pseudo is Norm-conserving, Zval = 14.0
     Generated in analytical, separable form
     Using radial grid of 1257 points,  6 beta functions with:
                l(1) =   0
                l(2) =   0
                l(3) =   1
                l(4) =   1
                l(5) =   2
                l(6) =   3

     atomic species   valence    mass     pseudopotential
        Mg            23.00    24.30500     Tm( 1.00)
        Cd            14.00   112.41100     Nd( 1.00)

     24 Sym. Ops., with inversion, found (12 have fractional translation)

   Cartesian axes

     site n.     atom                  positions (alat units)
         1           Mg  tau(   1) = (   0.2478935   0.7204716   0.1975233  )
         2           Mg  tau(   2) = (   0.7478935   0.1455538   0.5925699  )
         3           Mg  tau(   3) = (   0.2521065   0.1455538   0.5925699  )
         4           Mg  tau(   4) = (  -0.2478935   0.7204716   0.1975233  )
         5           Mg  tau(   5) = (   0.0000000   0.2911075   0.1975233  )
         6           Mg  tau(   6) = (   0.5000000   0.5749179   0.5925699  )
         7           Cd  tau(   7) = (   0.5000005   0.2886748   0.1975233  )
         8           Cd  tau(   8) = (  -0.0000005   0.5773506   0.5925699  )

     number of k points=    64  gaussian smearing, width (Ry)=  0.1000
                       cart. coord. in units 2pi/alat
        k(    1) = (   0.0000000   0.0000000   0.0000000), wk =   0.0095238
        k(    2) = (   0.0000000   0.0000000   0.1808105), wk =   0.0190476
        k(    3) = (   0.0000000   0.0000000   0.3616210), wk =   0.0190476
        k(    4) = (   0.0000000   0.0000000   0.5424315), wk =   0.0190476
        k(    5) = (   0.0000000   0.1924501   0.0000000), wk =   0.0190476
        k(    6) = (   0.0000000   0.1924501   0.1808105), wk =   0.0380952
        k(    7) = (   0.0000000   0.1924501   0.3616210), wk =   0.0380952
        k(    8) = (   0.0000000   0.1924501   0.5424315), wk =   0.0380952
        k(    9) = (   0.0000000   0.3849002   0.0000000), wk =   0.0190476
        k(   10) = (   0.0000000   0.3849002   0.1808105), wk =   0.0380952
        k(   11) = (   0.0000000   0.3849002   0.3616210), wk =   0.0380952
        k(   12) = (   0.0000000   0.3849002   0.5424315), wk =   0.0380952
        k(   13) = (   0.0000000  -0.5773503   0.0000000), wk =   0.0095238
        k(   14) = (   0.0000000  -0.5773503   0.1808105), wk =   0.0190476
        k(   15) = (   0.0000000  -0.5773503   0.3616210), wk =   0.0190476
        k(   16) = (   0.0000000  -0.5773503   0.5424315), wk =   0.0190476
        k(   17) = (   0.2000000   0.1154701   0.0000000), wk =   0.0190476
        k(   18) = (   0.2000000   0.1154701   0.1808105), wk =   0.0380952
        k(   19) = (   0.2000000   0.1154701   0.3616210), wk =   0.0380952
        k(   20) = (   0.2000000   0.1154701   0.5424315), wk =   0.0380952
        k(   21) = (   0.2000000   0.3079201   0.0000000), wk =   0.0190476
        k(   22) = (   0.2000000   0.3079201   0.1808105), wk =   0.0380952
        k(   23) = (   0.2000000   0.3079201   0.3616210), wk =   0.0380952
        k(   24) = (   0.2000000   0.3079201   0.5424315), wk =   0.0380952
        k(   25) = (   0.2000000   0.5003702   0.0000000), wk =   0.0190476
        k(   26) = (   0.2000000   0.5003702   0.1808105), wk =   0.0380952
        k(   27) = (   0.2000000   0.5003702   0.3616210), wk =   0.0380952
        k(   28) = (   0.2000000   0.5003702   0.5424315), wk =   0.0380952
        k(   29) = (   0.2000000  -0.4618802   0.0000000), wk =   0.0190476
        k(   30) = (   0.2000000  -0.4618802   0.1808105), wk =   0.0380952
        k(   31) = (   0.2000000  -0.4618802   0.3616210), wk =   0.0380952
        k(   32) = (   0.2000000  -0.4618802   0.5424315), wk =   0.0380952
        k(   33) = (   0.2000000  -0.2694301   0.0000000), wk =   0.0190476
        k(   34) = (   0.2000000  -0.2694301   0.1808105), wk =   0.0380952
        k(   35) = (   0.2000000  -0.2694301   0.3616210), wk =   0.0380952
        k(   36) = (   0.2000000  -0.2694301   0.5424315), wk =   0.0380952
        k(   37) = (   0.2000000  -0.0769800   0.0000000), wk =   0.0190476
        k(   38) = (   0.2000000  -0.0769800   0.1808105), wk =   0.0380952
        k(   39) = (   0.2000000  -0.0769800   0.3616210), wk =   0.0380952
        k(   40) = (   0.2000000  -0.0769800   0.5424315), wk =   0.0380952
        k(   41) = (   0.4000000   0.2309401   0.0000000), wk =   0.0190476
        k(   42) = (   0.4000000   0.2309401   0.1808105), wk =   0.0380952
        k(   43) = (   0.4000000   0.2309401   0.3616210), wk =   0.0380952
        k(   44) = (   0.4000000   0.2309401   0.5424315), wk =   0.0380952
        k(   45) = (   0.4000000   0.4233902   0.0000000), wk =   0.0190476
        k(   46) = (   0.4000000   0.4233902   0.1808105), wk =   0.0380952
        k(   47) = (   0.4000000   0.4233902   0.3616210), wk =   0.0380952
        k(   48) = (   0.4000000   0.4233902   0.5424315), wk =   0.0380952
        k(   49) = (   0.4000000   0.6158403   0.0000000), wk =   0.0190476
        k(   50) = (   0.4000000   0.6158403   0.1808105), wk =   0.0380952
        k(   51) = (   0.4000000   0.6158403   0.3616210), wk =   0.0380952
        k(   52) = (   0.4000000   0.6158403   0.5424315), wk =   0.0380952
        k(   53) = (   0.4000000  -0.3464102   0.0000000), wk =   0.0190476
        k(   54) = (   0.4000000  -0.3464102   0.1808105), wk =   0.0380952
        k(   55) = (   0.4000000  -0.3464102   0.3616210), wk =   0.0380952
        k(   56) = (   0.4000000  -0.3464102   0.5424315), wk =   0.0380952
        k(   57) = (   0.4000000  -0.1539601   0.0000000), wk =   0.0190476
        k(   58) = (   0.4000000  -0.1539601   0.1808105), wk =   0.0380952
        k(   59) = (   0.4000000  -0.1539601   0.3616210), wk =   0.0380952
        k(   60) = (   0.4000000  -0.1539601   0.5424315), wk =   0.0380952
        k(   61) = (   0.4000000   0.0384900   0.0000000), wk =   0.0190476
        k(   62) = (   0.4000000   0.0384900   0.1808105), wk =   0.0380952
        k(   63) = (   0.4000000   0.0384900   0.3616210), wk =   0.0380952
        k(   64) = (   0.4000000   0.0384900   0.5424315), wk =   0.0380952

     Largest allocated arrays     est. size (Mb)     dimensions
     Largest temporary arrays     est. size (Mb)     dimensions

     Initial potential from superposition of free atoms

     Starting from uniform charge
     Starting wfc are    0 randomized atomic wfcs

     Self-consistent Calculation

     iteration #  1     ecut=    40.00 Ry     beta=0.70
     CG style diagonalization
     c_bands:  1 eigenvalues not converged
     c_bands:  1 eigenvalues not converged
     c_bands:  3 eigenvalues not converged
     c_bands:  2 eigenvalues not converged
     c_bands:  2 eigenvalues not converged
     c_bands:  1 eigenvalues not converged
     c_bands:  2 eigenvalues not converged
     c_bands:  2 eigenvalues not converged
     c_bands:  1 eigenvalues not converged
     c_bands:  2 eigenvalues not converged
     c_bands:  1 eigenvalues not converged
     c_bands:  1 eigenvalues not converged
     c_bands:  2 eigenvalues not converged
     c_bands:  1 eigenvalues not converged
     c_bands:  1 eigenvalues not converged
     c_bands:  2 eigenvalues not converged
     c_bands:  1 eigenvalues not converged
     c_bands:  3 eigenvalues not converged
     c_bands:  2 eigenvalues not converged
     c_bands:  3 eigenvalues not converged
     c_bands:  2 eigenvalues not converged
     c_bands:  2 eigenvalues not converged
     c_bands:  1 eigenvalues not converged
     c_bands:  1 eigenvalues not converged
     c_bands:  1 eigenvalues not converged
     c_bands:  1 eigenvalues not converged
     c_bands:  3 eigenvalues not converged
     c_bands:  2 eigenvalues not converged
     c_bands:  1 eigenvalues not converged
     c_bands:  2 eigenvalues not converged
     c_bands:  1 eigenvalues not converged
     c_bands:  1 eigenvalues not converged
     c_bands:  1 eigenvalues not converged
     c_bands:  2 eigenvalues not converged
     c_bands:  1 eigenvalues not converged
     c_bands:  2 eigenvalues not converged
     c_bands:  3 eigenvalues not converged
     c_bands:  2 eigenvalues not converged
     c_bands:  2 eigenvalues not converged
     c_bands:  1 eigenvalues not converged
     c_bands:  1 eigenvalues not converged
     c_bands:  1 eigenvalues not converged
     c_bands:  1 eigenvalues not converged
     c_bands:  3 eigenvalues not converged
     c_bands:  3 eigenvalues not converged
     c_bands:  2 eigenvalues not converged
     c_bands:  2 eigenvalues not converged
     c_bands:  3 eigenvalues not converged
     c_bands:  1 eigenvalues not converged
     c_bands:  2 eigenvalues not converged
[...]
        k(   16) = (   0.0000000  -0.6051734   0.5610009), wk =   0.0190476
        k(   17) = (   0.2096382   0.1210347   0.0000000), wk =   0.0190476
        k(   18) = (   0.2096382   0.1210347   0.1870003), wk =   0.0380952
        k(   19) = (   0.2096382   0.1210347   0.3740006), wk =   0.0380952
        k(   20) = (   0.2096382   0.1210347   0.5610009), wk =   0.0380952
        k(   21) = (   0.2096382   0.3227592   0.0000000), wk =   0.0190476
        k(   22) = (   0.2096382   0.3227592   0.1870003), wk =   0.0380952
        k(   23) = (   0.2096382   0.3227592   0.3740006), wk =   0.0380952
        k(   24) = (   0.2096382   0.3227592   0.5610009), wk =   0.0380952
        k(   25) = (   0.2096382   0.5244836   0.0000000), wk =   0.0190476
        k(   26) = (   0.2096382   0.5244836   0.1870003), wk =   0.0380952
        k(   27) = (   0.2096382   0.5244836   0.3740006), wk =   0.0380952
        k(   28) = (   0.2096382   0.5244836   0.5610009), wk =   0.0380952
        k(   29) = (   0.2096382  -0.4841387   0.0000000), wk =   0.0190476
        k(   30) = (   0.2096382  -0.4841387   0.1870003), wk =   0.0380952
        k(   31) = (   0.2096382  -0.4841387   0.3740006), wk =   0.0380952
        k(   32) = (   0.2096382  -0.4841387   0.5610009), wk =   0.0380952
        k(   33) = (   0.2096382  -0.2824143   0.0000000), wk =   0.0190476
        k(   34) = (   0.2096382  -0.2824143   0.1870003), wk =   0.0380952
        k(   35) = (   0.2096382  -0.2824143   0.3740006), wk =   0.0380952
        k(   36) = (   0.2096382  -0.2824143   0.5610009), wk =   0.0380952
        k(   37) = (   0.2096382  -0.0806898   0.0000000), wk =   0.0190476
        k(   38) = (   0.2096382  -0.0806898   0.1870003), wk =   0.0380952
        k(   39) = (   0.2096382  -0.0806898   0.3740006), wk =   0.0380952
        k(   40) = (   0.2096382  -0.0806898   0.5610009), wk =   0.0380952
        k(   41) = (   0.4192764   0.2420694   0.0000000), wk =   0.0190476
        k(   42) = (   0.4192764   0.2420694   0.1870003), wk =   0.0380952
        k(   43) = (   0.4192764   0.2420694   0.3740006), wk =   0.0380952
        k(   44) = (   0.4192764   0.2420694   0.5610009), wk =   0.0380952
        k(   45) = (   0.4192764   0.4437938   0.0000000), wk =   0.0190476
        k(   46) = (   0.4192764   0.4437938   0.1870003), wk =   0.0380952
        k(   47) = (   0.4192764   0.4437938   0.3740006), wk =   0.0380952
        k(   48) = (   0.4192764   0.4437938   0.5610009), wk =   0.0380952
        k(   49) = (   0.4192764   0.6455183   0.0000000), wk =   0.0190476
        k(   50) = (   0.4192764   0.6455183   0.1870003), wk =   0.0380952
        k(   51) = (   0.4192764   0.6455183   0.3740006), wk =   0.0380952
        k(   52) = (   0.4192764   0.6455183   0.5610009), wk =   0.0380952
        k(   53) = (   0.4192764  -0.3631041   0.0000000), wk =   0.0190476
        k(   54) = (   0.4192764  -0.3631041   0.1870003), wk =   0.0380952
        k(   55) = (   0.4192764  -0.3631041   0.3740006), wk =   0.0380952
        k(   56) = (   0.4192764  -0.3631041   0.5610009), wk =   0.0380952
        k(   57) = (   0.4192764  -0.1613796   0.0000000), wk =   0.0190476
        k(   58) = (   0.4192764  -0.1613796   0.1870003), wk =   0.0380952
        k(   59) = (   0.4192764  -0.1613796   0.3740006), wk =   0.0380952
        k(   60) = (   0.4192764  -0.1613796   0.5610009), wk =   0.0380952
        k(   61) = (   0.4192764   0.0403449   0.0000000), wk =   0.0190476
        k(   62) = (   0.4192764   0.0403449   0.1870003), wk =   0.0380952
        k(   63) = (   0.4192764   0.0403449   0.3740006), wk =   0.0380952
        k(   64) = (   0.4192764   0.0403449   0.5610009), wk =   0.0380952

[...]

     Threshold (ethr) on eigenvalues was too large:
     Diagonalizing with lowered threshold

     CG style diagonalization
     ethr =  4.98E-08,  avg # of iterations =  3.1

[...]

     The maximum number of steps has been reached.

     End of BFGS Geometry Optimization
Begin final coordinates
     new unit-cell volume =   1044.90308 a.u.^3 (   154.83866 Ang^3 )

CELL_PARAMETERS (alat= 12.01680127)
   0.954024490   0.000000000   0.000000000
  -0.477012245   0.826209444   0.000000000
   0.000000000   0.000000000   0.763940780

ATOMIC_POSITIONS (crystal)
Mg       0.658061030   0.829030515   0.250000000
Mg       0.829030515   0.170969485   0.750000000
Mg       0.341938970   0.170969485   0.750000000
Mg       0.170969485   0.829030515   0.250000000
Mg       0.170969485   0.341938970   0.250000000
Mg       0.829030515   0.658061030   0.750000000
Cd       0.666667000   0.333333000   0.250000000
Cd       0.333333000   0.666667000   0.750000000
End final coordinates

     A final scf calculation at the relaxed structure.
     The G-vectors are recalculated for the final unit cell
     Results may differ from those at the preceding step.

     bravais-lattice index     =            0
     lattice parameter (alat)  =      12.0168  a.u.
     unit-cell volume          =    1044.9031 (a.u.)^3
     number of atoms/cell      =            8
     number of atomic types    =            2
     number of electrons       =       166.00
     number of Kohn-Sham states=          100
     kinetic-energy cutoff     =      40.0000  Ry
     charge density cutoff     =     160.0000  Ry
     convergence threshold     =      1.0E-04
     mixing beta               =       0.7000
     number of iterations used =            8  plain     mixing
     Exchange-correlation      = SLA-PZ-NOGX-NOGC ( 1 1 0 0 0)
     EXX-fraction              =        0.00

     celldm(1)=  12.016801  celldm(2)=   0.000000  celldm(3)=   0.000000
     celldm(4)=   0.000000  celldm(5)=   0.000000  celldm(6)=   0.000000

     crystal axes: (cart. coord. in units of alat)
               a(1) = (   0.954024   0.000000   0.000000 )
               a(2) = (  -0.477012   0.826209   0.000000 )
               a(3) = (   0.000000   0.000000   0.763941 )

     reciprocal axes: (cart. coord. in units 2 pi/alat)
               b(1) = (  1.048191  0.605173  0.000000 )
               b(2) = (  0.000000  1.210347  0.000000 )
               b(3) = (  0.000000  0.000000  1.309002 )

     PseudoPot. # 1 for Tm read from file:
     /home/cwx6513/pp.La/Tm.UPF
     MD5 check sum: 245516e0878b5372ceeb9443ded2c4e1
     Pseudo is Norm-conserving, Zval = 23.0
     Generated in analytical, separable form
     Using radial grid of 1269 points,  6 beta functions with:
                l(1) =   0
                l(2) =   0
                l(3) =   1
                l(4) =   1
                l(5) =   2
                l(6) =   3

     PseudoPot. # 2 for Nd read from file:
     /home/cwx6513/pp.La/Nd.UPF
     MD5 check sum: c66c5b6abe7b5840ced9b1e244e3bed6
     Pseudo is Norm-conserving, Zval = 14.0
     Generated in analytical, separable form
     Using radial grid of 1257 points,  6 beta functions with:
                l(1) =   0
                l(2) =   0
                l(3) =   1
                l(4) =   1
                l(5) =   2
                l(6) =   3

     atomic species   valence    mass     pseudopotential
        Mg            23.00    24.30500     Tm( 1.00)
        Cd            14.00   112.41100     Nd( 1.00)

     24 Sym. Ops., with inversion, found (12 have fractional translation)

   Cartesian axes

     site n.     atom                  positions (alat units)
         1           Mg  tau(   1) = (   0.2323486   0.6849528   0.1909852  )
         2           Mg  tau(   2) = (   0.7093609   0.1412566   0.5729556  )
         3           Mg  tau(   3) = (   0.2446636   0.1412566   0.5729556  )
         4           Mg  tau(   4) = (  -0.2323486   0.6849528   0.1909852  )
         5           Mg  tau(   5) = (   0.0000000   0.2825132   0.1909852  )
         6           Mg  tau(   6) = (   0.4770122   0.5436962   0.5729556  )
         7           Cd  tau(   7) = (   0.4770127   0.2754029   0.1909852  )
         8           Cd  tau(   8) = (  -0.0000005   0.5508066   0.5729556  )

     number of k points=    64  gaussian smearing, width (Ry)=  0.1000
                       cart. coord. in units 2pi/alat
        k(    1) = (   0.0000000   0.0000000   0.0000000), wk =   0.0095238
        k(    2) = (   0.0000000   0.0000000   0.1870003), wk =   0.0190476
        k(    3) = (   0.0000000   0.0000000   0.3740006), wk =   0.0190476
        k(    4) = (   0.0000000   0.0000000   0.5610009), wk =   0.0190476
        k(    5) = (   0.0000000   0.2017245   0.0000000), wk =   0.0190476
        k(    6) = (   0.0000000   0.2017245   0.1870003), wk =   0.0380952
        k(    7) = (   0.0000000   0.2017245   0.3740006), wk =   0.0380952
        k(    8) = (   0.0000000   0.2017245   0.5610009), wk =   0.0380952
        k(    9) = (   0.0000000   0.4034490   0.0000000), wk =   0.0190476
        k(   10) = (   0.0000000   0.4034490   0.1870003), wk =   0.0380952
        k(   11) = (   0.0000000   0.4034490   0.3740006), wk =   0.0380952
        k(   12) = (   0.0000000   0.4034490   0.5610009), wk =   0.0380952
        k(   13) = (   0.0000000  -0.6051734   0.0000000), wk =   0.0095238
        k(   14) = (   0.0000000  -0.6051734   0.1870003), wk =   0.0190476
        k(   15) = (   0.0000000  -0.6051734   0.3740006), wk =   0.0190476
        k(   16) = (   0.0000000  -0.6051734   0.5610009), wk =   0.0190476
        k(   17) = (   0.2096382   0.1210347   0.0000000), wk =   0.0190476
        k(   18) = (   0.2096382   0.1210347   0.1870003), wk =   0.0380952
        k(   19) = (   0.2096382   0.1210347   0.3740006), wk =   0.0380952
        k(   20) = (   0.2096382   0.1210347   0.5610009), wk =   0.0380952
        k(   21) = (   0.2096382   0.3227592   0.0000000), wk =   0.0190476
        k(   22) = (   0.2096382   0.3227592   0.1870003), wk =   0.0380952
        k(   23) = (   0.2096382   0.3227592   0.3740006), wk =   0.0380952
        k(   24) = (   0.2096382   0.3227592   0.5610009), wk =   0.0380952
        k(   25) = (   0.2096382   0.5244836   0.0000000), wk =   0.0190476
        k(   26) = (   0.2096382   0.5244836   0.1870003), wk =   0.0380952
        k(   27) = (   0.2096382   0.5244836   0.3740006), wk =   0.0380952
        k(   28) = (   0.2096382   0.5244836   0.5610009), wk =   0.0380952
        k(   29) = (   0.2096382  -0.4841387   0.0000000), wk =   0.0190476
        k(   30) = (   0.2096382  -0.4841387   0.1870003), wk =   0.0380952
        k(   31) = (   0.2096382  -0.4841387   0.3740006), wk =   0.0380952
        k(   32) = (   0.2096382  -0.4841387   0.5610009), wk =   0.0380952
        k(   33) = (   0.2096382  -0.2824143   0.0000000), wk =   0.0190476
        k(   34) = (   0.2096382  -0.2824143   0.1870003), wk =   0.0380952
        k(   35) = (   0.2096382  -0.2824143   0.3740006), wk =   0.0380952
        k(   36) = (   0.2096382  -0.2824143   0.5610009), wk =   0.0380952
        k(   37) = (   0.2096382  -0.0806898   0.0000000), wk =   0.0190476
        k(   38) = (   0.2096382  -0.0806898   0.1870003), wk =   0.0380952
        k(   39) = (   0.2096382  -0.0806898   0.3740006), wk =   0.0380952
        k(   40) = (   0.2096382  -0.0806898   0.5610009), wk =   0.0380952
        k(   41) = (   0.4192764   0.2420694   0.0000000), wk =   0.0190476
        k(   42) = (   0.4192764   0.2420694   0.1870003), wk =   0.0380952
        k(   43) = (   0.4192764   0.2420694   0.3740006), wk =   0.0380952
        k(   44) = (   0.4192764   0.2420694   0.5610009), wk =   0.0380952
        k(   45) = (   0.4192764   0.4437938   0.0000000), wk =   0.0190476
        k(   46) = (   0.4192764   0.4437938   0.1870003), wk =   0.0380952
        k(   47) = (   0.4192764   0.4437938   0.3740006), wk =   0.0380952
        k(   48) = (   0.4192764   0.4437938   0.5610009), wk =   0.0380952
        k(   49) = (   0.4192764   0.6455183   0.0000000), wk =   0.0190476
        k(   50) = (   0.4192764   0.6455183   0.1870003), wk =   0.0380952
        k(   51) = (   0.4192764   0.6455183   0.3740006), wk =   0.0380952
        k(   52) = (   0.4192764   0.6455183   0.5610009), wk =   0.0380952
        k(   53) = (   0.4192764  -0.3631041   0.0000000), wk =   0.0190476
        k(   54) = (   0.4192764  -0.3631041   0.1870003), wk =   0.0380952
        k(   55) = (   0.4192764  -0.3631041   0.3740006), wk =   0.0380952
        k(   56) = (   0.4192764  -0.3631041   0.5610009), wk =   0.0380952
        k(   57) = (   0.4192764  -0.1613796   0.0000000), wk =   0.0190476
        k(   58) = (   0.4192764  -0.1613796   0.1870003), wk =   0.0380952
        k(   59) = (   0.4192764  -0.1613796   0.3740006), wk =   0.0380952
        k(   60) = (   0.4192764  -0.1613796   0.5610009), wk =   0.0380952
        k(   61) = (   0.4192764   0.0403449   0.0000000), wk =   0.0190476
        k(   62) = (   0.4192764   0.0403449   0.1870003), wk =   0.0380952
        k(   63) = (   0.4192764   0.0403449   0.3740006), wk =   0.0380952
        k(   64) = (   0.4192764   0.0403449   0.5610009), wk =   0.0380952

     Largest allocated arrays     est. size (Mb)     dimensions
     Largest temporary arrays     est. size (Mb)     dimensions

     Initial potential from superposition of free atoms

     Starting from uniform charge
     Starting wfc are    0 randomized atomic wfcs

     Writing output data file Prototype-La-hP8-Mg3Cd.save

     Self-consistent Calculation

[...]

     iteration #  7     ecut=    40.00 Ry     beta=0.70
     CG style diagonalization
     ethr =  1.38E-03,  avg # of iterations =  4.4

[...]

     total energy              =   -2424.20505777 Ry
     Harris-Foulkes estimate   =   -2424.20510288 Ry
     estimated scf accuracy    <       0.00011842 Ry

     iteration # 12     ecut=    40.00 Ry     beta=0.70
     CG style diagonalization
     c_bands:  1 eigenvalues not converged
     ethr =  7.13E-08,  avg # of iterations =  3.5

     End of self-consistent calculation

[...]

          k = 0.4193 0.0403 0.5610 (  4469 PWs)   bands (ev):

   -82.0432 -82.0388 -82.0222 -82.0101 -82.0069 -82.0015 -40.7621 -40.7607
   -40.7372 -40.7345 -40.7271 -40.7226 -40.7100 -40.7079 -40.6908 -40.6875
   -40.6844 -40.6822 -40.6655 -40.6592 -40.6577 -40.6514 -40.6484 -40.6449
   -17.8996 -17.8985   3.2107   3.2159   3.3246   3.3309   3.3612   3.3745
     7.4790   7.5008   7.6083   7.6416   7.7269   7.7346   7.8398   7.8854
     7.8886   7.9785   8.0020   8.0212   8.1492   8.2887   8.3340   8.3621
     8.3881   8.4144   8.4380   8.4603   8.5185   8.5679   8.5860   8.5938
     8.6667   8.6921   8.8656   8.8870   8.9458   9.0123  15.9079  16.9877
    18.0827  18.5860  19.5366  19.9842  22.7637  23.3953  23.4046  23.9260
    25.3951  25.4703  26.5370  26.6698  27.1976  27.6059  28.6601  28.7156
    28.8672  28.9914  30.2130  30.4069  30.7225  30.9685  31.6030  32.7013
    32.9405  33.1692  33.3468  33.7325  34.2671  34.4273  34.6957  34.8453
    35.4037  35.5699  36.1643  36.3086

     the Fermi energy is    29.9770 ev

!    total energy              =   -2424.20508125 Ry
     Harris-Foulkes estimate   =   -2424.20508543 Ry
     estimated scf accuracy    <       0.00000473 Ry

     The total energy is the sum of the following terms:

     one-electron contribution =    -640.93407769 Ry
     hartree contribution      =     420.83188901 Ry
     xc contribution           =    -207.32112139 Ry
     ewald contribution        =   -1996.45970369 Ry
     smearing contrib. (-TS)   =      -0.32206750 Ry

     convergence has been achieved in  12 iterations

     Forces acting on atoms (Ry/au):

     atom    1 type  1   force =     0.01936127    0.01117823    0.00000000
     atom    2 type  1   force =     0.01936127   -0.01117823    0.00000000
     atom    3 type  1   force =    -0.01936127   -0.01117823    0.00000000
     atom    4 type  1   force =    -0.01936127    0.01117823    0.00000000
     atom    5 type  1   force =     0.00000000   -0.02235646    0.00000000
     atom    6 type  1   force =     0.00000000    0.02235646    0.00000000
     atom    7 type  2   force =     0.00000000    0.00000000    0.00000000
     atom    8 type  2   force =     0.00000000    0.00000000    0.00000000

     Total force =     0.054762     Total SCF correction =     0.000000

     entering subroutine stress ...

          total   stress  (Ry/bohr**3)                   (kbar)     P=  135.00
   0.00077711   0.00000000   0.00000000        114.32      0.00      0.00
   0.00000000   0.00077711   0.00000000          0.00    114.32      0.00
   0.00000000   0.00000000   0.00119883          0.00      0.00    176.35

     Writing output data file Prototype-La-hP8-Mg3Cd.save

     General routines

     Parallel routines

   This run was terminated on:  22:34:58  22Mar2018

   JOB DONE.