     Program PWSCF v.5.0.2 starts on 22Mar2018 at  0:32:16

     Current dimensions of program PWSCF are:
     Max number of different atomic species (ntypx) = 10
     Max number of k-points (npk) =  40000
     Max angular momentum in pseudopotentials (lmaxx) =  3
     Waiting for input...
     Reading input from standard input

     Subspace diagonalization in iterative solution of the eigenvalue problem:
     a serial algorithm will be used

     bravais-lattice index     =            0
     lattice parameter (alat)  =       8.8008  a.u.
     unit-cell volume          =    1116.9454 (a.u.)^3
     number of atoms/cell      =           16
     number of atomic types    =            2
     number of electrons       =       224.00
     number of Kohn-Sham states=          134
     kinetic-energy cutoff     =      40.0000  Ry
     charge density cutoff     =     160.0000  Ry
     convergence threshold     =      1.0E-04
     mixing beta               =       0.7000
     number of iterations used =            8  plain     mixing
     Exchange-correlation      = SLA-PZ-NOGX-NOGC ( 1 1 0 0 0)
     EXX-fraction              =        0.00
     nstep                     =           50

     celldm(1)=   8.800765  celldm(2)=   0.000000  celldm(3)=   0.000000
     celldm(4)=   0.000000  celldm(5)=   0.000000  celldm(6)=   0.000000

     crystal axes: (cart. coord. in units of alat)
               a(1) = (   1.000000   0.000000   0.000000 )
               a(2) = (   0.000000   1.083771   0.000000 )
               a(3) = (   0.000000   0.000000   1.511935 )

     reciprocal axes: (cart. coord. in units 2 pi/alat)
               b(1) = (  1.000000  0.000000  0.000000 )
               b(2) = (  0.000000  0.922704  0.000000 )
               b(3) = (  0.000000  0.000000  0.661404 )

     PseudoPot. # 1 for Ce read from file:
     /home/jld5415/pp.La/Ce.UPF
     MD5 check sum: 44451aa79a44a00cf2bc029dc19922f6
     Pseudo is Norm-conserving, Zval = 12.0
     Generated in analytical, separable form
     Using radial grid of 1255 points,  6 beta functions with:
                l(1) =   0
                l(2) =   0
                l(3) =   1
                l(4) =   1
                l(5) =   2
                l(6) =   3

     PseudoPot. # 2 for Dy read from file:
     /home/jld5415/pp.La/Dy.UPF
     MD5 check sum: 9597327bec62616a94a14d07f3fd9936
     Pseudo is Norm-conserving, Zval = 20.0
     Generated in analytical, separable form
     Using radial grid of 1265 points,  6 beta functions with:
                l(1) =   0
                l(2) =   0
                l(3) =   1
                l(4) =   1
                l(5) =   2
                l(6) =   3

     atomic species   valence    mass     pseudopotential
        Fe            12.00    55.84500     Ce( 1.00)
        C             20.00    12.01070     Dy( 1.00)

      8 Sym. Ops., with inversion, found ( 6 have fractional translation)

   Cartesian axes

     site n.     atom                  positions (alat units)
         1           Fe  tau(   1) = (   0.3472940   0.1827628   1.3947267  )
         2           Fe  tau(   2) = (   0.1527060   0.7246484   0.8731757  )
         3           Fe  tau(   3) = (   0.8472940   0.3591227   0.6387592  )
         4           Fe  tau(   4) = (   0.3396640   0.4879235   0.3779837  )
         5           Fe  tau(   5) = (   0.1527060   0.7246484   1.3947267  )
         6           Fe  tau(   6) = (   0.3472940   0.1827628   0.8731757  )
         7           Fe  tau(   7) = (   0.1603360   1.0298091   0.3779837  )
         8           Fe  tau(   8) = (   0.6527060   0.9010083   0.6387592  )
         9           Fe  tau(   9) = (   0.8472940   0.3591227   0.1172082  )
        10           Fe  tau(  10) = (   0.6603360   0.5958476   1.1339512  )
        11           Fe  tau(  11) = (   0.6527060   0.9010083   0.1172082  )
        12           Fe  tau(  12) = (   0.8396640   0.0539620   1.1339512  )
        13           C   tau(  13) = (   0.0000000   0.0000000   0.0000000  )
        14           C   tau(  14) = (   0.5000000   0.5418856   0.0000000  )
        15           C   tau(  15) = (   0.5000000   0.5418856   0.7559674  )
        16           C   tau(  16) = (   0.0000000   0.0000000   0.7559674  )

     number of k points=    12  gaussian smearing, width (Ry)=  0.1000
                       cart. coord. in units 2pi/alat
        k(    1) = (   0.0000000   0.0000000   0.0000000), wk =   0.0833333
        k(    2) = (   0.0000000   0.0000000   0.1653510), wk =   0.1666667
        k(    3) = (   0.0000000   0.0000000  -0.3307021), wk =   0.0833333
        k(    4) = (   0.0000000   0.3075680   0.0000000), wk =   0.1666667
        k(    5) = (   0.0000000   0.3075680   0.1653510), wk =   0.3333333
        k(    6) = (   0.0000000   0.3075680  -0.3307021), wk =   0.1666667
        k(    7) = (  -0.5000000   0.0000000   0.0000000), wk =   0.0833333
        k(    8) = (  -0.5000000   0.0000000   0.1653510), wk =   0.1666667
        k(    9) = (  -0.5000000   0.0000000  -0.3307021), wk =   0.0833333
        k(   10) = (  -0.5000000   0.3075680   0.0000000), wk =   0.1666667
        k(   11) = (  -0.5000000   0.3075680   0.1653510), wk =   0.3333333
        k(   12) = (  -0.5000000   0.3075680  -0.3307021), wk =   0.1666667

     Largest allocated arrays     est. size (Mb)     dimensions
     Largest temporary arrays     est. size (Mb)     dimensions

     Initial potential from superposition of free atoms

     Starting from uniform charge
     Starting wfc are    0 randomized atomic wfcs

     Self-consistent Calculation

     iteration #  1     ecut=    40.00 Ry     beta=0.70
     CG style diagonalization
     ethr =  1.00E-02,  avg # of iterations = 19.3

     total energy              =    -782.40107567 Ry
     Harris-Foulkes estimate   =   -2682.29097545 Ry
     estimated scf accuracy    <    2242.90786585 Ry

     iteration #  2     ecut=    40.00 Ry     beta=0.70
     CG style diagonalization
     c_bands:  5 eigenvalues not converged
     c_bands:  1 eigenvalues not converged
     c_bands:  3 eigenvalues not converged
     c_bands:  5 eigenvalues not converged
     c_bands:  2 eigenvalues not converged
     ethr =  1.00E-02,  avg # of iterations = 17.0

[...]

     End of self-consistent calculation

          k = 0.0000 0.0000 0.0000 (  4785 PWs)   bands (ev):

   -44.8804 -44.8705 -44.8251 -44.8223 -14.1364 -14.1200 -14.0935 -14.0779
   -13.7817 -13.7233 -13.6049 -13.6018 -13.5942 -13.5768 -13.3161 -13.2942
     3.1166   3.8143   4.2167   4.6018   4.6781   5.3647   6.9739   7.6429
     8.0412   8.7470   9.0638   9.1142  15.6124  15.9301  15.9532  16.3509
    16.4245  16.7605  17.0978  17.5200  18.1002  20.2406  21.1212  21.3004
    21.3408  21.3961  21.4969  21.7143  21.8196  22.1576  22.5290  23.2176
    23.5152  23.6468  23.9853  24.0881  24.3898  24.4652  24.6579  25.0389
    25.0781  25.6942  25.7422  25.8401  26.3639  26.4339  26.8945  27.4342
    27.5660  27.5816  27.7856  27.9237  27.9592  28.3970  28.6600  29.0901
    31.0579  32.1504  32.5806  32.6453  35.8325  36.7925  37.1646  37.3423
    37.4638  38.0377  38.4247  39.0965  39.1200  39.9526  40.1104  40.3133
    40.3260  41.1784  41.8496  42.2407  42.3430  42.4156  42.4799  42.7958
    42.9297  43.6616  43.7688  43.8292  44.0105  44.1546  44.4238  44.7643
    45.2860  45.3502  45.3894  45.5834  45.8320  45.8723  45.9634  46.3142
    46.6670  46.8868  46.9707  47.1962  47.7346  48.1049  48.3929  48.4955
    48.6638  48.7653  49.1749  49.2213  50.2202  50.4882  50.8847  51.2219
    51.3408  51.5053  51.6115  52.3640  52.7459  52.9163

[...]

          k =-0.5000 0.0000 0.0000 (  4798 PWs)   bands (ev):

[...]

     the Fermi energy is    47.0355 ev

!    total energy              =   -1929.88456404 Ry
     Harris-Foulkes estimate   =   -1929.88461852 Ry
     estimated scf accuracy    <       0.00006480 Ry

     The total energy is the sum of the following terms:

     one-electron contribution =     136.78011901 Ry
     hartree contribution      =     269.48029464 Ry
     xc contribution           =    -247.82038297 Ry
     ewald contribution        =   -2087.79565113 Ry
     smearing contrib. (-TS)   =      -0.52894358 Ry

     convergence has been achieved in  10 iterations

     Forces acting on atoms (Ry/au):

     atom    1 type  1   force =     0.97953438   -1.05612689   -1.32200765
     atom    2 type  1   force =    -0.97953438   -1.05612689    1.32200765
     atom    3 type  1   force =     0.97953438    1.05612689   -1.32200765
     atom    4 type  1   force =    -1.64629116   -0.59352187    0.00000000
     atom    5 type  1   force =    -0.97953438   -1.05612689   -1.32200765
     atom    6 type  1   force =     0.97953438   -1.05612689    1.32200765
     atom    7 type  1   force =     1.64629116   -0.59352187    0.00000000
     atom    8 type  1   force =    -0.97953438    1.05612689   -1.32200765
     atom    9 type  1   force =     0.97953438    1.05612689    1.32200765
     atom   10 type  1   force =     1.64629116    0.59352187    0.00000000
     atom   11 type  1   force =    -0.97953438    1.05612689    1.32200765
     atom   12 type  1   force =    -1.64629116    0.59352187    0.00000000
     atom   13 type  2   force =     0.00000000    0.00000000    0.00000000
     atom   14 type  2   force =     0.00000000    0.00000000    0.00000000
     atom   15 type  2   force =     0.00000000    0.00000000    0.00000000
     atom   16 type  2   force =     0.00000000    0.00000000    0.00000000

     Total force =     6.544535     Total SCF correction =     0.000000

     entering subroutine stress ...

          total   stress  (Ry/bohr**3)                   (kbar)     P=11123.72
   0.07808301   0.00000000   0.00000000      11486.41      0.00      0.00
   0.00000000   0.07524587   0.00000000          0.00  11069.05      0.00
   0.00000000   0.00000000   0.07352376          0.00      0.00  10815.72

     BFGS Geometry Optimization

     number of scf cycles    =   1
     number of bfgs steps    =   0

     enthalpy new            =   -1929.8845640350 Ry

     new trust radius        =       0.5000000000 bohr
     new conv_thr            =       0.0001000000 Ry

     new unit-cell volume =   1377.68988 a.u.^3 (   204.15258 Ang^3 )

CELL_PARAMETERS (alat=  8.80076499)
   1.074803866   0.000000000   0.000000000
   0.000000000   1.161895727   0.000000000
   0.000000000   0.000000000   1.618429638

ATOMIC_POSITIONS (crystal)
Fe       0.351559076   0.164392877   0.918670780
Fe       0.148440924   0.664392877   0.581329220
Fe       0.851559076   0.335607123   0.418670780
Fe       0.332495741   0.447824451   0.250000000
Fe       0.148440924   0.664392877   0.918670780
Fe       0.351559076   0.164392877   0.581329220
Fe       0.167504259   0.947824451   0.250000000
Fe       0.648440924   0.835607123   0.418670780
Fe       0.851559076   0.335607123   0.081329220
Fe       0.667504259   0.552175549   0.750000000
Fe       0.648440924   0.835607123   0.081329220
Fe       0.832495741   0.052175549   0.750000000
C        0.000000000   0.000000000   0.000000000
C        0.500000000   0.500000000   0.000000000
C        0.500000000   0.500000000   0.500000000
C        0.000000000   0.000000000   0.500000000

     Writing output data file Prototype-La-oP16-Fe3C.save
     NEW-OLD atomic charge density approx. for the potential
     NEW k-points:
        k(    1) = (   0.0000000   0.0000000   0.0000000), wk =   0.0833333
        k(    2) = (   0.0000000   0.0000000   0.1544707), wk =   0.1666667
        k(    3) = (   0.0000000   0.0000000  -0.3089415), wk =   0.0833333
        k(    4) = (   0.0000000   0.2868875   0.0000000), wk =   0.1666667
        k(    5) = (   0.0000000   0.2868875   0.1544707), wk =   0.3333333
        k(    6) = (   0.0000000   0.2868875  -0.3089415), wk =   0.1666667
        k(    7) = (  -0.4652012   0.0000000   0.0000000), wk =   0.0833333
        k(    8) = (  -0.4652012   0.0000000   0.1544707), wk =   0.1666667
        k(    9) = (  -0.4652012   0.0000000  -0.3089415), wk =   0.0833333
        k(   10) = (  -0.4652012   0.2868875   0.0000000), wk =   0.1666667
        k(   11) = (  -0.4652012   0.2868875   0.1544707), wk =   0.3333333
        k(   12) = (  -0.4652012   0.2868875  -0.3089415), wk =   0.1666667

[...]

          total   stress  (Ry/bohr**3)                   (kbar)     P= 5534.58
   0.03913451   0.00000000   0.00000000       5756.88      0.00      0.00
   0.00000000   0.03694294   0.00000000          0.00   5434.49      0.00
   0.00000000   0.00000000   0.03679251          0.00      0.00   5412.36

[...]

     enthalpy old            =   -1929.8845640350 Ry
     enthalpy new            =   -1945.3973231229 Ry

     CASE: enthalpy_new < enthalpy_old

     small trust_radius: resetting bfgs history

     new trust radius        =       7.2628269013 bohr
     new conv_thr            =       0.0001000000 Ry

[...]

          total   stress  (Ry/bohr**3)                   (kbar)     P=-1143.86
  -0.00804461   0.00000000   0.00000000      -1183.40      0.00      0.00
   0.00000000  -0.00757277   0.00000000          0.00  -1113.99      0.00
   0.00000000   0.00000000  -0.00770995          0.00      0.00  -1134.17

     number of scf cycles    =   3
     number of bfgs steps    =   2

     enthalpy old            =   -1945.3973231229 Ry
     enthalpy new            =   -1896.8620929845 Ry

     CASE: enthalpy_new > enthalpy_old

     new trust radius        =       3.8209681290 bohr

     trust_radius < trust_radius_min

     resetting bfgs history

     Message from routine bfgs:
     history already reset at previous step: stopping
     new conv_thr            =       0.0001000000 Ry

     new unit-cell volume =   1575.07850 a.u.^3 (   233.40255 Ang^3 )

[...]

ATOMIC_POSITIONS (crystal)
Fe       0.353081458   0.162766473   0.917225705
Fe       0.146918542   0.662766473   0.582774295
Fe       0.853081458   0.337233527   0.417225705
Fe       0.329901883   0.446892480   0.250000000
Fe       0.146918542   0.662766473   0.917225705
Fe       0.353081458   0.162766473   0.582774295
Fe       0.170098117   0.946892480   0.250000000
Fe       0.646918542   0.837233527   0.417225705
Fe       0.853081458   0.337233527   0.082774295
Fe       0.670098117   0.553107520   0.750000000
Fe       0.646918542   0.837233527   0.082774295
Fe       0.829901883   0.053107520   0.750000000
C        0.000000000   0.000000000   0.000000000
C        0.500000000   0.500000000   0.000000000
C        0.500000000   0.500000000   0.500000000
C        0.000000000   0.000000000   0.500000000

     Writing output data file Prototype-La-oP16-Fe3C.save
     NEW-OLD atomic charge density approx. for the potential
     NEW k-points:
        k(    1) = (   0.0000000   0.0000000   0.0000000), wk =   0.0833333
        k(    2) = (   0.0000000   0.0000000   0.1480107), wk =   0.1666667
        k(    3) = (   0.0000000   0.0000000  -0.2960215), wk =   0.0833333
        k(    4) = (   0.0000000   0.2747976   0.0000000), wk =   0.1666667
        k(    5) = (   0.0000000   0.2747976   0.1480107), wk =   0.3333333
        k(    6) = (   0.0000000   0.2747976  -0.2960215), wk =   0.1666667
        k(    7) = (  -0.4433449   0.0000000   0.0000000), wk =   0.0833333
        k(    8) = (  -0.4433449   0.0000000   0.1480107), wk =   0.1666667
        k(    9) = (  -0.4433449   0.0000000  -0.2960215), wk =   0.0833333
        k(   10) = (  -0.4433449   0.2747976   0.0000000), wk =   0.1666667
        k(   11) = (  -0.4433449   0.2747976   0.1480107), wk =   0.3333333
        k(   12) = (  -0.4433449   0.2747976  -0.2960215), wk =   0.1666667

[...]

     The maximum number of steps has been reached.

     End of BFGS Geometry Optimization
Begin final coordinates
     new unit-cell volume =   1575.07850 a.u.^3 (   233.40255 Ang^3 )

CELL_PARAMETERS (alat=  8.80076499)
   1.127790052   0.000000000   0.000000000
   0.000000000   1.213014177   0.000000000
   0.000000000   0.000000000   1.689066685

ATOMIC_POSITIONS (crystal)
Fe       0.353081458   0.162766473   0.917225705
Fe       0.146918542   0.662766473   0.582774295
Fe       0.853081458   0.337233527   0.417225705
Fe       0.329901883   0.446892480   0.250000000
Fe       0.146918542   0.662766473   0.917225705
Fe       0.353081458   0.162766473   0.582774295
Fe       0.170098117   0.946892480   0.250000000
Fe       0.646918542   0.837233527   0.417225705
Fe       0.853081458   0.337233527   0.082774295
Fe       0.670098117   0.553107520   0.750000000
Fe       0.646918542   0.837233527   0.082774295
Fe       0.829901883   0.053107520   0.750000000
C        0.000000000   0.000000000   0.000000000
C        0.500000000   0.500000000   0.000000000
C        0.500000000   0.500000000   0.500000000
C        0.000000000   0.000000000   0.500000000
End final coordinates

     A final scf calculation at the relaxed structure.
     The G-vectors are recalculated for the final unit cell
     Results may differ from those at the preceding step.

     bravais-lattice index     =            0
     lattice parameter (alat)  =       8.8008  a.u.
     unit-cell volume          =    1575.0785 (a.u.)^3
     number of atoms/cell      =           16
     number of atomic types    =            2
     number of electrons       =       224.00
     number of Kohn-Sham states=          134
     kinetic-energy cutoff     =      40.0000  Ry
     charge density cutoff     =     160.0000  Ry
     convergence threshold     =      1.0E-04
     mixing beta               =       0.7000
     number of iterations used =            8  plain     mixing
     Exchange-correlation      = SLA-PZ-NOGX-NOGC ( 1 1 0 0 0)
     EXX-fraction              =        0.00

     celldm(1)=   8.800765  celldm(2)=   0.000000  celldm(3)=   0.000000
     celldm(4)=   0.000000  celldm(5)=   0.000000  celldm(6)=   0.000000

     crystal axes: (cart. coord. in units of alat)
               a(1) = (   1.127790   0.000000   0.000000 )
               a(2) = (   0.000000   1.213014   0.000000 )
               a(3) = (   0.000000   0.000000   1.689067 )

     reciprocal axes: (cart. coord. in units 2 pi/alat)
               b(1) = (  0.886690  0.000000  0.000000 )
               b(2) = (  0.000000  0.824393  0.000000 )
               b(3) = (  0.000000  0.000000  0.592043 )

     PseudoPot. # 1 for Ce read from file:
     /home/jld5415/pp.La/Ce.UPF
     MD5 check sum: 44451aa79a44a00cf2bc029dc19922f6
     Pseudo is Norm-conserving, Zval = 12.0
     Generated in analytical, separable form
     Using radial grid of 1255 points,  6 beta functions with:
                l(1) =   0
                l(2) =   0
                l(3) =   1
                l(4) =   1
                l(5) =   2
                l(6) =   3

     PseudoPot. # 2 for Dy read from file:
     /home/jld5415/pp.La/Dy.UPF
     MD5 check sum: 9597327bec62616a94a14d07f3fd9936
     Pseudo is Norm-conserving, Zval = 20.0
     Generated in analytical, separable form
     Using radial grid of 1265 points,  6 beta functions with:
                l(1) =   0
                l(2) =   0
                l(3) =   1
                l(4) =   1
                l(5) =   2
                l(6) =   3

     atomic species   valence    mass     pseudopotential
        Fe            12.00    55.84500     Ce( 1.00)
        C             20.00    12.01070     Dy( 1.00)

      8 Sym. Ops., with inversion, found ( 6 have fractional translation)

   Cartesian axes

     site n.     atom                  positions (alat units)
         1           Fe  tau(   1) = (   0.3982018   0.1974380   1.5492554  )
         2           Fe  tau(   2) = (   0.1656933   0.8039451   0.9843446  )
         3           Fe  tau(   3) = (   0.9620968   0.4090690   0.7047220  )
         4           Fe  tau(   4) = (   0.3720601   0.5420869   0.4222667  )
         5           Fe  tau(   5) = (   0.1656933   0.8039451   1.5492554  )
         6           Fe  tau(   6) = (   0.3982018   0.1974380   0.9843446  )
         7           Fe  tau(   7) = (   0.1918350   1.1485940   0.4222667  )
         8           Fe  tau(   8) = (   0.7295883   1.0155761   0.7047220  )
         9           Fe  tau(   9) = (   0.9620968   0.4090690   0.1398113  )
        10           Fe  tau(  10) = (   0.7557300   0.6709273   1.2668000  )
        11           Fe  tau(  11) = (   0.7295883   1.0155761   0.1398113  )
        12           Fe  tau(  12) = (   0.9359551   0.0644202   1.2668000  )
        13           C   tau(  13) = (   0.0000000   0.0000000   0.0000000  )
        14           C   tau(  14) = (   0.5638950   0.6065071   0.0000000  )
        15           C   tau(  15) = (   0.5638950   0.6065071   0.8445333  )
        16           C   tau(  16) = (   0.0000000   0.0000000   0.8445333  )

     number of k points=    12  gaussian smearing, width (Ry)=  0.1000
                       cart. coord. in units 2pi/alat
        k(    1) = (   0.0000000   0.0000000   0.0000000), wk =   0.0833333
        k(    2) = (   0.0000000   0.0000000   0.1480107), wk =   0.1666667
        k(    3) = (   0.0000000   0.0000000  -0.2960215), wk =   0.0833333
        k(    4) = (   0.0000000   0.2747976   0.0000000), wk =   0.1666667
        k(    5) = (   0.0000000   0.2747976   0.1480107), wk =   0.3333333
        k(    6) = (   0.0000000   0.2747976  -0.2960215), wk =   0.1666667
        k(    7) = (  -0.4433449   0.0000000   0.0000000), wk =   0.0833333
        k(    8) = (  -0.4433449   0.0000000   0.1480107), wk =   0.1666667
        k(    9) = (  -0.4433449   0.0000000  -0.2960215), wk =   0.0833333
        k(   10) = (  -0.4433449   0.2747976   0.0000000), wk =   0.1666667
        k(   11) = (  -0.4433449   0.2747976   0.1480107), wk =   0.3333333
        k(   12) = (  -0.4433449   0.2747976  -0.2960215), wk =   0.1666667

     Largest allocated arrays     est. size (Mb)     dimensions
     Largest temporary arrays     est. size (Mb)     dimensions

     Initial potential from superposition of free atoms

     Starting from uniform charge
     Starting wfc are    0 randomized atomic wfcs

     Writing output data file Prototype-La-oP16-Fe3C.save

     Self-consistent Calculation

[...]

     iteration # 10     ecut=    40.00 Ry     beta=0.70
     CG style diagonalization
     c_bands:  1 eigenvalues not converged
     c_bands:  1 eigenvalues not converged
     c_bands:  1 eigenvalues not converged
     ethr =  1.99E-06,  avg # of iterations =  3.6

     total energy              =   -1953.49479730 Ry
     Harris-Foulkes estimate   =   -1953.49556409 Ry
     estimated scf accuracy    <       0.00126659 Ry

     iteration # 11     ecut=    40.00 Ry     beta=0.70
     CG style diagonalization
     ethr =  5.65E-07,  avg # of iterations =  4.1

     End of self-consistent calculation

[...]

          k = 0.0000 0.2748-0.2960 (  6706 PWs)   bands (ev):

[...]

          k =-0.4433 0.2748-0.2960 (  6732 PWs)   bands (ev):

   -54.8791 -54.8791 -54.8790 -54.8790 -22.7042 -22.7042 -22.7024 -22.7024
   -22.5659 -22.5659 -22.5658 -22.5658 -22.5002 -22.5002 -22.4981 -22.4981
    -6.1405  -6.1405  -6.1118  -6.1118  -5.6230  -5.6230  -5.4622  -5.4622
    -5.2959  -5.2959  -5.2052  -5.2052   7.9748   7.9748   8.0200   8.0200
     8.9673   8.9673   9.3187   9.3187   9.4167   9.4167   9.5717   9.5717
    10.7195  10.7195  10.9192  10.9192  11.1676  11.1676  11.5654  11.5654
    12.0670  12.0670  12.2333  12.2333  12.4344  12.4344  12.5973  12.5973
    13.0658  13.0658  13.3260  13.3260  13.9130  13.9130  14.1364  14.1364
    17.7824  17.7824  17.8965  17.8965  18.3265  18.3265  18.4749  18.4749
    19.5634  19.5634  19.6401  19.6401  21.8806  21.8806  21.9480  21.9480
    23.2400  23.2400  23.2474  23.2474  27.8741  27.8741  28.6803  28.6803
    29.1672  29.1672  29.4802  29.4802  29.6445  29.6445  29.9064  29.9064
    30.7937  30.7937  30.8325  30.8325  31.1259  31.1259  31.1431  31.1431
    31.7276  31.7276  31.7659  31.7659  33.0798  33.0798  33.1005  33.1005
    33.3898  33.3898  33.9580  33.9580  34.2365  34.2365  34.8448  34.8448
    35.1634  35.1634  35.6682  35.6683  35.9219  35.9220  36.2421  36.2421
    36.6877  36.6879  36.7277  36.7278  37.5461  37.5466

     the Fermi energy is    33.2450 ev

!    total energy              =   -1953.49522943 Ry
     Harris-Foulkes estimate   =   -1953.49527456 Ry
     estimated scf accuracy    <       0.00005219 Ry

     The total energy is the sum of the following terms:

     one-electron contribution =    -147.98257844 Ry
     hartree contribution      =     308.24700218 Ry
     xc contribution           =    -233.21179826 Ry
     ewald contribution        =   -1879.82743614 Ry
     smearing contrib. (-TS)   =      -0.72041877 Ry

     convergence has been achieved in  11 iterations

     Forces acting on atoms (Ry/au):

     atom    1 type  1   force =     0.42601794   -0.48379764   -0.56908512
     atom    2 type  1   force =    -0.42601794   -0.48379764    0.56908512
     atom    3 type  1   force =     0.42601794    0.48379764   -0.56908512
     atom    4 type  1   force =    -0.75050731   -0.27218955    0.00000000
     atom    5 type  1   force =    -0.42601794   -0.48379764   -0.56908512
     atom    6 type  1   force =     0.42601794   -0.48379764    0.56908512
     atom    7 type  1   force =     0.75050731   -0.27218955    0.00000000
     atom    8 type  1   force =    -0.42601794    0.48379764   -0.56908512
     atom    9 type  1   force =     0.42601794    0.48379764    0.56908512
     atom   10 type  1   force =     0.75050731    0.27218955    0.00000000
     atom   11 type  1   force =    -0.42601794    0.48379764    0.56908512
     atom   12 type  1   force =    -0.75050731    0.27218955    0.00000000
     atom   13 type  2   force =     0.00000000    0.00000000    0.00000000
     atom   14 type  2   force =     0.00000000    0.00000000    0.00000000
     atom   15 type  2   force =     0.00000000    0.00000000    0.00000000
     atom   16 type  2   force =     0.00000000    0.00000000    0.00000000

     Total force =     2.909410     Total SCF correction =     0.000000

     entering subroutine stress ...

          total   stress  (Ry/bohr**3)                   (kbar)     P= 3613.32
   0.02559058   0.00000000   0.00000000       3764.50      0.00      0.00
   0.00000000   0.02397405   0.00000000          0.00   3526.70      0.00
   0.00000000   0.00000000   0.02412386          0.00      0.00   3548.74

     Writing output data file Prototype-La-oP16-Fe3C.save

     General routines

     Parallel routines

   This run was terminated on:   1: 9:16  22Mar2018

   JOB DONE.