     Program PWSCF v.5.0.2 starts on 22Mar2018 at  0:32:15

     Current dimensions of program PWSCF are:
     Max number of different atomic species (ntypx) = 10
     Max number of k-points (npk) =  40000
     Max angular momentum in pseudopotentials (lmaxx) =  3
     Waiting for input...
     Reading input from standard input

     Subspace diagonalization in iterative solution of the eigenvalue problem:
     a serial algorithm will be used

     bravais-lattice index     =            0
     lattice parameter (alat)  =       8.5346  a.u.
     unit-cell volume          =     621.6493 (a.u.)^3
     number of atoms/cell      =            8
     number of atomic types    =            2
     number of electrons       =       112.00
     number of Kohn-Sham states=           67
     kinetic-energy cutoff     =      40.0000  Ry
     charge density cutoff     =     160.0000  Ry
     convergence threshold     =      1.0E-04
     mixing beta               =       0.7000
     number of iterations used =            8  plain     mixing
     Exchange-correlation      = SLA-PZ-NOGX-NOGC ( 1 1 0 0 0)
     EXX-fraction              =        0.00
     nstep                     =           50

     celldm(1)=   8.534573  celldm(2)=   0.000000  celldm(3)=   0.000000
     celldm(4)=   0.000000  celldm(5)=   0.000000  celldm(6)=   0.000000

     crystal axes: (cart. coord. in units of alat)
               a(1) = (   1.000000   0.000000   0.000000 )
               a(2) = (   0.000000   1.000000   0.000000 )
               a(3) = (   0.000000   0.000000   1.000000 )

     reciprocal axes: (cart. coord. in units 2 pi/alat)
               b(1) = (  1.000000  0.000000  0.000000 )
               b(2) = (  0.000000  1.000000  0.000000 )
               b(3) = (  0.000000  0.000000  1.000000 )

     PseudoPot. # 1 for Ce read from file:
     /home/jld5415/pp.La/Ce.UPF
     MD5 check sum: 44451aa79a44a00cf2bc029dc19922f6
     Pseudo is Norm-conserving, Zval = 12.0
     Generated in analytical, separable form
     Using radial grid of 1255 points,  6 beta functions with:
                l(1) =   0
                l(2) =   0
                l(3) =   1
                l(4) =   1
                l(5) =   2
                l(6) =   3

     PseudoPot. # 2 for Dy read from file:
     /home/jld5415/pp.La/Dy.UPF
     MD5 check sum: 9597327bec62616a94a14d07f3fd9936
     Pseudo is Norm-conserving, Zval = 20.0
     Generated in analytical, separable form
     Using radial grid of 1265 points,  6 beta functions with:
                l(1) =   0
                l(2) =   0
                l(3) =   1
                l(4) =   1
                l(5) =   2
                l(6) =   3

     atomic species   valence    mass     pseudopotential
        Cr            12.00    51.99610     Ce( 1.00)
        Si            20.00    28.08550     Dy( 1.00)

     48 Sym. Ops., with inversion, found (24 have fractional translation)

   Cartesian axes

     site n.     atom                  positions (alat units)
         1           Cr  tau(   1) = (   0.0000000   0.5000000   0.2500000  )
         2           Cr  tau(   2) = (   0.0000000   0.5000000   0.7500000  )
         3           Cr  tau(   3) = (   0.5000000   0.7500000   0.0000000  )
         4           Cr  tau(   4) = (   0.5000000   0.2500000   0.0000000  )
         5           Cr  tau(   5) = (   0.7500000   0.0000000   0.5000000  )
         6           Cr  tau(   6) = (   0.2500000   0.0000000   0.5000000  )
         7           Si  tau(   7) = (   0.5000000   0.5000000   0.5000000  )
         8           Si  tau(   8) = (   0.0000000   0.0000000   0.0000000  )

     number of k points=    48  gaussian smearing, width (Ry)=  0.1000
                       cart. coord. in units 2pi/alat
        k(    1) = (   0.0000000   0.0000000   0.0000000), wk =   0.0095238
        k(    2) = (   0.0000000   0.0000000   0.1428571), wk =   0.0190476
        k(    3) = (   0.0000000   0.0000000   0.2857143), wk =   0.0190476
        k(    4) = (   0.0000000   0.0000000   0.4285714), wk =   0.0190476
        k(    5) = (   0.0000000   0.1666667   0.0000000), wk =   0.0190476
        k(    6) = (   0.0000000   0.1666667   0.1428571), wk =   0.0380952
        k(    7) = (   0.0000000   0.1666667   0.2857143), wk =   0.0380952
        k(    8) = (   0.0000000   0.1666667   0.4285714), wk =   0.0380952
        k(    9) = (   0.0000000   0.3333333   0.0000000), wk =   0.0190476
        k(   10) = (   0.0000000   0.3333333   0.1428571), wk =   0.0380952
        k(   11) = (   0.0000000   0.3333333   0.2857143), wk =   0.0380952
        k(   12) = (   0.0000000   0.3333333   0.4285714), wk =   0.0380952
        k(   13) = (   0.0000000  -0.5000000   0.0000000), wk =   0.0095238
        k(   14) = (   0.0000000  -0.5000000   0.1428571), wk =   0.0190476
        k(   15) = (   0.0000000  -0.5000000   0.2857143), wk =   0.0190476
        k(   16) = (   0.0000000  -0.5000000   0.4285714), wk =   0.0190476
        k(   17) = (   0.2000000   0.0000000   0.0000000), wk =   0.0190476
        k(   18) = (   0.2000000   0.0000000   0.1428571), wk =   0.0380952
        k(   19) = (   0.2000000   0.0000000   0.2857143), wk =   0.0380952
        k(   20) = (   0.2000000   0.0000000   0.4285714), wk =   0.0380952
        k(   21) = (   0.2000000   0.1666667   0.0000000), wk =   0.0380952
        k(   22) = (   0.2000000   0.1666667   0.1428571), wk =   0.0761905
        k(   23) = (   0.2000000   0.1666667   0.2857143), wk =   0.0761905
        k(   24) = (   0.2000000   0.1666667   0.4285714), wk =   0.0761905
        k(   25) = (   0.2000000   0.3333333   0.0000000), wk =   0.0380952
        k(   26) = (   0.2000000   0.3333333   0.1428571), wk =   0.0761905
        k(   27) = (   0.2000000   0.3333333   0.2857143), wk =   0.0761905
        k(   28) = (   0.2000000   0.3333333   0.4285714), wk =   0.0761905
        k(   29) = (   0.2000000  -0.5000000   0.0000000), wk =   0.0190476
        k(   30) = (   0.2000000  -0.5000000   0.1428571), wk =   0.0380952
        k(   31) = (   0.2000000  -0.5000000   0.2857143), wk =   0.0380952
        k(   32) = (   0.2000000  -0.5000000   0.4285714), wk =   0.0380952
        k(   33) = (   0.4000000   0.0000000   0.0000000), wk =   0.0190476
        k(   34) = (   0.4000000   0.0000000   0.1428571), wk =   0.0380952
        k(   35) = (   0.4000000   0.0000000   0.2857143), wk =   0.0380952
        k(   36) = (   0.4000000   0.0000000   0.4285714), wk =   0.0380952
        k(   37) = (   0.4000000   0.1666667   0.0000000), wk =   0.0380952
        k(   38) = (   0.4000000   0.1666667   0.1428571), wk =   0.0761905
        k(   39) = (   0.4000000   0.1666667   0.2857143), wk =   0.0761905
        k(   40) = (   0.4000000   0.1666667   0.4285714), wk =   0.0761905
        k(   41) = (   0.4000000   0.3333333   0.0000000), wk =   0.0380952
        k(   42) = (   0.4000000   0.3333333   0.1428571), wk =   0.0761905
        k(   43) = (   0.4000000   0.3333333   0.2857143), wk =   0.0761905
        k(   44) = (   0.4000000   0.3333333   0.4285714), wk =   0.0761905
        k(   45) = (   0.4000000  -0.5000000   0.0000000), wk =   0.0190476
        k(   46) = (   0.4000000  -0.5000000   0.1428571), wk =   0.0380952
        k(   47) = (   0.4000000  -0.5000000   0.2857143), wk =   0.0380952
        k(   48) = (   0.4000000  -0.5000000   0.4285714), wk =   0.0380952

     Largest allocated arrays     est. size (Mb)     dimensions
     Largest temporary arrays     est. size (Mb)     dimensions

     Initial potential from superposition of free atoms

     Starting from uniform charge
     Starting wfc are    0 randomized atomic wfcs

     Self-consistent Calculation

     iteration #  1     ecut=    40.00 Ry     beta=0.70
     CG style diagonalization
     c_bands:  1 eigenvalues not converged
     ethr =  1.00E-02,  avg # of iterations = 16.6

     total energy              =    -516.89532460 Ry
     Harris-Foulkes estimate   =   -1195.45479830 Ry
     estimated scf accuracy    <     810.23724539 Ry

[...]

     iteration #  4     ecut=    40.00 Ry     beta=0.70
     CG style diagonalization
     ethr =  1.00E-02,  avg # of iterations =  4.0

[...]

     End of self-consistent calculation

          k = 0.0000 0.0000 0.0000 (  2601 PWs)   bands (ev):

   -43.7638 -43.7418 -11.1357 -11.1357 -11.1357 -11.0709 -11.0709 -11.0709
    -0.7072   1.5518   1.5518   5.2092   5.2092   5.2092  13.4126  13.4126
    14.9128  16.7422  16.7422  16.7422  19.2602  19.2602  19.2602  21.8854
    21.8854  21.8854  22.0179  22.0179  22.0179  28.7748  28.7748  28.7748
    29.0901  29.0901  30.1929  30.1929  31.1161  31.1161  31.1161  32.1158
    32.1158  32.1158  33.6010  33.9190  33.9190  33.9190  34.0317  35.3186
    38.3060  38.3060  38.3060  40.3567  40.3567  42.0262  42.7138  42.7138
    42.7138  42.9043  42.9043  45.0111  45.0112  45.0113  46.0719  46.0720
    46.0722  47.8208  48.7909

[...]

     the Fermi energy is    42.6126 ev

!    total energy              =    -977.24227687 Ry
     Harris-Foulkes estimate   =    -977.24234333 Ry
     estimated scf accuracy    <       0.00007121 Ry

     The total energy is the sum of the following terms:

     one-electron contribution =     154.51447627 Ry
     hartree contribution      =      79.20587220 Ry
     xc contribution           =    -118.86250050 Ry
     ewald contribution        =   -1091.81461178 Ry
     smearing contrib. (-TS)   =      -0.28551306 Ry

     convergence has been achieved in   9 iterations

     Forces acting on atoms (Ry/au):

     atom    1 type  1   force =     0.00000000    0.00000000    0.00000000
     atom    2 type  1   force =     0.00000000    0.00000000    0.00000000
     atom    3 type  1   force =     0.00000000    0.00000000    0.00000000
     atom    4 type  1   force =     0.00000000    0.00000000    0.00000000
     atom    5 type  1   force =     0.00000000    0.00000000    0.00000000
     atom    6 type  1   force =     0.00000000    0.00000000    0.00000000
     atom    7 type  2   force =     0.00000000    0.00000000    0.00000000
     atom    8 type  2   force =     0.00000000    0.00000000    0.00000000

     Total force =     0.000000     Total SCF correction =     0.000000

     entering subroutine stress ...

          total   stress  (Ry/bohr**3)                   (kbar)     P= 5012.10
   0.03407157   0.00000000   0.00000000       5012.10      0.00      0.00
   0.00000000   0.03407157   0.00000000          0.00   5012.10      0.00
   0.00000000   0.00000000   0.03407157          0.00      0.00   5012.10

     BFGS Geometry Optimization

     number of scf cycles    =   1
     number of bfgs steps    =   0

     enthalpy new            =    -977.2422768668 Ry

     new trust radius        =       0.5000000000 bohr
     new conv_thr            =       0.0001000000 Ry

     new unit-cell volume =    828.02266 a.u.^3 (   122.70030 Ang^3 )

CELL_PARAMETERS (alat=  8.53457320)
   1.100269143   0.000000000   0.000000000
   0.000000000   1.100269143   0.000000000
   0.000000000   0.000000000   1.100269143

ATOMIC_POSITIONS (crystal)
Cr       0.000000000   0.500000000   0.250000000
[...]

[...]

     enthalpy old            =    -977.2422768668 Ry
     enthalpy new            =    -981.3481260876 Ry

     CASE: enthalpy_new < enthalpy_old

     small trust_radius: resetting bfgs history

     new trust radius        =       1.4224891852 bohr
     new conv_thr            =       0.0000010000 Ry

[...]

          total   stress  (Ry/bohr**3)                   (kbar)     P=-1031.72
  -0.00701346   0.00000000   0.00000000      -1031.72      0.00      0.00
   0.00000000  -0.00701346   0.00000000          0.00  -1031.72      0.00
   0.00000000   0.00000000  -0.00701346          0.00      0.00  -1031.72

     number of scf cycles    =   3
     number of bfgs steps    =   2

     enthalpy old            =    -981.3481260876 Ry
     enthalpy new            =    -979.8878412638 Ry

     CASE: enthalpy_new > enthalpy_old

     new trust radius        =       0.6402730456 bohr

     trust_radius < trust_radius_min

     resetting bfgs history

     Message from routine bfgs:
     history already reset at previous step: stopping
     new conv_thr            =       0.0000010000 Ry

     new unit-cell volume =   1036.69647 a.u.^3 (   153.62257 Ang^3 )

[...]

ATOMIC_POSITIONS (crystal)
Cr       0.000000000   0.500000000   0.250000000
Cr       0.000000000   0.500000000   0.750000000
Cr       0.500000000   0.750000000   0.000000000
Cr       0.500000000   0.250000000   0.000000000
Cr       0.750000000   0.000000000   0.500000000
Cr       0.250000000   0.000000000   0.500000000
Si       0.500000000   0.500000000   0.500000000
Si       0.000000000   0.000000000   0.000000000

     Writing output data file Prototype-La-cP8-Cr3Si.save
     NEW-OLD atomic charge density approx. for the potential
     NEW k-points:
        k(    1) = (   0.0000000   0.0000000   0.0000000), wk =   0.0095238
        k(    2) = (   0.0000000   0.0000000   0.1204666), wk =   0.0190476
        k(    3) = (   0.0000000   0.0000000   0.2409331), wk =   0.0190476
        k(    4) = (   0.0000000   0.0000000   0.3613997), wk =   0.0190476
        k(    5) = (   0.0000000   0.1405443   0.0000000), wk =   0.0190476
        k(    6) = (   0.0000000   0.1405443   0.1204666), wk =   0.0380952
        k(    7) = (   0.0000000   0.1405443   0.2409331), wk =   0.0380952
        k(    8) = (   0.0000000   0.1405443   0.3613997), wk =   0.0380952
        k(    9) = (   0.0000000   0.2810887   0.0000000), wk =   0.0190476
        k(   10) = (   0.0000000   0.2810887   0.1204666), wk =   0.0380952
        k(   11) = (   0.0000000   0.2810887   0.2409331), wk =   0.0380952
        k(   12) = (   0.0000000   0.2810887   0.3613997), wk =   0.0380952
        k(   13) = (   0.0000000  -0.4216330   0.0000000), wk =   0.0095238
        k(   14) = (   0.0000000  -0.4216330   0.1204666), wk =   0.0190476
        k(   15) = (   0.0000000  -0.4216330   0.2409331), wk =   0.0190476
        k(   16) = (   0.0000000  -0.4216330   0.3613997), wk =   0.0190476
        k(   17) = (   0.1686532   0.0000000   0.0000000), wk =   0.0190476
        k(   18) = (   0.1686532   0.0000000   0.1204666), wk =   0.0380952
        k(   19) = (   0.1686532   0.0000000   0.2409331), wk =   0.0380952
        k(   20) = (   0.1686532   0.0000000   0.3613997), wk =   0.0380952
        k(   21) = (   0.1686532   0.1405443   0.0000000), wk =   0.0380952
        k(   22) = (   0.1686532   0.1405443   0.1204666), wk =   0.0761905
        k(   23) = (   0.1686532   0.1405443   0.2409331), wk =   0.0761905
        k(   24) = (   0.1686532   0.1405443   0.3613997), wk =   0.0761905
        k(   25) = (   0.1686532   0.2810887   0.0000000), wk =   0.0380952
        k(   26) = (   0.1686532   0.2810887   0.1204666), wk =   0.0761905
        k(   27) = (   0.1686532   0.2810887   0.2409331), wk =   0.0761905
        k(   28) = (   0.1686532   0.2810887   0.3613997), wk =   0.0761905
        k(   29) = (   0.1686532  -0.4216330   0.0000000), wk =   0.0190476
        k(   30) = (   0.1686532  -0.4216330   0.1204666), wk =   0.0380952
        k(   31) = (   0.1686532  -0.4216330   0.2409331), wk =   0.0380952
        k(   32) = (   0.1686532  -0.4216330   0.3613997), wk =   0.0380952
        k(   33) = (   0.3373064   0.0000000   0.0000000), wk =   0.0190476
        k(   34) = (   0.3373064   0.0000000   0.1204666), wk =   0.0380952
        k(   35) = (   0.3373064   0.0000000   0.2409331), wk =   0.0380952
        k(   36) = (   0.3373064   0.0000000   0.3613997), wk =   0.0380952
        k(   37) = (   0.3373064   0.1405443   0.0000000), wk =   0.0380952
        k(   38) = (   0.3373064   0.1405443   0.1204666), wk =   0.0761905
        k(   39) = (   0.3373064   0.1405443   0.2409331), wk =   0.0761905
        k(   40) = (   0.3373064   0.1405443   0.3613997), wk =   0.0761905
        k(   41) = (   0.3373064   0.2810887   0.0000000), wk =   0.0380952
        k(   42) = (   0.3373064   0.2810887   0.1204666), wk =   0.0761905
        k(   43) = (   0.3373064   0.2810887   0.2409331), wk =   0.0761905
        k(   44) = (   0.3373064   0.2810887   0.3613997), wk =   0.0761905
        k(   45) = (   0.3373064  -0.4216330   0.0000000), wk =   0.0190476
        k(   46) = (   0.3373064  -0.4216330   0.1204666), wk =   0.0380952
        k(   47) = (   0.3373064  -0.4216330   0.2409331), wk =   0.0380952
        k(   48) = (   0.3373064  -0.4216330   0.3613997), wk =   0.0380952

[...]

     The maximum number of steps has been reached.

     End of BFGS Geometry Optimization
Begin final coordinates
     new unit-cell volume =   1036.69647 a.u.^3 (   153.62257 Ang^3 )

CELL_PARAMETERS (alat=  8.53457320)
   1.185865405   0.000000000   0.000000000
   0.000000000   1.185865405   0.000000000
   0.000000000   0.000000000   1.185865405

ATOMIC_POSITIONS (crystal)
Cr       0.000000000   0.500000000   0.250000000
Cr       0.000000000   0.500000000   0.750000000
Cr       0.500000000   0.750000000   0.000000000
Cr       0.500000000   0.250000000   0.000000000
Cr       0.750000000   0.000000000   0.500000000
Cr       0.250000000   0.000000000   0.500000000
Si       0.500000000   0.500000000   0.500000000
Si       0.000000000   0.000000000   0.000000000
End final coordinates

     A final scf calculation at the relaxed structure.
     The G-vectors are recalculated for the final unit cell
     Results may differ from those at the preceding step.

     bravais-lattice index     =            0
     lattice parameter (alat)  =       8.5346  a.u.
     unit-cell volume          =    1036.6965 (a.u.)^3
     number of atoms/cell      =            8
     number of atomic types    =            2
     number of electrons       =       112.00
     number of Kohn-Sham states=           67
     kinetic-energy cutoff     =      40.0000  Ry
     charge density cutoff     =     160.0000  Ry
     convergence threshold     =      1.0E-06
     mixing beta               =       0.7000
     number of iterations used =            8  plain     mixing
     Exchange-correlation      = SLA-PZ-NOGX-NOGC ( 1 1 0 0 0)
     EXX-fraction              =        0.00

     celldm(1)=   8.534573  celldm(2)=   0.000000  celldm(3)=   0.000000
     celldm(4)=   0.000000  celldm(5)=   0.000000  celldm(6)=   0.000000

     crystal axes: (cart. coord. in units of alat)
               a(1) = (   1.185865   0.000000   0.000000 )
               a(2) = (   0.000000   1.185865   0.000000 )
               a(3) = (   0.000000   0.000000   1.185865 )

     reciprocal axes: (cart. coord. in units 2 pi/alat)
               b(1) = (  0.843266  0.000000  0.000000 )
               b(2) = (  0.000000  0.843266  0.000000 )
               b(3) = (  0.000000  0.000000  0.843266 )

     PseudoPot. # 1 for Ce read from file:
     /home/jld5415/pp.La/Ce.UPF
     MD5 check sum: 44451aa79a44a00cf2bc029dc19922f6
     Pseudo is Norm-conserving, Zval = 12.0
     Generated in analytical, separable form
     Using radial grid of 1255 points,  6 beta functions with:
                l(1) =   0
                l(2) =   0
                l(3) =   1
                l(4) =   1
                l(5) =   2
                l(6) =   3

     PseudoPot. # 2 for Dy read from file:
     /home/jld5415/pp.La/Dy.UPF
     MD5 check sum: 9597327bec62616a94a14d07f3fd9936
     Pseudo is Norm-conserving, Zval = 20.0
     Generated in analytical, separable form
     Using radial grid of 1265 points,  6 beta functions with:
                l(1) =   0
                l(2) =   0
                l(3) =   1
                l(4) =   1
                l(5) =   2
                l(6) =   3

     atomic species   valence    mass     pseudopotential
        Cr            12.00    51.99610     Ce( 1.00)
        Si            20.00    28.08550     Dy( 1.00)

     48 Sym. Ops., with inversion, found (24 have fractional translation)

   Cartesian axes

     site n.     atom                  positions (alat units)
         1           Cr  tau(   1) = (   0.0000000   0.5929327   0.2964664  )
         2           Cr  tau(   2) = (   0.0000000   0.5929327   0.8893991  )
         3           Cr  tau(   3) = (   0.5929327   0.8893991   0.0000000  )
         4           Cr  tau(   4) = (   0.5929327   0.2964664   0.0000000  )
         5           Cr  tau(   5) = (   0.8893991   0.0000000   0.5929327  )
         6           Cr  tau(   6) = (   0.2964664   0.0000000   0.5929327  )
         7           Si  tau(   7) = (   0.5929327   0.5929327   0.5929327  )
         8           Si  tau(   8) = (   0.0000000   0.0000000   0.0000000  )

     number of k points=    48  gaussian smearing, width (Ry)=  0.1000
                       cart. coord. in units 2pi/alat
        k(    1) = (   0.0000000   0.0000000   0.0000000), wk =   0.0095238
        k(    2) = (   0.0000000   0.0000000   0.1204666), wk =   0.0190476
        k(    3) = (   0.0000000   0.0000000   0.2409331), wk =   0.0190476
        k(    4) = (   0.0000000   0.0000000   0.3613997), wk =   0.0190476
        k(    5) = (   0.0000000   0.1405443   0.0000000), wk =   0.0190476
        k(    6) = (   0.0000000   0.1405443   0.1204666), wk =   0.0380952
        k(    7) = (   0.0000000   0.1405443   0.2409331), wk =   0.0380952
        k(    8) = (   0.0000000   0.1405443   0.3613997), wk =   0.0380952
        k(    9) = (   0.0000000   0.2810887   0.0000000), wk =   0.0190476
        k(   10) = (   0.0000000   0.2810887   0.1204666), wk =   0.0380952
        k(   11) = (   0.0000000   0.2810887   0.2409331), wk =   0.0380952
        k(   12) = (   0.0000000   0.2810887   0.3613997), wk =   0.0380952
        k(   13) = (   0.0000000  -0.4216330   0.0000000), wk =   0.0095238
        k(   14) = (   0.0000000  -0.4216330   0.1204666), wk =   0.0190476
        k(   15) = (   0.0000000  -0.4216330   0.2409331), wk =   0.0190476
        k(   16) = (   0.0000000  -0.4216330   0.3613997), wk =   0.0190476
        k(   17) = (   0.1686532   0.0000000   0.0000000), wk =   0.0190476
        k(   18) = (   0.1686532   0.0000000   0.1204666), wk =   0.0380952
        k(   19) = (   0.1686532   0.0000000   0.2409331), wk =   0.0380952
        k(   20) = (   0.1686532   0.0000000   0.3613997), wk =   0.0380952
        k(   21) = (   0.1686532   0.1405443   0.0000000), wk =   0.0380952
        k(   22) = (   0.1686532   0.1405443   0.1204666), wk =   0.0761905
        k(   23) = (   0.1686532   0.1405443   0.2409331), wk =   0.0761905
        k(   24) = (   0.1686532   0.1405443   0.3613997), wk =   0.0761905
        k(   25) = (   0.1686532   0.2810887   0.0000000), wk =   0.0380952
        k(   26) = (   0.1686532   0.2810887   0.1204666), wk =   0.0761905
        k(   27) = (   0.1686532   0.2810887   0.2409331), wk =   0.0761905
        k(   28) = (   0.1686532   0.2810887   0.3613997), wk =   0.0761905
        k(   29) = (   0.1686532  -0.4216330   0.0000000), wk =   0.0190476
        k(   30) = (   0.1686532  -0.4216330   0.1204666), wk =   0.0380952
        k(   31) = (   0.1686532  -0.4216330   0.2409331), wk =   0.0380952
        k(   32) = (   0.1686532  -0.4216330   0.3613997), wk =   0.0380952
        k(   33) = (   0.3373064   0.0000000   0.0000000), wk =   0.0190476
        k(   34) = (   0.3373064   0.0000000   0.1204666), wk =   0.0380952
        k(   35) = (   0.3373064   0.0000000   0.2409331), wk =   0.0380952
        k(   36) = (   0.3373064   0.0000000   0.3613997), wk =   0.0380952
        k(   37) = (   0.3373064   0.1405443   0.0000000), wk =   0.0380952
        k(   38) = (   0.3373064   0.1405443   0.1204666), wk =   0.0761905
        k(   39) = (   0.3373064   0.1405443   0.2409331), wk =   0.0761905
        k(   40) = (   0.3373064   0.1405443   0.3613997), wk =   0.0761905
        k(   41) = (   0.3373064   0.2810887   0.0000000), wk =   0.0380952
        k(   42) = (   0.3373064   0.2810887   0.1204666), wk =   0.0761905
        k(   43) = (   0.3373064   0.2810887   0.2409331), wk =   0.0761905
        k(   44) = (   0.3373064   0.2810887   0.3613997), wk =   0.0761905
        k(   45) = (   0.3373064  -0.4216330   0.0000000), wk =   0.0190476
        k(   46) = (   0.3373064  -0.4216330   0.1204666), wk =   0.0380952
        k(   47) = (   0.3373064  -0.4216330   0.2409331), wk =   0.0380952
        k(   48) = (   0.3373064  -0.4216330   0.3613997), wk =   0.0380952

     Largest allocated arrays     est. size (Mb)     dimensions
     Largest temporary arrays     est. size (Mb)     dimensions

     Initial potential from superposition of free atoms

     Starting from uniform charge
     Starting wfc are    0 randomized atomic wfcs

     Writing output data file Prototype-La-cP8-Cr3Si.save

     Self-consistent Calculation

[...]

     negative rho (up, down):  0.672E-05 0.000E+00

[...]

     iteration # 10     ecut=    40.00 Ry     beta=0.70
     CG style diagonalization
     c_bands:  1 eigenvalues not converged
     c_bands:  1 eigenvalues not converged
     ethr =  3.15E-06,  avg # of iterations =  3.4

[...]

     total energy              =    -983.87377481 Ry
     Harris-Foulkes estimate   =    -983.87377874 Ry
     estimated scf accuracy    <       0.00000829 Ry

     iteration # 12     ecut=    40.00 Ry     beta=0.70
     CG style diagonalization
     ethr =  7.40E-09,  avg # of iterations =  3.9

     End of self-consistent calculation

[...]

          k = 0.3373-0.4216 0.3614 (  4438 PWs)   bands (ev):

   -58.6843 -58.6841 -25.6278 -25.6277 -25.6265 -25.6264 -25.6217 -25.6217
   -13.1927 -13.1517 -13.0028 -13.0000 -12.8583 -12.8106   3.4406   3.5951
     3.6474   3.7064   4.1471   4.1579   4.5252   4.6070   5.0478   5.0900
     5.2391   5.2644   5.4582   5.4671   5.5649   5.5707   5.5744   5.6510
    15.2134  15.2146  15.2785  15.2844  15.3797  15.4335  15.4838  15.4852
    15.5036  15.5061  20.1582  20.1583  21.7271  21.7406  22.1971  22.3271
    22.4189  22.4333  23.8299  23.8423  24.0943  24.1368  24.1561  24.2243
    25.6484  25.6770  26.0353  26.0722  26.5740  26.7156  26.9967  27.1638
    28.0147  28.1217  28.5521

     the Fermi energy is    24.6124 ev

!    total energy              =    -983.87377684 Ry
     Harris-Foulkes estimate   =    -983.87377717 Ry
     estimated scf accuracy    <       0.00000042 Ry

     The total energy is the sum of the following terms:

     one-electron contribution =     -79.07193726 Ry
     hartree contribution      =     127.38390086 Ry
     xc contribution           =    -111.05242583 Ry
     ewald contribution        =    -920.69016220 Ry
     smearing contrib. (-TS)   =      -0.44315242 Ry

     convergence has been achieved in  12 iterations

     Forces acting on atoms (Ry/au):

     atom    1 type  1   force =     0.00000000    0.00000000    0.00000000
     atom    2 type  1   force =     0.00000000    0.00000000    0.00000000
     atom    3 type  1   force =     0.00000000    0.00000000    0.00000000
     atom    4 type  1   force =     0.00000000    0.00000000    0.00000000
     atom    5 type  1   force =     0.00000000    0.00000000    0.00000000
     atom    6 type  1   force =     0.00000000    0.00000000    0.00000000
     atom    7 type  2   force =     0.00000000    0.00000000    0.00000000
     atom    8 type  2   force =     0.00000000    0.00000000    0.00000000

     Total force =     0.000000     Total SCF correction =     0.000000

     entering subroutine stress ...

          total   stress  (Ry/bohr**3)                   (kbar)     P=  595.48
   0.00404800   0.00000000   0.00000000        595.48      0.00      0.00
   0.00000000   0.00404800   0.00000000          0.00    595.48      0.00
   0.00000000   0.00000000   0.00404800          0.00      0.00    595.48

     Writing output data file Prototype-La-cP8-Cr3Si.save

     General routines

     Parallel routines

   This run was terminated on:   0:56:22  22Mar2018

   JOB DONE.