     Program PWSCF v.5.0.2 starts on 22Mar2018 at  0:32:15

     Current dimensions of program PWSCF are:
     Max number of different atomic species (ntypx) = 10
     Max number of k-points (npk) =  40000
     Max angular momentum in pseudopotentials (lmaxx) =  3
     Waiting for input...
     Reading input from standard input

     Subspace diagonalization in iterative solution of the eigenvalue problem:
     a serial algorithm will be used

     bravais-lattice index     =            0
     lattice parameter (alat)  =      12.8532  a.u.
     unit-cell volume          =    1390.2597 (a.u.)^3
     number of atoms/cell      =            6
     number of atomic types    =            2
     number of electrons       =       104.00
     number of Kohn-Sham states=           62
     kinetic-energy cutoff     =      40.0000  Ry
     charge density cutoff     =     160.0000  Ry
     convergence threshold     =      1.0E-04
     mixing beta               =       0.7000
     number of iterations used =            8  plain     mixing
     Exchange-correlation      = SLA-PZ-NOGX-NOGC ( 1 1 0 0 0)
     EXX-fraction              =        0.00
     nstep                     =           50

     celldm(1)=  12.853229  celldm(2)=   0.000000  celldm(3)=   0.000000
     celldm(4)=   0.000000  celldm(5)=   0.000000  celldm(6)=   0.000000

     crystal axes: (cart. coord. in units of alat)
               a(1) = (   1.000000   0.000000   0.000000 )
               a(2) = (  -0.036574   0.999331   0.000000 )
               a(3) = (  -0.266883  -0.706777   0.655164 )

     reciprocal axes: (cart. coord. in units 2 pi/alat)
               b(1) = (  1.000000  0.036598  0.446834 )
               b(2) = (  0.000000  1.000669  1.079502 )
               b(3) = (  0.000000  0.000000  1.526336 )

     PseudoPot. # 1 for Ce read from file:
     /home/jld5415/pp.La/Ce.UPF
     MD5 check sum: 44451aa79a44a00cf2bc029dc19922f6
     Pseudo is Norm-conserving, Zval = 12.0
     Generated in analytical, separable form
     Using radial grid of 1255 points,  6 beta functions with:
                l(1) =   0
                l(2) =   0
                l(3) =   1
                l(4) =   1
                l(5) =   2
                l(6) =   3

     PseudoPot. # 2 for Dy read from file:
     /home/jld5415/pp.La/Dy.UPF
     MD5 check sum: 9597327bec62616a94a14d07f3fd9936
     Pseudo is Norm-conserving, Zval = 20.0
     Generated in analytical, separable form
     Using radial grid of 1265 points,  6 beta functions with:
                l(1) =   0
                l(2) =   0
                l(3) =   1
                l(4) =   1
                l(5) =   2
                l(6) =   3

     atomic species   valence    mass     pseudopotential
        K             12.00    39.09830     Ce( 1.00)
        Hg            20.00   200.59000     Dy( 1.00)

      2 Sym. Ops., with inversion, found

   Cartesian axes

     site n.     atom                  positions (alat units)
         1           K   tau(   1) = (  -0.0340766   0.4201429   0.4913727  )
         2           K   tau(   2) = (   0.7306201  -0.1275892   0.1637909  )
         3           Hg  tau(   3) = (   0.2308977  -0.0548727   0.3630373  )
         4           Hg  tau(   4) = (   0.4656458   0.3474265   0.2921263  )
         5           Hg  tau(   5) = (   0.5181090  -0.3317640   0.6197082  )
         6           Hg  tau(   6) = (   0.1784345   0.6243178   0.0354555  )

     number of k points=   253  gaussian smearing, width (Ry)=  0.1000

     Number of k-points >= 100: set verbosity='high' to print them.

     Largest allocated arrays     est. size (Mb)     dimensions
     Largest temporary arrays     est. size (Mb)     dimensions

     Initial potential from superposition of free atoms

     Starting from uniform charge
     Starting wfc are    0 randomized atomic wfcs

     Self-consistent Calculation

     iteration #  1     ecut=    40.00 Ry     beta=0.70
     CG style diagonalization
     c_bands:  5 eigenvalues not converged
     c_bands:  4 eigenvalues not converged
     c_bands:  5 eigenvalues not converged
     c_bands:  3 eigenvalues not converged
     c_bands:  4 eigenvalues not converged
     c_bands:  3 eigenvalues not converged
     c_bands:  5 eigenvalues not converged
     c_bands:  3 eigenvalues not converged
     c_bands:  5 eigenvalues not converged
     c_bands:  4 eigenvalues not converged
     c_bands:  4 eigenvalues not converged
     c_bands:  3 eigenvalues not converged
     c_bands:  4 eigenvalues not converged
     c_bands:  4 eigenvalues not converged
     c_bands:  5 eigenvalues not converged
     c_bands:  5 eigenvalues not converged
     c_bands:  5 eigenvalues not converged
     c_bands:  5 eigenvalues not converged
     c_bands:  5 eigenvalues not converged
     c_bands:  4 eigenvalues not converged
     c_bands:  3 eigenvalues not converged
     c_bands:  4 eigenvalues not converged
     c_bands:  4 eigenvalues not converged
     c_bands:  3 eigenvalues not converged
     c_bands:  5 eigenvalues not converged
     c_bands:  4 eigenvalues not converged
     c_bands:  4 eigenvalues not converged
     c_bands:  4 eigenvalues not converged
     c_bands:  4 eigenvalues not converged
     c_bands:  4 eigenvalues not converged
     c_bands:  5 eigenvalues not converged
     c_bands:  4 eigenvalues not converged
     c_bands:  4 eigenvalues not converged
     c_bands:  5 eigenvalues not converged
     c_bands:  5 eigenvalues not converged
     c_bands:  3 eigenvalues not converged
     c_bands:  5 eigenvalues not converged
     c_bands:  5 eigenvalues not converged
     c_bands:  2 eigenvalues not converged
     c_bands:  2 eigenvalues not converged
     c_bands:  4 eigenvalues not converged
     c_bands:  5 eigenvalues not converged
     c_bands:  5 eigenvalues not converged
     c_bands:  5 eigenvalues not converged
     c_bands:  5 eigenvalues not converged
     c_bands:  5 eigenvalues not converged
     c_bands:  3 eigenvalues not converged
     c_bands:  3 eigenvalues not converged
     c_bands:  4 eigenvalues not converged
     c_bands:  3 eigenvalues not converged
     c_bands:  5 eigenvalues not converged
     c_bands:  5 eigenvalues not converged
     c_bands:  4 eigenvalues not converged
     c_bands:  5 eigenvalues not converged
     c_bands:  3 eigenvalues not converged
     c_bands:  5 eigenvalues not converged
     c_bands:  4 eigenvalues not converged
     c_bands:  5 eigenvalues not converged
     c_bands:  3 eigenvalues not converged
     c_bands:  4 eigenvalues not converged
[...]
     c_bands:  4 eigenvalues not converged
     c_bands:  5 eigenvalues not converged
     c_bands:  2 eigenvalues not converged
     c_bands:  2 eigenvalues not converged
     c_bands:  4 eigenvalues not converged
     c_bands:  4 eigenvalues not converged
     c_bands:  5 eigenvalues not converged
     c_bands:  4 eigenvalues not converged
     c_bands:  4 eigenvalues not converged
     c_bands:  3 eigenvalues not converged
     c_bands:  4 eigenvalues not converged
     c_bands:  4 eigenvalues not converged
     c_bands:  5 eigenvalues not converged
     c_bands:  4 eigenvalues not converged
     c_bands:  5 eigenvalues not converged
     ethr =  1.00E-02,  avg # of iterations = 16.9

     total energy              =    -782.44888633 Ry
     Harris-Foulkes estimate   =   -1754.65567921 Ry
     estimated scf accuracy    <    1185.81727895 Ry

[...]

     iteration #  5     ecut=    40.00 Ry     beta=0.70
     CG style diagonalization
     ethr =  1.00E-02,  avg # of iterations =  3.8

[...]

     End of self-consistent calculation

     Number of k-points >= 100: set verbosity='high' to print the bands.

     the Fermi energy is    12.9488 ev

!    total energy              =   -1197.00370987 Ry
     Harris-Foulkes estimate   =   -1197.00376236 Ry
     estimated scf accuracy    <       0.00006223 Ry

     The total energy is the sum of the following terms:

     one-electron contribution =    -539.22665908 Ry
     hartree contribution      =     299.88295033 Ry
     xc contribution           =    -113.98762588 Ry
     ewald contribution        =    -843.29417442 Ry
     smearing contrib. (-TS)   =      -0.37820081 Ry

     convergence has been achieved in  12 iterations

     Forces acting on atoms (Ry/au):

     atom    1 type  1   force =    -0.00159417    0.00103831   -0.00121492
     atom    2 type  1   force =     0.00159417   -0.00103831    0.00121492
     atom    3 type  2   force =     0.00631821   -0.00637498    0.00504129
     atom    4 type  2   force =    -0.00631821    0.00637498   -0.00504129
     atom    5 type  2   force =    -0.00524856    0.00603045   -0.00597300
     atom    6 type  2   force =     0.00524856   -0.00603045    0.00597300

     Total force =     0.020526     Total SCF correction =     0.000000

     entering subroutine stress ...

          total   stress  (Ry/bohr**3)                   (kbar)     P= -308.92
  -0.00210822   0.00002603  -0.00003835       -310.13      3.83     -5.64
   0.00002603  -0.00210690   0.00003675          3.83   -309.94      5.41
  -0.00003835   0.00003675  -0.00208488         -5.64      5.41   -306.70

     BFGS Geometry Optimization

     number of scf cycles    =   1
     number of bfgs steps    =   0

     enthalpy new            =   -1197.0037098656 Ry

     new trust radius        =       0.3931322910 bohr
     new conv_thr            =       0.0001000000 Ry

     new unit-cell volume =   1182.58524 a.u.^3 (   175.24105 Ang^3 )

CELL_PARAMETERS (alat= 12.85322937)
   0.947294510   0.000650669  -0.000958681
  -0.033995648   0.946669990   0.000953190
  -0.253904732  -0.669121299   0.620621656

ATOMIC_POSITIONS (crystal)
K        0.200698692   0.950840799   0.749855727
K        0.799301308   0.049159201   0.250144273
Hg       0.391755671   0.336917087   0.554715659
Hg       0.608244329   0.663082913   0.445284341
Hg       0.782275178   0.336957839   0.945173699
Hg       0.217724822   0.663042161   0.054826301

     Writing output data file Prototype-La-oI12-KHg2.save
     NEW-OLD atomic charge density approx. for the potential
     NEW k-points: (use verbosity='high' to print them)

[...]

     enthalpy old            =   -1197.0037098656 Ry
     enthalpy new            =   -1197.3575071294 Ry

     CASE: enthalpy_new < enthalpy_old

     small trust_radius: resetting bfgs history

[...]

     number of scf cycles    =   3
     number of bfgs steps    =   2

     enthalpy old            =   -1197.3575071294 Ry
     enthalpy new            =   -1197.4364150981 Ry

     CASE: enthalpy_new < enthalpy_old

     Message from routine bfgs:
     history already reset at previous step: stopping
     small trust_radius: resetting bfgs history

     new trust radius        =       0.0647523549 bohr
     new conv_thr            =       0.0000276524 Ry

     new unit-cell volume =   1057.99743 a.u.^3 (   156.77904 Ang^3 )

[...]

ATOMIC_POSITIONS (crystal)
K        0.200548169   0.950562329   0.749989259
K        0.799451831   0.049437671   0.250010741
Hg       0.389575459   0.338915779   0.550592792
Hg       0.610424541   0.661084221   0.449407208
Hg       0.787568409   0.338304451   0.949186931
Hg       0.212431591   0.661695549   0.050813069

     Writing output data file Prototype-La-oI12-KHg2.save
     NEW-OLD atomic charge density approx. for the potential
     NEW k-points: (use verbosity='high' to print them)

[...]

     The maximum number of steps has been reached.

     End of BFGS Geometry Optimization
Begin final coordinates
     new unit-cell volume =   1057.99743 a.u.^3 (   156.77904 Ang^3 )

CELL_PARAMETERS (alat= 12.85322937)
   0.911656352   0.002617358  -0.005019025
  -0.030727066   0.911140945   0.005054675
  -0.248443513  -0.641977420   0.597705648

ATOMIC_POSITIONS (crystal)
K        0.200548169   0.950562329   0.749989259
K        0.799451831   0.049437671   0.250010741
Hg       0.389575459   0.338915779   0.550592792
Hg       0.610424541   0.661084221   0.449407208
Hg       0.787568409   0.338304451   0.949186931
Hg       0.212431591   0.661695549   0.050813069
End final coordinates

     A final scf calculation at the relaxed structure.
     The G-vectors are recalculated for the final unit cell
     Results may differ from those at the preceding step.

     bravais-lattice index     =            0
     lattice parameter (alat)  =      12.8532  a.u.
     unit-cell volume          =    1057.9974 (a.u.)^3
     number of atoms/cell      =            6
     number of atomic types    =            2
     number of electrons       =       104.00
     number of Kohn-Sham states=           62
     kinetic-energy cutoff     =      40.0000  Ry
     charge density cutoff     =     160.0000  Ry
     convergence threshold     =      2.8E-05
     mixing beta               =       0.7000
     number of iterations used =            8  plain     mixing
     Exchange-correlation      = SLA-PZ-NOGX-NOGC ( 1 1 0 0 0)
     EXX-fraction              =        0.00

     celldm(1)=  12.853229  celldm(2)=   0.000000  celldm(3)=   0.000000
     celldm(4)=   0.000000  celldm(5)=   0.000000  celldm(6)=   0.000000

     crystal axes: (cart. coord. in units of alat)
               a(1) = (   0.911656   0.002617  -0.005019 )
               a(2) = (  -0.030727   0.911141   0.005055 )
               a(3) = (  -0.248444  -0.641977   0.597706 )

     reciprocal axes: (cart. coord. in units 2 pi/alat)
               b(1) = (  1.099525  0.034340  0.493914 )
               b(2) = (  0.003327  1.091128  1.173330 )
               b(3) = (  0.009205 -0.008939  1.667289 )

     PseudoPot. # 1 for Ce read from file:
     /home/jld5415/pp.La/Ce.UPF
     MD5 check sum: 44451aa79a44a00cf2bc029dc19922f6
     Pseudo is Norm-conserving, Zval = 12.0
     Generated in analytical, separable form
     Using radial grid of 1255 points,  6 beta functions with:
                l(1) =   0
                l(2) =   0
                l(3) =   1
                l(4) =   1
                l(5) =   2
                l(6) =   3

     PseudoPot. # 2 for Dy read from file:
     /home/jld5415/pp.La/Dy.UPF
     MD5 check sum: 9597327bec62616a94a14d07f3fd9936
     Pseudo is Norm-conserving, Zval = 20.0
     Generated in analytical, separable form
     Using radial grid of 1265 points,  6 beta functions with:
                l(1) =   0
                l(2) =   0
                l(3) =   1
                l(4) =   1
                l(5) =   2
                l(6) =   3

     atomic species   valence    mass     pseudopotential
        K             12.00    39.09830     Ce( 1.00)
        Hg            20.00   200.59000     Dy( 1.00)

      2 Sym. Ops., with inversion, found

   Cartesian axes

     site n.     atom                  positions (alat units)
         1           K   tau(   1) = (  -0.0327069   0.3851450   0.4520710  )
         2           K   tau(   2) = (   0.6651927  -0.1133641   0.1456703  )
         3           Hg  tau(   3) = (   0.2079538  -0.0436484   0.3288502  )
         4           Hg  tau(   4) = (   0.4245319   0.3154293   0.2688911  )
         5           Hg  tau(   5) = (   0.4717773  -0.2990522   0.5650916  )
         6           Hg  tau(   6) = (   0.1607085   0.5708331   0.0326497  )

     number of k points=   253  gaussian smearing, width (Ry)=  0.1000

     Number of k-points >= 100: set verbosity='high' to print them.

     Largest allocated arrays     est. size (Mb)     dimensions
     Largest temporary arrays     est. size (Mb)     dimensions

     Initial potential from superposition of free atoms

     Starting from uniform charge
     Starting wfc are    0 randomized atomic wfcs

     Writing output data file Prototype-La-oI12-KHg2.save

     Self-consistent Calculation

[...]

     iteration # 11     ecut=    40.00 Ry     beta=0.70
     CG style diagonalization
     c_bands:  1 eigenvalues not converged
     c_bands:  1 eigenvalues not converged
     ethr =  3.05E-06,  avg # of iterations =  3.7

[...]

     total energy              =   -1196.98944343 Ry
     Harris-Foulkes estimate   =   -1196.98945776 Ry
     estimated scf accuracy    <       0.00004240 Ry

     iteration # 13     ecut=    40.00 Ry     beta=0.70
     CG style diagonalization
     ethr =  4.08E-08,  avg # of iterations =  3.0

     End of self-consistent calculation

     Number of k-points >= 100: set verbosity='high' to print the bands.

     the Fermi energy is    18.2577 ev

!    total energy              =   -1196.98943577 Ry
     Harris-Foulkes estimate   =   -1196.98944598 Ry
     estimated scf accuracy    <       0.00001144 Ry

     The total energy is the sum of the following terms:

     one-electron contribution =    -408.64860212 Ry
     hartree contribution      =     253.69142126 Ry
     xc contribution           =    -115.15368932 Ry
     ewald contribution        =    -926.58813007 Ry
     smearing contrib. (-TS)   =      -0.29043552 Ry

     convergence has been achieved in  13 iterations

     Forces acting on atoms (Ry/au):

     atom    1 type  1   force =     0.00146800    0.00336588   -0.00080608
     atom    2 type  1   force =    -0.00146800   -0.00336588    0.00080608
     atom    3 type  2   force =    -0.00871089    0.00602130   -0.00652158
     atom    4 type  2   force =     0.00871089   -0.00602130    0.00652158
     atom    5 type  2   force =     0.00965224   -0.00649159    0.00756474
     atom    6 type  2   force =    -0.00965224    0.00649159   -0.00756474

     Total force =     0.026882     Total SCF correction =     0.000000

     entering subroutine stress ...

          total   stress  (Ry/bohr**3)                   (kbar)     P= -195.40
  -0.00135142   0.00011490  -0.00012626       -198.80     16.90    -18.57
   0.00011490  -0.00133343   0.00011811         16.90   -196.15     17.37
  -0.00012626   0.00011811  -0.00130011        -18.57     17.37   -191.25

     Writing output data file Prototype-La-oI12-KHg2.save

     General routines

     Parallel routines

   This run was terminated on:   4: 0:19  22Mar2018

   JOB DONE.