     Program PWSCF v.5.0.2 starts on 22Mar2018 at  0:32:15

     Current dimensions of program PWSCF are:
     Max number of different atomic species (ntypx) = 10
     Max number of k-points (npk) =  40000
     Max angular momentum in pseudopotentials (lmaxx) =  3
     Waiting for input...
     Reading input from standard input

     Subspace diagonalization in iterative solution of the eigenvalue problem:
     a serial algorithm will be used

     bravais-lattice index     =            0
     lattice parameter (alat)  =      12.0168  a.u.
     unit-cell volume          =    1187.3413 (a.u.)^3
     number of atoms/cell      =            8
     number of atomic types    =            2
     number of electrons       =       112.00
     number of Kohn-Sham states=           67
     kinetic-energy cutoff     =      40.0000  Ry
     charge density cutoff     =     160.0000  Ry
     convergence threshold     =      1.0E-04
     mixing beta               =       0.7000
     number of iterations used =            8  plain     mixing
     Exchange-correlation      = SLA-PZ-NOGX-NOGC ( 1 1 0 0 0)
     EXX-fraction              =        0.00
     nstep                     =           50

     celldm(1)=  12.016801  celldm(2)=   0.000000  celldm(3)=   0.000000
     celldm(4)=   0.000000  celldm(5)=   0.000000  celldm(6)=   0.000000

     crystal axes: (cart. coord. in units of alat)
               a(1) = (   1.000000   0.000000   0.000000 )
               a(2) = (  -0.500000   0.866025   0.000000 )
               a(3) = (   0.000000   0.000000   0.790093 )

     reciprocal axes: (cart. coord. in units 2 pi/alat)
               b(1) = (  1.000000  0.577350  0.000000 )
               b(2) = (  0.000000  1.154701  0.000000 )
               b(3) = (  0.000000  0.000000  1.265674 )

     PseudoPot. # 1 for Ce read from file:
     /home/jld5415/pp.La/Ce.UPF
     MD5 check sum: 44451aa79a44a00cf2bc029dc19922f6
     Pseudo is Norm-conserving, Zval = 12.0
     Generated in analytical, separable form
     Using radial grid of 1255 points,  6 beta functions with:
                l(1) =   0
                l(2) =   0
                l(3) =   1
                l(4) =   1
                l(5) =   2
                l(6) =   3

     PseudoPot. # 2 for Dy read from file:
     /home/jld5415/pp.La/Dy.UPF
     MD5 check sum: 9597327bec62616a94a14d07f3fd9936
     Pseudo is Norm-conserving, Zval = 20.0
     Generated in analytical, separable form
     Using radial grid of 1265 points,  6 beta functions with:
                l(1) =   0
                l(2) =   0
                l(3) =   1
                l(4) =   1
                l(5) =   2
                l(6) =   3

     atomic species   valence    mass     pseudopotential
        Mg            12.00    24.30500     Ce( 1.00)
        Cd            20.00   112.41100     Dy( 1.00)

     24 Sym. Ops., with inversion, found (12 have fractional translation)

   Cartesian axes

     site n.     atom                  positions (alat units)
         1           Mg  tau(   1) = (   0.2478935   0.7204716   0.1975233  )
         2           Mg  tau(   2) = (   0.7478935   0.1455538   0.5925699  )
         3           Mg  tau(   3) = (   0.2521065   0.1455538   0.5925699  )
         4           Mg  tau(   4) = (  -0.2478935   0.7204716   0.1975233  )
         5           Mg  tau(   5) = (   0.0000000   0.2911075   0.1975233  )
         6           Mg  tau(   6) = (   0.5000000   0.5749179   0.5925699  )
         7           Cd  tau(   7) = (   0.5000005   0.2886748   0.1975233  )
         8           Cd  tau(   8) = (  -0.0000005   0.5773506   0.5925699  )

     number of k points=    64  gaussian smearing, width (Ry)=  0.1000
                       cart. coord. in units 2pi/alat
        k(    1) = (   0.0000000   0.0000000   0.0000000), wk =   0.0095238
        k(    2) = (   0.0000000   0.0000000   0.1808105), wk =   0.0190476
        k(    3) = (   0.0000000   0.0000000   0.3616210), wk =   0.0190476
        k(    4) = (   0.0000000   0.0000000   0.5424315), wk =   0.0190476
        k(    5) = (   0.0000000   0.1924501   0.0000000), wk =   0.0190476
        k(    6) = (   0.0000000   0.1924501   0.1808105), wk =   0.0380952
        k(    7) = (   0.0000000   0.1924501   0.3616210), wk =   0.0380952
        k(    8) = (   0.0000000   0.1924501   0.5424315), wk =   0.0380952
        k(    9) = (   0.0000000   0.3849002   0.0000000), wk =   0.0190476
        k(   10) = (   0.0000000   0.3849002   0.1808105), wk =   0.0380952
        k(   11) = (   0.0000000   0.3849002   0.3616210), wk =   0.0380952
        k(   12) = (   0.0000000   0.3849002   0.5424315), wk =   0.0380952
        k(   13) = (   0.0000000  -0.5773503   0.0000000), wk =   0.0095238
        k(   14) = (   0.0000000  -0.5773503   0.1808105), wk =   0.0190476
        k(   15) = (   0.0000000  -0.5773503   0.3616210), wk =   0.0190476
        k(   16) = (   0.0000000  -0.5773503   0.5424315), wk =   0.0190476
        k(   17) = (   0.2000000   0.1154701   0.0000000), wk =   0.0190476
        k(   18) = (   0.2000000   0.1154701   0.1808105), wk =   0.0380952
        k(   19) = (   0.2000000   0.1154701   0.3616210), wk =   0.0380952
        k(   20) = (   0.2000000   0.1154701   0.5424315), wk =   0.0380952
        k(   21) = (   0.2000000   0.3079201   0.0000000), wk =   0.0190476
        k(   22) = (   0.2000000   0.3079201   0.1808105), wk =   0.0380952
        k(   23) = (   0.2000000   0.3079201   0.3616210), wk =   0.0380952
        k(   24) = (   0.2000000   0.3079201   0.5424315), wk =   0.0380952
        k(   25) = (   0.2000000   0.5003702   0.0000000), wk =   0.0190476
        k(   26) = (   0.2000000   0.5003702   0.1808105), wk =   0.0380952
        k(   27) = (   0.2000000   0.5003702   0.3616210), wk =   0.0380952
        k(   28) = (   0.2000000   0.5003702   0.5424315), wk =   0.0380952
        k(   29) = (   0.2000000  -0.4618802   0.0000000), wk =   0.0190476
        k(   30) = (   0.2000000  -0.4618802   0.1808105), wk =   0.0380952
        k(   31) = (   0.2000000  -0.4618802   0.3616210), wk =   0.0380952
        k(   32) = (   0.2000000  -0.4618802   0.5424315), wk =   0.0380952
        k(   33) = (   0.2000000  -0.2694301   0.0000000), wk =   0.0190476
        k(   34) = (   0.2000000  -0.2694301   0.1808105), wk =   0.0380952
        k(   35) = (   0.2000000  -0.2694301   0.3616210), wk =   0.0380952
        k(   36) = (   0.2000000  -0.2694301   0.5424315), wk =   0.0380952
        k(   37) = (   0.2000000  -0.0769800   0.0000000), wk =   0.0190476
        k(   38) = (   0.2000000  -0.0769800   0.1808105), wk =   0.0380952
        k(   39) = (   0.2000000  -0.0769800   0.3616210), wk =   0.0380952
        k(   40) = (   0.2000000  -0.0769800   0.5424315), wk =   0.0380952
        k(   41) = (   0.4000000   0.2309401   0.0000000), wk =   0.0190476
        k(   42) = (   0.4000000   0.2309401   0.1808105), wk =   0.0380952
        k(   43) = (   0.4000000   0.2309401   0.3616210), wk =   0.0380952
        k(   44) = (   0.4000000   0.2309401   0.5424315), wk =   0.0380952
        k(   45) = (   0.4000000   0.4233902   0.0000000), wk =   0.0190476
        k(   46) = (   0.4000000   0.4233902   0.1808105), wk =   0.0380952
        k(   47) = (   0.4000000   0.4233902   0.3616210), wk =   0.0380952
        k(   48) = (   0.4000000   0.4233902   0.5424315), wk =   0.0380952
        k(   49) = (   0.4000000   0.6158403   0.0000000), wk =   0.0190476
        k(   50) = (   0.4000000   0.6158403   0.1808105), wk =   0.0380952
        k(   51) = (   0.4000000   0.6158403   0.3616210), wk =   0.0380952
        k(   52) = (   0.4000000   0.6158403   0.5424315), wk =   0.0380952
        k(   53) = (   0.4000000  -0.3464102   0.0000000), wk =   0.0190476
        k(   54) = (   0.4000000  -0.3464102   0.1808105), wk =   0.0380952
        k(   55) = (   0.4000000  -0.3464102   0.3616210), wk =   0.0380952
        k(   56) = (   0.4000000  -0.3464102   0.5424315), wk =   0.0380952
        k(   57) = (   0.4000000  -0.1539601   0.0000000), wk =   0.0190476
        k(   58) = (   0.4000000  -0.1539601   0.1808105), wk =   0.0380952
        k(   59) = (   0.4000000  -0.1539601   0.3616210), wk =   0.0380952
        k(   60) = (   0.4000000  -0.1539601   0.5424315), wk =   0.0380952
        k(   61) = (   0.4000000   0.0384900   0.0000000), wk =   0.0190476
        k(   62) = (   0.4000000   0.0384900   0.1808105), wk =   0.0380952
        k(   63) = (   0.4000000   0.0384900   0.3616210), wk =   0.0380952
        k(   64) = (   0.4000000   0.0384900   0.5424315), wk =   0.0380952

     Largest allocated arrays     est. size (Mb)     dimensions
     Largest temporary arrays     est. size (Mb)     dimensions

     Initial potential from superposition of free atoms

     Starting from uniform charge
     Starting wfc are    0 randomized atomic wfcs

     Self-consistent Calculation

     iteration #  1     ecut=    40.00 Ry     beta=0.70
     CG style diagonalization
     c_bands:  1 eigenvalues not converged
     c_bands:  2 eigenvalues not converged
     c_bands:  1 eigenvalues not converged
     c_bands:  1 eigenvalues not converged
     c_bands:  1 eigenvalues not converged
     c_bands:  1 eigenvalues not converged
     c_bands:  2 eigenvalues not converged
     c_bands:  1 eigenvalues not converged
     c_bands:  1 eigenvalues not converged
     c_bands:  1 eigenvalues not converged
     ethr =  1.00E-02,  avg # of iterations = 12.5

     total energy              =    -356.68376091 Ry
     Harris-Foulkes estimate   =   -1356.28567084 Ry
     estimated scf accuracy    <    1190.15526534 Ry

[...]

     iteration #  4     ecut=    40.00 Ry     beta=0.70
     CG style diagonalization
     ethr =  1.00E-02,  avg # of iterations =  5.8

[...]

     End of self-consistent calculation

          k = 0.0000 0.0000 0.0000 (  5047 PWs)   bands (ev):

   -61.5757 -61.5733 -28.5023 -28.4964 -28.4620 -28.4620 -28.4565 -28.4565
   -16.9425 -16.4186 -16.4185 -16.3449 -16.1254 -16.1254  -0.2546  -0.0027
     0.4404   0.7644   0.7645   0.9509   0.9510   1.0309   1.0309   1.7620
     2.1922   2.1923   2.6599   2.6807   2.6808   2.7016   2.7017   2.7918
    12.3030  12.3030  12.4263  12.5678  12.6069  12.6069  12.6604  12.6604
    12.9250  12.9250  14.8104  15.3462  17.0143  18.2192  19.2375  19.2690
    19.2691  19.6196  19.6196  20.4702  20.4703  20.6259  21.0616  21.4084
    21.4084  22.1200  22.1200  22.6227  22.6227  22.7533  24.1995  24.7753
    24.7753  25.2692  25.2696

[...]

     the Fermi energy is    21.1796 ev

!    total energy              =    -984.50371580 Ry
     Harris-Foulkes estimate   =    -984.50375050 Ry
     estimated scf accuracy    <       0.00003674 Ry

     The total energy is the sum of the following terms:

     one-electron contribution =    -137.73356014 Ry
     hartree contribution      =     142.90626887 Ry
     xc contribution           =    -109.52018469 Ry
     ewald contribution        =    -879.66535945 Ry
     smearing contrib. (-TS)   =      -0.49088039 Ry

     convergence has been achieved in  11 iterations

     Forces acting on atoms (Ry/au):

[...]
        k(    9) = (   0.0000000   0.3752726   0.0000000), wk =   0.0190476
        k(   10) = (   0.0000000   0.3752726   0.1738522), wk =   0.0380952
        k(   11) = (   0.0000000   0.3752726   0.3477043), wk =   0.0380952
        k(   12) = (   0.0000000   0.3752726   0.5215565), wk =   0.0380952
        k(   13) = (   0.0000000  -0.5629090   0.0000000), wk =   0.0095238
        k(   14) = (   0.0000000  -0.5629090   0.1738522), wk =   0.0190476
        k(   15) = (   0.0000000  -0.5629090   0.3477043), wk =   0.0190476
        k(   16) = (   0.0000000  -0.5629090   0.5215565), wk =   0.0190476
        k(   17) = (   0.1949974   0.1125818   0.0000000), wk =   0.0190476
        k(   18) = (   0.1949974   0.1125818   0.1738522), wk =   0.0380952
        k(   19) = (   0.1949974   0.1125818   0.3477043), wk =   0.0380952
        k(   20) = (   0.1949974   0.1125818   0.5215565), wk =   0.0380952
        k(   21) = (   0.1949974   0.3002181   0.0000000), wk =   0.0190476
        k(   22) = (   0.1949974   0.3002181   0.1738522), wk =   0.0380952
        k(   23) = (   0.1949974   0.3002181   0.3477043), wk =   0.0380952
        k(   24) = (   0.1949974   0.3002181   0.5215565), wk =   0.0380952
        k(   25) = (   0.1949974   0.4878544   0.0000000), wk =   0.0190476
        k(   26) = (   0.1949974   0.4878544   0.1738522), wk =   0.0380952
        k(   27) = (   0.1949974   0.4878544   0.3477043), wk =   0.0380952
        k(   28) = (   0.1949974   0.4878544   0.5215565), wk =   0.0380952
        k(   29) = (   0.1949974  -0.4503272   0.0000000), wk =   0.0190476
        k(   30) = (   0.1949974  -0.4503272   0.1738522), wk =   0.0380952
        k(   31) = (   0.1949974  -0.4503272   0.3477043), wk =   0.0380952
        k(   32) = (   0.1949974  -0.4503272   0.5215565), wk =   0.0380952
        k(   33) = (   0.1949974  -0.2626908   0.0000000), wk =   0.0190476
        k(   34) = (   0.1949974  -0.2626908   0.1738522), wk =   0.0380952
        k(   35) = (   0.1949974  -0.2626908   0.3477043), wk =   0.0380952
        k(   36) = (   0.1949974  -0.2626908   0.5215565), wk =   0.0380952
        k(   37) = (   0.1949974  -0.0750545   0.0000000), wk =   0.0190476
        k(   38) = (   0.1949974  -0.0750545   0.1738522), wk =   0.0380952
        k(   39) = (   0.1949974  -0.0750545   0.3477043), wk =   0.0380952
        k(   40) = (   0.1949974  -0.0750545   0.5215565), wk =   0.0380952
        k(   41) = (   0.3899948   0.2251636   0.0000000), wk =   0.0190476
        k(   42) = (   0.3899948   0.2251636   0.1738522), wk =   0.0380952
        k(   43) = (   0.3899948   0.2251636   0.3477043), wk =   0.0380952
        k(   44) = (   0.3899948   0.2251636   0.5215565), wk =   0.0380952
        k(   45) = (   0.3899948   0.4127999   0.0000000), wk =   0.0190476
        k(   46) = (   0.3899948   0.4127999   0.1738522), wk =   0.0380952
        k(   47) = (   0.3899948   0.4127999   0.3477043), wk =   0.0380952
        k(   48) = (   0.3899948   0.4127999   0.5215565), wk =   0.0380952
        k(   49) = (   0.3899948   0.6004362   0.0000000), wk =   0.0190476
        k(   50) = (   0.3899948   0.6004362   0.1738522), wk =   0.0380952
        k(   51) = (   0.3899948   0.6004362   0.3477043), wk =   0.0380952
        k(   52) = (   0.3899948   0.6004362   0.5215565), wk =   0.0380952
        k(   53) = (   0.3899948  -0.3377454   0.0000000), wk =   0.0190476
        k(   54) = (   0.3899948  -0.3377454   0.1738522), wk =   0.0380952
        k(   55) = (   0.3899948  -0.3377454   0.3477043), wk =   0.0380952
        k(   56) = (   0.3899948  -0.3377454   0.5215565), wk =   0.0380952
        k(   57) = (   0.3899948  -0.1501091   0.0000000), wk =   0.0190476
        k(   58) = (   0.3899948  -0.1501091   0.1738522), wk =   0.0380952
        k(   59) = (   0.3899948  -0.1501091   0.3477043), wk =   0.0380952
        k(   60) = (   0.3899948  -0.1501091   0.5215565), wk =   0.0380952
        k(   61) = (   0.3899948   0.0375273   0.0000000), wk =   0.0190476
        k(   62) = (   0.3899948   0.0375273   0.1738522), wk =   0.0380952
        k(   63) = (   0.3899948   0.0375273   0.3477043), wk =   0.0380952
        k(   64) = (   0.3899948   0.0375273   0.5215565), wk =   0.0380952

[...]

     The maximum number of steps has been reached.

     End of BFGS Geometry Optimization
Begin final coordinates
     new unit-cell volume =   1299.03705 a.u.^3 (   192.49743 Ang^3 )

CELL_PARAMETERS (alat= 12.01680127)
   1.025654789   0.000000000   0.000000000
  -0.512827394   0.888243103   0.000000000
   0.000000000   0.000000000   0.821716192

ATOMIC_POSITIONS (crystal)
Mg       0.666701169   0.833350584   0.250000000
Mg       0.833350584   0.166649416   0.750000000
Mg       0.333298831   0.166649416   0.750000000
Mg       0.166649416   0.833350584   0.250000000
Mg       0.166649416   0.333298831   0.250000000
Mg       0.833350584   0.666701169   0.750000000
Cd       0.666667000   0.333333000   0.250000000
Cd       0.333333000   0.666667000   0.750000000
End final coordinates

     A final scf calculation at the relaxed structure.
     The G-vectors are recalculated for the final unit cell
     Results may differ from those at the preceding step.

     bravais-lattice index     =            0
     lattice parameter (alat)  =      12.0168  a.u.
     unit-cell volume          =    1299.0370 (a.u.)^3
     number of atoms/cell      =            8
     number of atomic types    =            2
     number of electrons       =       112.00
     number of Kohn-Sham states=           67
     kinetic-energy cutoff     =      40.0000  Ry
     charge density cutoff     =     160.0000  Ry
     convergence threshold     =      5.7E-06
     mixing beta               =       0.7000
     number of iterations used =            8  plain     mixing
     Exchange-correlation      = SLA-PZ-NOGX-NOGC ( 1 1 0 0 0)
     EXX-fraction              =        0.00

     celldm(1)=  12.016801  celldm(2)=   0.000000  celldm(3)=   0.000000
     celldm(4)=   0.000000  celldm(5)=   0.000000  celldm(6)=   0.000000

     crystal axes: (cart. coord. in units of alat)
               a(1) = (   1.025655   0.000000   0.000000 )
               a(2) = (  -0.512827   0.888243   0.000000 )
               a(3) = (   0.000000   0.000000   0.821716 )

     reciprocal axes: (cart. coord. in units 2 pi/alat)
               b(1) = (  0.974987  0.562909  0.000000 )
               b(2) = (  0.000000  1.125818  0.000000 )
               b(3) = (  0.000000  0.000000  1.216965 )

     PseudoPot. # 1 for Ce read from file:
     /home/jld5415/pp.La/Ce.UPF
     MD5 check sum: 44451aa79a44a00cf2bc029dc19922f6
     Pseudo is Norm-conserving, Zval = 12.0
     Generated in analytical, separable form
     Using radial grid of 1255 points,  6 beta functions with:
                l(1) =   0
                l(2) =   0
                l(3) =   1
                l(4) =   1
                l(5) =   2
                l(6) =   3

     PseudoPot. # 2 for Dy read from file:
     /home/jld5415/pp.La/Dy.UPF
     MD5 check sum: 9597327bec62616a94a14d07f3fd9936
     Pseudo is Norm-conserving, Zval = 20.0
     Generated in analytical, separable form
     Using radial grid of 1265 points,  6 beta functions with:
                l(1) =   0
                l(2) =   0
                l(3) =   1
                l(4) =   1
                l(5) =   2
                l(6) =   3

     atomic species   valence    mass     pseudopotential
        Mg            12.00    24.30500     Ce( 1.00)
        Cd            20.00   112.41100     Dy( 1.00)

     24 Sym. Ops., with inversion, found (12 have fractional translation)

   Cartesian axes

     site n.     atom                  positions (alat units)
         1           Mg  tau(   1) = (   0.2564402   0.7402179   0.2054290  )
         2           Mg  tau(   2) = (   0.7692676   0.1480252   0.6162871  )
         3           Mg  tau(   3) = (   0.2563872   0.1480252   0.6162871  )
         4           Mg  tau(   4) = (  -0.2564402   0.7402179   0.2054290  )
         5           Mg  tau(   5) = (   0.0000000   0.2960504   0.2054290  )
         6           Mg  tau(   6) = (   0.5128274   0.5921927   0.6162871  )
         7           Cd  tau(   7) = (   0.5128279   0.2960807   0.2054290  )
         8           Cd  tau(   8) = (  -0.0000005   0.5921624   0.6162871  )

     number of k points=    64  gaussian smearing, width (Ry)=  0.1000
                       cart. coord. in units 2pi/alat
        k(    1) = (   0.0000000   0.0000000   0.0000000), wk =   0.0095238
        k(    2) = (   0.0000000   0.0000000   0.1738522), wk =   0.0190476
        k(    3) = (   0.0000000   0.0000000   0.3477043), wk =   0.0190476
        k(    4) = (   0.0000000   0.0000000   0.5215565), wk =   0.0190476
        k(    5) = (   0.0000000   0.1876363   0.0000000), wk =   0.0190476
        k(    6) = (   0.0000000   0.1876363   0.1738522), wk =   0.0380952
        k(    7) = (   0.0000000   0.1876363   0.3477043), wk =   0.0380952
        k(    8) = (   0.0000000   0.1876363   0.5215565), wk =   0.0380952
        k(    9) = (   0.0000000   0.3752726   0.0000000), wk =   0.0190476
        k(   10) = (   0.0000000   0.3752726   0.1738522), wk =   0.0380952
        k(   11) = (   0.0000000   0.3752726   0.3477043), wk =   0.0380952
        k(   12) = (   0.0000000   0.3752726   0.5215565), wk =   0.0380952
        k(   13) = (   0.0000000  -0.5629090   0.0000000), wk =   0.0095238
        k(   14) = (   0.0000000  -0.5629090   0.1738522), wk =   0.0190476
        k(   15) = (   0.0000000  -0.5629090   0.3477043), wk =   0.0190476
        k(   16) = (   0.0000000  -0.5629090   0.5215565), wk =   0.0190476
        k(   17) = (   0.1949974   0.1125818   0.0000000), wk =   0.0190476
        k(   18) = (   0.1949974   0.1125818   0.1738522), wk =   0.0380952
        k(   19) = (   0.1949974   0.1125818   0.3477043), wk =   0.0380952
        k(   20) = (   0.1949974   0.1125818   0.5215565), wk =   0.0380952
        k(   21) = (   0.1949974   0.3002181   0.0000000), wk =   0.0190476
        k(   22) = (   0.1949974   0.3002181   0.1738522), wk =   0.0380952
        k(   23) = (   0.1949974   0.3002181   0.3477043), wk =   0.0380952
        k(   24) = (   0.1949974   0.3002181   0.5215565), wk =   0.0380952
        k(   25) = (   0.1949974   0.4878544   0.0000000), wk =   0.0190476
        k(   26) = (   0.1949974   0.4878544   0.1738522), wk =   0.0380952
        k(   27) = (   0.1949974   0.4878544   0.3477043), wk =   0.0380952
        k(   28) = (   0.1949974   0.4878544   0.5215565), wk =   0.0380952
        k(   29) = (   0.1949974  -0.4503272   0.0000000), wk =   0.0190476
        k(   30) = (   0.1949974  -0.4503272   0.1738522), wk =   0.0380952
        k(   31) = (   0.1949974  -0.4503272   0.3477043), wk =   0.0380952
        k(   32) = (   0.1949974  -0.4503272   0.5215565), wk =   0.0380952
        k(   33) = (   0.1949974  -0.2626908   0.0000000), wk =   0.0190476
        k(   34) = (   0.1949974  -0.2626908   0.1738522), wk =   0.0380952
        k(   35) = (   0.1949974  -0.2626908   0.3477043), wk =   0.0380952
        k(   36) = (   0.1949974  -0.2626908   0.5215565), wk =   0.0380952
        k(   37) = (   0.1949974  -0.0750545   0.0000000), wk =   0.0190476
        k(   38) = (   0.1949974  -0.0750545   0.1738522), wk =   0.0380952
        k(   39) = (   0.1949974  -0.0750545   0.3477043), wk =   0.0380952
        k(   40) = (   0.1949974  -0.0750545   0.5215565), wk =   0.0380952
        k(   41) = (   0.3899948   0.2251636   0.0000000), wk =   0.0190476
        k(   42) = (   0.3899948   0.2251636   0.1738522), wk =   0.0380952
        k(   43) = (   0.3899948   0.2251636   0.3477043), wk =   0.0380952
        k(   44) = (   0.3899948   0.2251636   0.5215565), wk =   0.0380952
        k(   45) = (   0.3899948   0.4127999   0.0000000), wk =   0.0190476
        k(   46) = (   0.3899948   0.4127999   0.1738522), wk =   0.0380952
        k(   47) = (   0.3899948   0.4127999   0.3477043), wk =   0.0380952
        k(   48) = (   0.3899948   0.4127999   0.5215565), wk =   0.0380952
        k(   49) = (   0.3899948   0.6004362   0.0000000), wk =   0.0190476
        k(   50) = (   0.3899948   0.6004362   0.1738522), wk =   0.0380952
        k(   51) = (   0.3899948   0.6004362   0.3477043), wk =   0.0380952
        k(   52) = (   0.3899948   0.6004362   0.5215565), wk =   0.0380952
        k(   53) = (   0.3899948  -0.3377454   0.0000000), wk =   0.0190476
        k(   54) = (   0.3899948  -0.3377454   0.1738522), wk =   0.0380952
        k(   55) = (   0.3899948  -0.3377454   0.3477043), wk =   0.0380952
        k(   56) = (   0.3899948  -0.3377454   0.5215565), wk =   0.0380952
        k(   57) = (   0.3899948  -0.1501091   0.0000000), wk =   0.0190476
        k(   58) = (   0.3899948  -0.1501091   0.1738522), wk =   0.0380952
        k(   59) = (   0.3899948  -0.1501091   0.3477043), wk =   0.0380952
        k(   60) = (   0.3899948  -0.1501091   0.5215565), wk =   0.0380952
        k(   61) = (   0.3899948   0.0375273   0.0000000), wk =   0.0190476
        k(   62) = (   0.3899948   0.0375273   0.1738522), wk =   0.0380952
        k(   63) = (   0.3899948   0.0375273   0.3477043), wk =   0.0380952
        k(   64) = (   0.3899948   0.0375273   0.5215565), wk =   0.0380952

     Largest allocated arrays     est. size (Mb)     dimensions
     Largest temporary arrays     est. size (Mb)     dimensions

     Initial potential from superposition of free atoms

     Starting from uniform charge
     Starting wfc are    0 randomized atomic wfcs

     Writing output data file Prototype-La-hP8-Mg3Cd.save

     Self-consistent Calculation

[...]

     iteration # 11     ecut=    40.00 Ry     beta=0.70
     CG style diagonalization
     c_bands:  1 eigenvalues not converged
     ethr =  1.47E-07,  avg # of iterations =  3.6

     total energy              =    -984.72610333 Ry
     Harris-Foulkes estimate   =    -984.72611162 Ry
     estimated scf accuracy    <       0.00002049 Ry

     iteration # 12     ecut=    40.00 Ry     beta=0.70
     CG style diagonalization
     ethr =  1.83E-08,  avg # of iterations =  4.3

     End of self-consistent calculation

[...]

          k = 0.3900 0.0375 0.5216 (  5558 PWs)   bands (ev):

   -63.3331 -63.3310 -30.2245 -30.2201 -30.2101 -30.2083 -30.2034 -30.2019
   -18.6861 -18.6050 -18.5174 -18.4742 -18.4358 -18.4057  -1.5834  -1.5456
    -1.4527  -1.4223  -1.2320  -1.1799  -0.6733  -0.5320  -0.3510  -0.3242
    -0.1429  -0.0207   0.0696   0.1147   0.1884   0.2907   0.3571   0.3808
    10.9262  10.9419  10.9545  10.9908  11.0214  11.0359  11.0796  11.1024
    11.1659  11.2027  14.1064  14.2170  16.5018  16.7150  17.0138  17.1214
    17.5601  17.7607  17.7884  17.9623  18.2890  18.3483  18.6686  18.8614
    19.1516  19.2096  19.6644  19.6950  20.3632  20.4345  20.4761  21.4567
    21.6368  21.8805  22.5220

     the Fermi energy is    19.1078 ev

!    total energy              =    -984.72610962 Ry
     Harris-Foulkes estimate   =    -984.72611153 Ry
     estimated scf accuracy    <       0.00000216 Ry

     The total energy is the sum of the following terms:

     one-electron contribution =    -173.16668292 Ry
     hartree contribution      =     152.17476457 Ry
     xc contribution           =    -108.67768872 Ry
     ewald contribution        =    -854.51487421 Ry
     smearing contrib. (-TS)   =      -0.54162834 Ry

     convergence has been achieved in  12 iterations

     Forces acting on atoms (Ry/au):

     atom    1 type  1   force =    -0.00375747   -0.00216937    0.00000000
     atom    2 type  1   force =    -0.00375747    0.00216937    0.00000000
     atom    3 type  1   force =     0.00375747    0.00216937    0.00000000
     atom    4 type  1   force =     0.00375747   -0.00216937    0.00000000
     atom    5 type  1   force =     0.00000000    0.00433875    0.00000000
     atom    6 type  1   force =     0.00000000   -0.00433875    0.00000000
     atom    7 type  2   force =     0.00000000    0.00000000    0.00000000
     atom    8 type  2   force =     0.00000000    0.00000000    0.00000000

     Total force =     0.010628     Total SCF correction =     0.000000

     entering subroutine stress ...

          total   stress  (Ry/bohr**3)                   (kbar)     P=   46.65
   0.00027054   0.00000000   0.00000000         39.80      0.00      0.00
   0.00000000   0.00027054   0.00000000          0.00     39.80      0.00
   0.00000000   0.00000000   0.00041022          0.00      0.00     60.35

     Writing output data file Prototype-La-hP8-Mg3Cd.save

     General routines

     Parallel routines

   This run was terminated on:   1:50:14  22Mar2018

   JOB DONE.