     Program PWSCF v.5.0.2 starts on 22Mar2018 at  0:32:15

     Current dimensions of program PWSCF are:
     Max number of different atomic species (ntypx) = 10
     Max number of k-points (npk) =  40000
     Max angular momentum in pseudopotentials (lmaxx) =  3
     Waiting for input...
     Reading input from standard input

     Subspace diagonalization in iterative solution of the eigenvalue problem:
     a serial algorithm will be used

     bravais-lattice index     =            0
     lattice parameter (alat)  =       9.9235  a.u.
     unit-cell volume          =    1361.0366 (a.u.)^3
     number of atoms/cell      =           12
     number of atomic types    =            2
     number of electrons       =       208.00
     number of Kohn-Sham states=          125
     kinetic-energy cutoff     =      40.0000  Ry
     charge density cutoff     =     160.0000  Ry
     convergence threshold     =      1.0E-04
     mixing beta               =       0.7000
     number of iterations used =            8  plain     mixing
     Exchange-correlation      = SLA-PZ-NOGX-NOGC ( 1 1 0 0 0)
     EXX-fraction              =        0.00
     nstep                     =           50

     celldm(1)=   9.923489  celldm(2)=   0.000000  celldm(3)=   0.000000
     celldm(4)=   0.000000  celldm(5)=   0.000000  celldm(6)=   0.000000

     crystal axes: (cart. coord. in units of alat)
               a(1) = (   1.000000   0.000000   0.000000 )
               a(2) = (  -0.500000   0.866025   0.000000 )
               a(3) = (   0.000000   0.000000   1.608222 )

     reciprocal axes: (cart. coord. in units 2 pi/alat)
               b(1) = (  1.000000  0.577350  0.000000 )
               b(2) = (  0.000000  1.154701  0.000000 )
               b(3) = (  0.000000  0.000000  0.621805 )

     PseudoPot. # 1 for Ce read from file:
     /home/jld5415/pp.La/Ce.UPF
     MD5 check sum: 44451aa79a44a00cf2bc029dc19922f6
     Pseudo is Norm-conserving, Zval = 12.0
     Generated in analytical, separable form
     Using radial grid of 1255 points,  6 beta functions with:
                l(1) =   0
                l(2) =   0
                l(3) =   1
                l(4) =   1
                l(5) =   2
                l(6) =   3

     PseudoPot. # 2 for Dy read from file:
     /home/jld5415/pp.La/Dy.UPF
     MD5 check sum: 9597327bec62616a94a14d07f3fd9936
     Pseudo is Norm-conserving, Zval = 20.0
     Generated in analytical, separable form
     Using radial grid of 1265 points,  6 beta functions with:
                l(1) =   0
                l(2) =   0
                l(3) =   1
                l(4) =   1
                l(5) =   2
                l(6) =   3

     atomic species   valence    mass     pseudopotential
        Mg            12.00    24.30500     Ce( 1.00)
        Zn            20.00    65.39000     Dy( 1.00)

     24 Sym. Ops., with inversion, found (12 have fractional translation)

   Cartesian axes

     site n.     atom                  positions (alat units)
         1           Mg  tau(   1) = (  -0.0000005   0.5773506   0.1003820  )
         2           Mg  tau(   2) = (   0.5000005   0.2886748   0.9044931  )
         3           Mg  tau(   3) = (   0.5000005   0.2886748   1.5078402  )
         4           Mg  tau(   4) = (  -0.0000005   0.5773506   0.7037291  )
         5           Zn  tau(   5) = (   0.0000000   0.0000000   0.0000000  )
         6           Zn  tau(   6) = (   0.0000000   0.0000000   0.8041111  )
         7           Zn  tau(   7) = (   0.0000000   0.2950739   1.2061667  )
         8           Zn  tau(   8) = (   0.7444585   0.1475370   0.4020556  )
         9           Zn  tau(   9) = (   0.2555415   0.1475370   0.4020556  )
        10           Zn  tau(  10) = (   0.2444585   0.7184884   1.2061667  )
        11           Zn  tau(  11) = (  -0.2444585   0.7184884   1.2061667  )
        12           Zn  tau(  12) = (   0.5000000   0.5709515   0.4020556  )

     number of k points=    12  gaussian smearing, width (Ry)=  0.1000
                       cart. coord. in units 2pi/alat
        k(    1) = (   0.0000000   0.0000000   0.0000000), wk =   0.0833333
        k(    2) = (   0.0000000   0.0000000   0.1554512), wk =   0.1666667
        k(    3) = (   0.0000000   0.0000000  -0.3109023), wk =   0.0833333
        k(    4) = (   0.0000000   0.3849002   0.0000000), wk =   0.1666667
        k(    5) = (   0.0000000   0.3849002   0.1554512), wk =   0.3333333
        k(    6) = (   0.0000000   0.3849002  -0.3109023), wk =   0.1666667
        k(    7) = (  -0.5000000  -0.2886751   0.0000000), wk =   0.0833333
        k(    8) = (  -0.5000000  -0.2886751   0.1554512), wk =   0.1666667
        k(    9) = (  -0.5000000  -0.2886751  -0.3109023), wk =   0.0833333
        k(   10) = (  -0.5000000   0.0962250   0.0000000), wk =   0.1666667
        k(   11) = (  -0.5000000   0.0962250   0.1554512), wk =   0.3333333
        k(   12) = (  -0.5000000   0.0962250  -0.3109023), wk =   0.1666667

     Largest allocated arrays     est. size (Mb)     dimensions
     Largest temporary arrays     est. size (Mb)     dimensions

     Initial potential from superposition of free atoms

     Starting from uniform charge
     Starting wfc are    0 randomized atomic wfcs

     Self-consistent Calculation

     iteration #  1     ecut=    40.00 Ry     beta=0.70
     CG style diagonalization
     c_bands:  1 eigenvalues not converged
     c_bands:  2 eigenvalues not converged
     c_bands:  1 eigenvalues not converged
     c_bands:  2 eigenvalues not converged
     c_bands:  1 eigenvalues not converged
     ethr =  1.00E-02,  avg # of iterations = 20.7

     total energy              =   -1649.61238329 Ry
     Harris-Foulkes estimate   =   -3227.59208593 Ry
     estimated scf accuracy    <    1908.49044108 Ry

     iteration #  2     ecut=    40.00 Ry     beta=0.70
     CG style diagonalization
     ethr =  1.00E-02,  avg # of iterations = 18.8

[...]

     End of self-consistent calculation

          k = 0.0000 0.0000 0.0000 (  5769 PWs)   bands (ev):

   -53.8749 -53.8130 -53.7631 -53.6733 -53.6499 -53.6499 -53.6442 -53.6442
   -22.0780 -21.8269 -21.5072 -21.1136 -21.1136 -21.0530 -21.0530 -20.9969
   -20.9969 -20.8324 -20.7991 -20.6358 -20.6358 -20.6313 -20.6313 -20.3241
   -20.2858 -20.2858 -20.2836 -20.2836 -20.2527 -20.2410 -20.2320 -20.2320
    -7.2207  -7.0673  -6.8542  -6.7077   9.9151   9.9571  10.0111  10.0111
    10.0273  10.0273  11.0736  11.1203  11.1573  11.1574  11.2498  11.2498
    14.6712  15.3824  16.0058  16.8397  16.8397  17.1924  17.1924  17.6601
    17.7280  17.7280  18.0017  18.0017  18.9419  19.0006  19.1817  19.1817
    19.8654  19.9395  19.9395  20.6981  20.7315  20.7315  20.8207  20.8577
    20.8577  21.6652  21.7111  21.7111  21.7659  21.7659  21.7807  21.8311
    21.8311  21.9462  21.9462  22.7461  23.2204  23.2204  23.8933  23.8933
    24.1635  24.9239  24.9265  26.5378  27.1668  27.1668  27.4023  27.4023
    27.5362  28.2689  28.4577  28.4577  29.0979  29.0979  29.8846  29.8846
    30.6991  30.6991  31.8597  32.0533  33.5272  34.3708  34.3708  34.5207
    34.5208  35.8108  35.8108  35.8559  35.8559  36.0168  36.0169  36.1473
    36.1965  36.6592  36.6916  37.1030  37.2180

[...]

          k =-0.5000-0.2887 0.0000 (  5800 PWs)   bands (ev):

[...]

     the Fermi energy is    30.6958 ev

!    total energy              =   -2390.85644019 Ry
     Harris-Foulkes estimate   =   -2390.85646246 Ry
     estimated scf accuracy    <       0.00002768 Ry

     The total energy is the sum of the following terms:

     one-electron contribution =    -408.04159260 Ry
     hartree contribution      =     389.38820621 Ry
     xc contribution           =    -236.86487028 Ry
     ewald contribution        =   -2134.93132450 Ry
     smearing contrib. (-TS)   =      -0.40685903 Ry

     convergence has been achieved in  11 iterations

     Forces acting on atoms (Ry/au):

     atom    1 type  1   force =     0.00000000    0.00000000    0.00308881
     atom    2 type  1   force =     0.00000000    0.00000000    0.00308881
     atom    3 type  1   force =     0.00000000    0.00000000   -0.00308881
     atom    4 type  1   force =     0.00000000    0.00000000   -0.00308881
     atom    5 type  2   force =     0.00000000    0.00000000    0.00000000
     atom    6 type  2   force =     0.00000000    0.00000000    0.00000000
     atom    7 type  2   force =     0.00000000    0.07873656    0.00000000
     atom    8 type  2   force =    -0.06818786    0.03936828    0.00000000
     atom    9 type  2   force =     0.06818786    0.03936828    0.00000000
     atom   10 type  2   force =    -0.06818786   -0.03936828    0.00000000
     atom   11 type  2   force =     0.06818786   -0.03936828    0.00000000
     atom   12 type  2   force =     0.00000000   -0.07873656    0.00000000

     Total force =     0.192963     Total SCF correction =     0.000000

     entering subroutine stress ...

          total   stress  (Ry/bohr**3)                   (kbar)     P= 1130.19
   0.00773491   0.00000000   0.00000000       1137.84      0.00      0.00
   0.00000000   0.00773491   0.00000000          0.00   1137.84      0.00
   0.00000000   0.00000000   0.00757887          0.00      0.00   1114.89

     BFGS Geometry Optimization

     number of scf cycles    =   1
     number of bfgs steps    =   0

     enthalpy new            =   -2390.8564401903 Ry

     new trust radius        =       0.5000000000 bohr
     new conv_thr            =       0.0001000000 Ry

     new unit-cell volume =   1654.78061 a.u.^3 (   245.21318 Ang^3 )

CELL_PARAMETERS (alat=  9.92348860)
   1.067764947   0.000000000   0.000000000
  -0.533882474   0.924711570   0.000000000
   0.000000000   0.000000000   1.715004832

ATOMIC_POSITIONS (crystal)
Mg       0.333333000   0.666667000   0.062485825
Mg       0.666667000   0.333333000   0.562485825
Mg       0.666667000   0.333333000   0.937514175
Mg       0.333333000   0.666667000   0.437514175
Zn       0.000000000   0.000000000   0.000000000
Zn       0.000000000   0.000000000   0.500000000
Zn       0.171966319   0.343932638   0.750000000
Zn       0.828033681   0.171966319   0.250000000
Zn       0.343932638   0.171966319   0.250000000
Zn       0.656067362   0.828033681   0.750000000
Zn       0.171966319   0.828033681   0.750000000
Zn       0.828033681   0.656067362   0.250000000

     Writing output data file Prototype-La-hP12-MgZn2.save
     NEW-OLD atomic charge density approx. for the potential
     NEW k-points:
        k(    1) = (   0.0000000   0.0000000   0.0000000), wk =   0.0833333
        k(    2) = (   0.0000000   0.0000000   0.1457722), wk =   0.1666667
        k(    3) = (   0.0000000   0.0000000  -0.2915444), wk =   0.0833333
        k(    4) = (   0.0000000   0.3604728   0.0000000), wk =   0.1666667
        k(    5) = (   0.0000000   0.3604728   0.1457722), wk =   0.3333333
        k(    6) = (   0.0000000   0.3604728  -0.2915444), wk =   0.1666667
        k(    7) = (  -0.4682679  -0.2703546   0.0000000), wk =   0.0833333
        k(    8) = (  -0.4682679  -0.2703546   0.1457722), wk =   0.1666667
        k(    9) = (  -0.4682679  -0.2703546  -0.2915444), wk =   0.0833333
        k(   10) = (  -0.4682679   0.0901182   0.0000000), wk =   0.1666667
        k(   11) = (  -0.4682679   0.0901182   0.1457722), wk =   0.3333333
        k(   12) = (  -0.4682679   0.0901182  -0.2915444), wk =   0.1666667

[...]

     enthalpy old            =   -2390.8564401903 Ry
     enthalpy new            =   -2391.8273298024 Ry

     CASE: enthalpy_new < enthalpy_old

     small trust_radius: resetting bfgs history

     new trust radius        =       0.0581083355 bohr
     new conv_thr            =       0.0000268728 Ry

[...]

     number of scf cycles    =   3
     number of bfgs steps    =   2

     enthalpy old            =   -2391.8273298024 Ry
     enthalpy new            =   -2391.8253375306 Ry

     CASE: enthalpy_new > enthalpy_old

     new trust radius        =       0.0235460942 bohr

     trust_radius < trust_radius_min

     resetting bfgs history

     Message from routine bfgs:
     history already reset at previous step: stopping
     new conv_thr            =       0.0000268728 Ry

     new unit-cell volume =   1637.29288 a.u.^3 (   242.62177 Ang^3 )

[...]

ATOMIC_POSITIONS (crystal)
Mg       0.333333000   0.666667000   0.063026823
Mg       0.666667000   0.333333000   0.563026823
Mg       0.666667000   0.333333000   0.936973177
Mg       0.333333000   0.666667000   0.436973177
Zn       0.000000000   0.000000000   0.000000000
Zn       0.000000000   0.000000000   0.500000000
Zn       0.170497009   0.340994018   0.750000000
Zn       0.829502991   0.170497009   0.250000000
Zn       0.340994018   0.170497009   0.250000000
Zn       0.659005982   0.829502991   0.750000000
Zn       0.170497009   0.829502991   0.750000000
Zn       0.829502991   0.659005982   0.250000000

     Writing output data file Prototype-La-hP12-MgZn2.save
     NEW-OLD atomic charge density approx. for the potential
     NEW k-points:
        k(    1) = (   0.0000000   0.0000000   0.0000000), wk =   0.0833333
        k(    2) = (   0.0000000   0.0000000   0.1468169), wk =   0.1666667
        k(    3) = (   0.0000000   0.0000000  -0.2936338), wk =   0.0833333
        k(    4) = (   0.0000000   0.3611011   0.0000000), wk =   0.1666667
        k(    5) = (   0.0000000   0.3611011   0.1468169), wk =   0.3333333
        k(    6) = (   0.0000000   0.3611011  -0.2936338), wk =   0.1666667
        k(    7) = (  -0.4690840  -0.2708258   0.0000000), wk =   0.0833333
        k(    8) = (  -0.4690840  -0.2708258   0.1468169), wk =   0.1666667
        k(    9) = (  -0.4690840  -0.2708258  -0.2936338), wk =   0.0833333
        k(   10) = (  -0.4690840   0.0902753   0.0000000), wk =   0.1666667
        k(   11) = (  -0.4690840   0.0902753   0.1468169), wk =   0.3333333
        k(   12) = (  -0.4690840   0.0902753  -0.2936338), wk =   0.1666667

[...]

     Threshold (ethr) on eigenvalues was too large:
     Diagonalizing with lowered threshold

     CG style diagonalization
     ethr =  3.14E-08,  avg # of iterations =  3.1

[...]

     The maximum number of steps has been reached.

     End of BFGS Geometry Optimization
Begin final coordinates
     new unit-cell volume =   1637.29288 a.u.^3 (   242.62177 Ang^3 )

CELL_PARAMETERS (alat=  9.92348860)
   1.065907077   0.000000000   0.000000000
  -0.532953538   0.923102607   0.000000000
   0.000000000   0.000000000   1.702801107

ATOMIC_POSITIONS (crystal)
Mg       0.333333000   0.666667000   0.063026823
Mg       0.666667000   0.333333000   0.563026823
Mg       0.666667000   0.333333000   0.936973177
Mg       0.333333000   0.666667000   0.436973177
Zn       0.000000000   0.000000000   0.000000000
Zn       0.000000000   0.000000000   0.500000000
Zn       0.170497009   0.340994018   0.750000000
Zn       0.829502991   0.170497009   0.250000000
Zn       0.340994018   0.170497009   0.250000000
Zn       0.659005982   0.829502991   0.750000000
Zn       0.170497009   0.829502991   0.750000000
Zn       0.829502991   0.659005982   0.250000000
End final coordinates

     A final scf calculation at the relaxed structure.
     The G-vectors are recalculated for the final unit cell
     Results may differ from those at the preceding step.

     bravais-lattice index     =            0
     lattice parameter (alat)  =       9.9235  a.u.
     unit-cell volume          =    1637.2929 (a.u.)^3
     number of atoms/cell      =           12
     number of atomic types    =            2
     number of electrons       =       208.00
     number of Kohn-Sham states=          125
     kinetic-energy cutoff     =      40.0000  Ry
     charge density cutoff     =     160.0000  Ry
     convergence threshold     =      2.7E-05
     mixing beta               =       0.7000
     number of iterations used =            8  plain     mixing
     Exchange-correlation      = SLA-PZ-NOGX-NOGC ( 1 1 0 0 0)
     EXX-fraction              =        0.00

     celldm(1)=   9.923489  celldm(2)=   0.000000  celldm(3)=   0.000000
     celldm(4)=   0.000000  celldm(5)=   0.000000  celldm(6)=   0.000000

     crystal axes: (cart. coord. in units of alat)
               a(1) = (   1.065907   0.000000   0.000000 )
               a(2) = (  -0.532954   0.923103   0.000000 )
               a(3) = (   0.000000   0.000000   1.702801 )

     reciprocal axes: (cart. coord. in units 2 pi/alat)
               b(1) = (  0.938168  0.541652  0.000000 )
               b(2) = (  0.000000  1.083303  0.000000 )
               b(3) = (  0.000000  0.000000  0.587268 )

     PseudoPot. # 1 for Ce read from file:
     /home/jld5415/pp.La/Ce.UPF
     MD5 check sum: 44451aa79a44a00cf2bc029dc19922f6
     Pseudo is Norm-conserving, Zval = 12.0
     Generated in analytical, separable form
     Using radial grid of 1255 points,  6 beta functions with:
                l(1) =   0
                l(2) =   0
                l(3) =   1
                l(4) =   1
                l(5) =   2
                l(6) =   3

     PseudoPot. # 2 for Dy read from file:
     /home/jld5415/pp.La/Dy.UPF
     MD5 check sum: 9597327bec62616a94a14d07f3fd9936
     Pseudo is Norm-conserving, Zval = 20.0
     Generated in analytical, separable form
     Using radial grid of 1265 points,  6 beta functions with:
                l(1) =   0
                l(2) =   0
                l(3) =   1
                l(4) =   1
                l(5) =   2
                l(6) =   3

     atomic species   valence    mass     pseudopotential
        Mg            12.00    24.30500     Ce( 1.00)
        Zn            20.00    65.39000     Dy( 1.00)

     24 Sym. Ops., with inversion, found (12 have fractional translation)

   Cartesian axes

     site n.     atom                  positions (alat units)
         1           Mg  tau(   1) = (  -0.0000005   0.6154020   0.1073221  )
         2           Mg  tau(   2) = (   0.5329541   0.3077006   0.9587227  )
         3           Mg  tau(   3) = (   0.5329541   0.3077006   1.5954790  )
         4           Mg  tau(   4) = (  -0.0000005   0.6154020   0.7440784  )
         5           Zn  tau(   5) = (   0.0000000   0.0000000   0.0000000  )
         6           Zn  tau(   6) = (   0.0000000   0.0000000   0.8514006  )
         7           Zn  tau(   7) = (   0.0000000   0.3147725   1.2771008  )
         8           Zn  tau(   8) = (   0.7933061   0.1573862   0.4257003  )
         9           Zn  tau(   9) = (   0.2726010   0.1573862   0.4257003  )
        10           Zn  tau(  10) = (   0.2603526   0.7657164   1.2771008  )
        11           Zn  tau(  11) = (  -0.2603526   0.7657164   1.2771008  )
        12           Zn  tau(  12) = (   0.5329535   0.6083301   0.4257003  )

     number of k points=    12  gaussian smearing, width (Ry)=  0.1000
                       cart. coord. in units 2pi/alat
        k(    1) = (   0.0000000   0.0000000   0.0000000), wk =   0.0833333
        k(    2) = (   0.0000000   0.0000000   0.1468169), wk =   0.1666667
        k(    3) = (   0.0000000   0.0000000  -0.2936338), wk =   0.0833333
        k(    4) = (   0.0000000   0.3611011   0.0000000), wk =   0.1666667
        k(    5) = (   0.0000000   0.3611011   0.1468169), wk =   0.3333333
        k(    6) = (   0.0000000   0.3611011  -0.2936338), wk =   0.1666667
        k(    7) = (  -0.4690840  -0.2708258   0.0000000), wk =   0.0833333
        k(    8) = (  -0.4690840  -0.2708258   0.1468169), wk =   0.1666667
        k(    9) = (  -0.4690840  -0.2708258  -0.2936338), wk =   0.0833333
        k(   10) = (  -0.4690840   0.0902753   0.0000000), wk =   0.1666667
        k(   11) = (  -0.4690840   0.0902753   0.1468169), wk =   0.3333333
        k(   12) = (  -0.4690840   0.0902753  -0.2936338), wk =   0.1666667

     Largest allocated arrays     est. size (Mb)     dimensions
     Largest temporary arrays     est. size (Mb)     dimensions

     Initial potential from superposition of free atoms

     Starting from uniform charge
     Starting wfc are    0 randomized atomic wfcs

     Writing output data file Prototype-La-hP12-MgZn2.save

     Self-consistent Calculation

[...]

     iteration #  9     ecut=    40.00 Ry     beta=0.70
     CG style diagonalization
     c_bands:  1 eigenvalues not converged
     ethr =  1.07E-05,  avg # of iterations =  3.9

[...]

     total energy              =   -2392.96771284 Ry
     Harris-Foulkes estimate   =   -2392.96772643 Ry
     estimated scf accuracy    <       0.00002768 Ry

     iteration # 12     ecut=    40.00 Ry     beta=0.70
     CG style diagonalization
     ethr =  1.33E-08,  avg # of iterations =  4.7

     End of self-consistent calculation

[...]

          k = 0.0000 0.3611-0.2936 (  6994 PWs)   bands (ev):

[...]

          k =-0.4691 0.0903-0.2936 (  6988 PWs)   bands (ev):

   -58.6817 -58.6817 -58.6207 -58.6207 -58.5911 -58.5911 -58.5755 -58.5755
   -26.0508 -26.0508 -25.8813 -25.8813 -25.6894 -25.6894 -25.6755 -25.6755
   -25.6360 -25.6360 -25.5712 -25.5712 -25.4927 -25.4927 -25.4343 -25.4343
   -25.3882 -25.3882 -25.3684 -25.3684 -25.3579 -25.3578 -25.3256 -25.3255
   -13.0431 -13.0430 -12.9516 -12.9515   4.4772   4.4773   4.5148   4.5148
     4.7456   4.7456   5.0947   5.0948   5.3432   5.3432   5.3712   5.3712
    12.5737  12.5737  13.3812  13.3812  13.6256  13.6256  13.8289  13.8289
    14.0127  14.0127  14.4253  14.4253  14.7364  14.7364  14.8021  14.8021
    15.1237  15.1237  15.2817  15.2817  15.4288  15.4288  15.7225  15.7226
    15.9203  15.9203  16.2835  16.2835  16.4359  16.4359  16.6858  16.6858
    16.7545  16.7545  16.8427  16.8427  17.0701  17.0701  17.4179  17.4179
    17.9794  17.9794  19.0861  19.0862  21.2586  21.2586  21.9443  21.9443
    23.3534  23.3534  23.9786  23.9786  24.1625  24.1625  24.4665  24.4665
    24.9183  24.9183  25.8961  25.8961  26.6503  26.6503  27.2155  27.2157
    27.6275  27.6275  27.8567  27.8568  29.2569  29.2570  29.6561  29.6563
    30.2308  30.2308  31.3553  31.3556  31.7908

     the Fermi energy is    24.7912 ev

!    total energy              =   -2392.96772926 Ry
     Harris-Foulkes estimate   =   -2392.96773168 Ry
     estimated scf accuracy    <       0.00000294 Ry

     The total energy is the sum of the following terms:

     one-electron contribution =    -593.05533236 Ry
     hartree contribution      =     441.59483284 Ry
     xc contribution           =    -233.53194583 Ry
     ewald contribution        =   -2007.51098331 Ry
     smearing contrib. (-TS)   =      -0.46430061 Ry

     convergence has been achieved in  12 iterations

     Forces acting on atoms (Ry/au):

     atom    1 type  1   force =     0.00000000    0.00000000    0.00571730
     atom    2 type  1   force =     0.00000000    0.00000000    0.00571730
     atom    3 type  1   force =     0.00000000    0.00000000   -0.00571730
     atom    4 type  1   force =     0.00000000    0.00000000   -0.00571730
     atom    5 type  2   force =     0.00000000    0.00000000    0.00000000
     atom    6 type  2   force =     0.00000000    0.00000000    0.00000000
     atom    7 type  2   force =     0.00000000    0.04099309    0.00000000
     atom    8 type  2   force =    -0.03550105    0.02049654    0.00000000
     atom    9 type  2   force =     0.03550105    0.02049654    0.00000000
     atom   10 type  2   force =    -0.03550105   -0.02049654    0.00000000
     atom   11 type  2   force =     0.03550105   -0.02049654    0.00000000
     atom   12 type  2   force =     0.00000000   -0.04099309    0.00000000

     Total force =     0.101061     Total SCF correction =     0.000000

     entering subroutine stress ...

          total   stress  (Ry/bohr**3)                   (kbar)     P=  260.24
   0.00178906   0.00000000   0.00000000        263.18      0.00      0.00
   0.00000000   0.00178906   0.00000000          0.00    263.18      0.00
   0.00000000   0.00000000   0.00172909          0.00      0.00    254.36

     Writing output data file Prototype-La-hP12-MgZn2.save

     General routines

     Parallel routines

   This run was terminated on:   1: 1: 2  22Mar2018

   JOB DONE.