     Program PWSCF v.5.0.2 starts on 22Mar2018 at 22:48:56

     Current dimensions of program PWSCF are:
     Max number of different atomic species (ntypx) = 10
     Max number of k-points (npk) =  40000
     Max angular momentum in pseudopotentials (lmaxx) =  3
     Waiting for input...
     Reading input from standard input

     Subspace diagonalization in iterative solution of the eigenvalue problem:
     a serial algorithm will be used

     bravais-lattice index     =            0
     lattice parameter (alat)  =       9.9235  a.u.
     unit-cell volume          =    1361.0366 (a.u.)^3
     number of atoms/cell      =           12
     number of atomic types    =            2
     number of electrons       =       176.00
     number of Kohn-Sham states=          106
     kinetic-energy cutoff     =      40.0000  Ry
     charge density cutoff     =     160.0000  Ry
     convergence threshold     =      1.0E-04
     mixing beta               =       0.7000
     number of iterations used =            8  plain     mixing
     Exchange-correlation      = SLA-PZ-NOGX-NOGC ( 1 1 0 0 0)
     EXX-fraction              =        0.00
     nstep                     =           50

     celldm(1)=   9.923489  celldm(2)=   0.000000  celldm(3)=   0.000000
     celldm(4)=   0.000000  celldm(5)=   0.000000  celldm(6)=   0.000000

     crystal axes: (cart. coord. in units of alat)
               a(1) = (   1.000000   0.000000   0.000000 )
               a(2) = (  -0.500000   0.866025   0.000000 )
               a(3) = (   0.000000   0.000000   1.608222 )

     reciprocal axes: (cart. coord. in units 2 pi/alat)
               b(1) = (  1.000000  0.577350  0.000000 )
               b(2) = (  0.000000  1.154701  0.000000 )
               b(3) = (  0.000000  0.000000  0.621805 )

     PseudoPot. # 1 for Gd read from file:
     /home/cwx6513/pp.La/Gd.UPF
     MD5 check sum: 09a8be538722f05520810cb6aac0efd2
     Pseudo is Norm-conserving, Zval = 18.0
     Generated in analytical, separable form
     Using radial grid of 1263 points,  6 beta functions with:
                l(1) =   0
                l(2) =   0
                l(3) =   1
                l(4) =   1
                l(5) =   2
                l(6) =   3

     PseudoPot. # 2 for Pr read from file:
     /home/cwx6513/pp.La/Pr.UPF
     MD5 check sum: 70e2b4b153859e92c8c91247dfc63203
     Pseudo is Norm-conserving, Zval = 13.0
     Generated in analytical, separable form
     Using radial grid of 1255 points,  6 beta functions with:
                l(1) =   0
                l(2) =   0
                l(3) =   1
                l(4) =   1
                l(5) =   2
                l(6) =   3

     atomic species   valence    mass     pseudopotential
        Mg            18.00    24.30500     Gd( 1.00)
        Zn            13.00    65.39000     Pr( 1.00)

     24 Sym. Ops., with inversion, found (12 have fractional translation)

   Cartesian axes

     site n.     atom                  positions (alat units)
         1           Mg  tau(   1) = (  -0.0000005   0.5773506   0.1003820  )
         2           Mg  tau(   2) = (   0.5000005   0.2886748   0.9044931  )
         3           Mg  tau(   3) = (   0.5000005   0.2886748   1.5078402  )
         4           Mg  tau(   4) = (  -0.0000005   0.5773506   0.7037291  )
         5           Zn  tau(   5) = (   0.0000000   0.0000000   0.0000000  )
         6           Zn  tau(   6) = (   0.0000000   0.0000000   0.8041111  )
         7           Zn  tau(   7) = (   0.0000000   0.2950739   1.2061667  )
         8           Zn  tau(   8) = (   0.7444585   0.1475370   0.4020556  )
         9           Zn  tau(   9) = (   0.2555415   0.1475370   0.4020556  )
        10           Zn  tau(  10) = (   0.2444585   0.7184884   1.2061667  )
        11           Zn  tau(  11) = (  -0.2444585   0.7184884   1.2061667  )
        12           Zn  tau(  12) = (   0.5000000   0.5709515   0.4020556  )

     number of k points=    12  gaussian smearing, width (Ry)=  0.1000
                       cart. coord. in units 2pi/alat
        k(    1) = (   0.0000000   0.0000000   0.0000000), wk =   0.0833333
        k(    2) = (   0.0000000   0.0000000   0.1554512), wk =   0.1666667
        k(    3) = (   0.0000000   0.0000000  -0.3109023), wk =   0.0833333
        k(    4) = (   0.0000000   0.3849002   0.0000000), wk =   0.1666667
        k(    5) = (   0.0000000   0.3849002   0.1554512), wk =   0.3333333
        k(    6) = (   0.0000000   0.3849002  -0.3109023), wk =   0.1666667
        k(    7) = (  -0.5000000  -0.2886751   0.0000000), wk =   0.0833333
        k(    8) = (  -0.5000000  -0.2886751   0.1554512), wk =   0.1666667
        k(    9) = (  -0.5000000  -0.2886751  -0.3109023), wk =   0.0833333
        k(   10) = (  -0.5000000   0.0962250   0.0000000), wk =   0.1666667
        k(   11) = (  -0.5000000   0.0962250   0.1554512), wk =   0.3333333
        k(   12) = (  -0.5000000   0.0962250  -0.3109023), wk =   0.1666667

     Largest allocated arrays     est. size (Mb)     dimensions
     Largest temporary arrays     est. size (Mb)     dimensions

     Initial potential from superposition of free atoms
     Check: negative starting charge=   -0.000695

     starting charge  103.92434, renormalised to  176.00000

     negative rho (up, down):  0.118E-02 0.000E+00
     Starting wfc are  160 randomized atomic wfcs

     Self-consistent Calculation

     iteration #  1     ecut=    40.00 Ry     beta=0.70
     CG style diagonalization
     ethr =  1.00E-02,  avg # of iterations = 21.6

     negative rho (up, down):  0.329E-03 0.000E+00

     total energy              =     190.14935011 Ry
     Harris-Foulkes estimate   =   -3229.25204091 Ry
     estimated scf accuracy    <    4028.45409634 Ry

[...]

     iteration #  3     ecut=    40.00 Ry     beta=0.70
     CG style diagonalization
     c_bands:  1 eigenvalues not converged
     c_bands:  1 eigenvalues not converged
     ethr =  1.00E-02,  avg # of iterations = 11.6

[...]

     End of self-consistent calculation

          k = 0.0000 0.0000 0.0000 (  5769 PWs)   bands (ev):

   -40.4192 -40.4138 -40.3999 -40.3879 -16.4734 -16.0870 -14.8534 -14.4006
   -14.4005 -14.3886 -14.3886 -14.3054 -11.5239 -11.5239 -11.5224 -11.4966
   -11.4966 -11.4842 -11.3710 -11.3639 -11.3578 -11.3578 -11.3466 -11.3466
    -0.3500   0.5784   1.6531   2.8971   2.8971   3.1587   3.1587   3.4062
     3.4063   4.2309   5.1817   5.1817   5.3017   5.3018   5.7872   7.1525
     7.1969   7.2036   7.2802   7.2802   7.7037   7.7037   7.8965   7.8965
    19.8289  20.8043  21.1056  21.8275  21.8275  22.3127  22.4536  22.4537
    22.5433  22.6496  22.6496  22.7391  22.8009  22.8010  23.0096  23.0243
    23.0243  23.1065  23.1567  23.1567  23.7722  23.7723  24.1064  24.1065
    24.4945  24.4945  24.8991  25.0242  25.0242  25.1971  25.1971  25.5609
    26.4851  26.4851  26.6671  27.8410  27.8410  27.9127  27.9128  28.0978
    28.8793  28.8793  29.7757  30.7293  30.8365  30.8581  31.0202  31.0203
    31.7113  31.9903  32.4506  32.4507  32.5627  32.5628  32.6860  32.6861
    33.3866  33.3867

[...]

          k =-0.5000-0.2887 0.0000 (  5800 PWs)   bands (ev):

[...]

     the Fermi energy is    28.5388 ev

!    total energy              =   -1547.24765459 Ry
     Harris-Foulkes estimate   =   -1547.24771096 Ry
     estimated scf accuracy    <       0.00006716 Ry

     The total energy is the sum of the following terms:

     one-electron contribution =      52.17146339 Ry
     hartree contribution      =     139.95774405 Ry
     xc contribution           =    -177.92567374 Ry
     ewald contribution        =   -1560.96253033 Ry
     smearing contrib. (-TS)   =      -0.48865795 Ry

     convergence has been achieved in  14 iterations

     Forces acting on atoms (Ry/au):

     atom    1 type  1   force =     0.00000000    0.00000000    0.01952324
     atom    2 type  1   force =     0.00000000    0.00000000    0.01952324
     atom    3 type  1   force =     0.00000000    0.00000000   -0.01952324
     atom    4 type  1   force =     0.00000000    0.00000000   -0.01952324
     atom    5 type  2   force =     0.00000000    0.00000000    0.00000000
     atom    6 type  2   force =     0.00000000    0.00000000    0.00000000
     atom    7 type  2   force =     0.00000000    0.04660038    0.00000000
     atom    8 type  2   force =    -0.04035711    0.02330019    0.00000000
     atom    9 type  2   force =     0.04035711    0.02330019    0.00000000
     atom   10 type  2   force =    -0.04035711   -0.02330019    0.00000000
     atom   11 type  2   force =     0.04035711   -0.02330019    0.00000000
     atom   12 type  2   force =     0.00000000   -0.04660038    0.00000000

     Total force =     0.120641     Total SCF correction =     0.013415
     SCF correction compared to forces is large: reduce conv_thr to get better values

     entering subroutine stress ...

          total   stress  (Ry/bohr**3)                   (kbar)     P=  926.78
   0.00630812   0.00000000   0.00000000        927.96      0.00      0.00
   0.00000000   0.00630812   0.00000000          0.00    927.96      0.00
   0.00000000   0.00000000   0.00628417          0.00      0.00    924.43

     BFGS Geometry Optimization

     number of scf cycles    =   1
     number of bfgs steps    =   0

     enthalpy new            =   -1547.2476545897 Ry

     new trust radius        =       0.5000000000 bohr
     new conv_thr            =       0.0001000000 Ry

     new unit-cell volume =   1656.50256 a.u.^3 (   245.46835 Ang^3 )

CELL_PARAMETERS (alat=  9.92348860)
   1.067764947   0.000000000   0.000000000
  -0.533882474   0.924711570   0.000000000
   0.000000000   0.000000000   1.716789441

ATOMIC_POSITIONS (crystal)
Mg       0.333333000   0.666667000   0.062943662
Mg       0.666667000   0.333333000   0.562943662
Mg       0.666667000   0.333333000   0.937056338
Mg       0.333333000   0.666667000   0.437056338
Zn       0.000000000   0.000000000   0.000000000
Zn       0.000000000   0.000000000   0.500000000
Zn       0.171526009   0.343052018   0.750000000
Zn       0.828473991   0.171526009   0.250000000
Zn       0.343052018   0.171526009   0.250000000
Zn       0.656947982   0.828473991   0.750000000
Zn       0.171526009   0.828473991   0.750000000
Zn       0.828473991   0.656947982   0.250000000

     Writing output data file Prototype-La-hP12-MgZn2.save
     Check: negative starting charge=   -0.000695
     NEW-OLD atomic charge density approx. for the potential
     NEW k-points:
        k(    1) = (   0.0000000   0.0000000   0.0000000), wk =   0.0833333
        k(    2) = (   0.0000000   0.0000000   0.1456207), wk =   0.1666667
        k(    3) = (   0.0000000   0.0000000  -0.2912413), wk =   0.0833333
        k(    4) = (   0.0000000   0.3604728   0.0000000), wk =   0.1666667
        k(    5) = (   0.0000000   0.3604728   0.1456207), wk =   0.3333333
        k(    6) = (   0.0000000   0.3604728  -0.2912413), wk =   0.1666667
        k(    7) = (  -0.4682679  -0.2703546   0.0000000), wk =   0.0833333
        k(    8) = (  -0.4682679  -0.2703546   0.1456207), wk =   0.1666667
        k(    9) = (  -0.4682679  -0.2703546  -0.2912413), wk =   0.0833333
        k(   10) = (  -0.4682679   0.0901182   0.0000000), wk =   0.1666667
        k(   11) = (  -0.4682679   0.0901182   0.1456207), wk =   0.3333333
        k(   12) = (  -0.4682679   0.0901182  -0.2912413), wk =   0.1666667
     Check: negative starting charge=   -0.007439

     negative rho (up, down):  0.651E-02 0.000E+00
     extrapolated charge  194.53671, renormalised to  176.00000

[...]

     enthalpy old            =   -1547.2476545897 Ry
     enthalpy new            =   -1548.0535560862 Ry

     CASE: enthalpy_new < enthalpy_old

     small trust_radius: resetting bfgs history

[...]

     Writing output data file Prototype-La-hP12-MgZn2.save
     Check: negative starting charge=   -0.007439
     NEW-OLD atomic charge density approx. for the potential
     NEW k-points:
        k(    1) = (   0.0000000   0.0000000   0.0000000), wk =   0.0833333
        k(    2) = (   0.0000000   0.0000000   0.1460632), wk =   0.1666667
        k(    3) = (   0.0000000   0.0000000  -0.2921263), wk =   0.0833333
        k(    4) = (   0.0000000   0.3602666   0.0000000), wk =   0.1666667
        k(    5) = (   0.0000000   0.3602666   0.1460632), wk =   0.3333333
        k(    6) = (   0.0000000   0.3602666  -0.2921263), wk =   0.1666667
        k(    7) = (  -0.4680001  -0.2702000   0.0000000), wk =   0.0833333
        k(    8) = (  -0.4680001  -0.2702000   0.1460632), wk =   0.1666667
        k(    9) = (  -0.4680001  -0.2702000  -0.2921263), wk =   0.0833333
        k(   10) = (  -0.4680001   0.0900667   0.0000000), wk =   0.1666667
        k(   11) = (  -0.4680001   0.0900667   0.1460632), wk =   0.3333333
        k(   12) = (  -0.4680001   0.0900667  -0.2921263), wk =   0.1666667
     Check: negative starting charge=   -0.007273
     extrapolated charge  175.80337, renormalised to  176.00000

[...]

     Total force =     0.031913     Total SCF correction =     0.001599

[...]

     number of scf cycles    =   3
     number of bfgs steps    =   2

     enthalpy old            =   -1548.0535560862 Ry
     enthalpy new            =   -1548.0544457135 Ry

     CASE: enthalpy_new < enthalpy_old

     Message from routine bfgs:
     history already reset at previous step: stopping
     small trust_radius: resetting bfgs history

     new trust radius        =       0.0157939229 bohr
     new conv_thr            =       0.0000088963 Ry

     new unit-cell volume =   1657.29843 a.u.^3 (   245.58629 Ang^3 )

[...]

ATOMIC_POSITIONS (crystal)
Mg       0.333333000   0.666667000   0.064586064
Mg       0.666667000   0.333333000   0.564586064
Mg       0.666667000   0.333333000   0.935413936
Mg       0.333333000   0.666667000   0.435413936
Zn       0.000000000   0.000000000   0.000000000
Zn       0.000000000   0.000000000   0.500000000
Zn       0.171625296   0.343250593   0.750000000
Zn       0.828374704   0.171625296   0.250000000
Zn       0.343250593   0.171625296   0.250000000
Zn       0.656749407   0.828374704   0.750000000
Zn       0.171625296   0.828374704   0.750000000
Zn       0.828374704   0.656749407   0.250000000

     Writing output data file Prototype-La-hP12-MgZn2.save
     Check: negative starting charge=   -0.007273
     NEW-OLD atomic charge density approx. for the potential
     NEW k-points:
        k(    1) = (   0.0000000   0.0000000   0.0000000), wk =   0.0833333
        k(    2) = (   0.0000000   0.0000000   0.1461362), wk =   0.1666667
        k(    3) = (   0.0000000   0.0000000  -0.2922724), wk =   0.0833333
        k(    4) = (   0.0000000   0.3597500   0.0000000), wk =   0.1666667
        k(    5) = (   0.0000000   0.3597500   0.1461362), wk =   0.3333333
        k(    6) = (   0.0000000   0.3597500  -0.2922724), wk =   0.1666667
        k(    7) = (  -0.4673289  -0.2698125   0.0000000), wk =   0.0833333
        k(    8) = (  -0.4673289  -0.2698125   0.1461362), wk =   0.1666667
        k(    9) = (  -0.4673289  -0.2698125  -0.2922724), wk =   0.0833333
        k(   10) = (  -0.4673289   0.0899375   0.0000000), wk =   0.1666667
        k(   11) = (  -0.4673289   0.0899375   0.1461362), wk =   0.3333333
        k(   12) = (  -0.4673289   0.0899375  -0.2922724), wk =   0.1666667
     Check: negative starting charge=   -0.007187

     negative rho (up, down):  0.844E-04 0.000E+00
     extrapolated charge  176.24607, renormalised to  176.00000

[...]

     Total force =     0.007337     Total SCF correction =     0.004575
     SCF correction compared to forces is large: reduce conv_thr to get better values

[...]

     The maximum number of steps has been reached.

     End of BFGS Geometry Optimization
Begin final coordinates
     new unit-cell volume =   1657.29843 a.u.^3 (   245.58629 Ang^3 )

CELL_PARAMETERS (alat=  9.92348860)
   1.069910270   0.000000000   0.000000000
  -0.534955135   0.926569474   0.000000000
   0.000000000   0.000000000   1.710733068

ATOMIC_POSITIONS (crystal)
Mg       0.333333000   0.666667000   0.064586064
Mg       0.666667000   0.333333000   0.564586064
Mg       0.666667000   0.333333000   0.935413936
Mg       0.333333000   0.666667000   0.435413936
Zn       0.000000000   0.000000000   0.000000000
Zn       0.000000000   0.000000000   0.500000000
Zn       0.171625296   0.343250593   0.750000000
Zn       0.828374704   0.171625296   0.250000000
Zn       0.343250593   0.171625296   0.250000000
Zn       0.656749407   0.828374704   0.750000000
Zn       0.171625296   0.828374704   0.750000000
Zn       0.828374704   0.656749407   0.250000000
End final coordinates

     A final scf calculation at the relaxed structure.
     The G-vectors are recalculated for the final unit cell
     Results may differ from those at the preceding step.

     bravais-lattice index     =            0
     lattice parameter (alat)  =       9.9235  a.u.
     unit-cell volume          =    1657.2984 (a.u.)^3
     number of atoms/cell      =           12
     number of atomic types    =            2
     number of electrons       =       176.00
     number of Kohn-Sham states=          106
     kinetic-energy cutoff     =      40.0000  Ry
     charge density cutoff     =     160.0000  Ry
     convergence threshold     =      8.9E-06
     mixing beta               =       0.7000
     number of iterations used =            8  plain     mixing
     Exchange-correlation      = SLA-PZ-NOGX-NOGC ( 1 1 0 0 0)
     EXX-fraction              =        0.00

     celldm(1)=   9.923489  celldm(2)=   0.000000  celldm(3)=   0.000000
     celldm(4)=   0.000000  celldm(5)=   0.000000  celldm(6)=   0.000000

     crystal axes: (cart. coord. in units of alat)
               a(1) = (   1.069910   0.000000   0.000000 )
               a(2) = (  -0.534955   0.926569   0.000000 )
               a(3) = (   0.000000   0.000000   1.710733 )

     reciprocal axes: (cart. coord. in units 2 pi/alat)
               b(1) = (  0.934658  0.539625  0.000000 )
               b(2) = (  0.000000  1.079250  0.000000 )
               b(3) = (  0.000000  0.000000  0.584545 )

     PseudoPot. # 1 for Gd read from file:
     /home/cwx6513/pp.La/Gd.UPF
     MD5 check sum: 09a8be538722f05520810cb6aac0efd2
     Pseudo is Norm-conserving, Zval = 18.0
     Generated in analytical, separable form
     Using radial grid of 1263 points,  6 beta functions with:
                l(1) =   0
                l(2) =   0
                l(3) =   1
                l(4) =   1
                l(5) =   2
                l(6) =   3

     PseudoPot. # 2 for Pr read from file:
     /home/cwx6513/pp.La/Pr.UPF
     MD5 check sum: 70e2b4b153859e92c8c91247dfc63203
     Pseudo is Norm-conserving, Zval = 13.0
     Generated in analytical, separable form
     Using radial grid of 1255 points,  6 beta functions with:
                l(1) =   0
                l(2) =   0
                l(3) =   1
                l(4) =   1
                l(5) =   2
                l(6) =   3

     atomic species   valence    mass     pseudopotential
        Mg            18.00    24.30500     Gd( 1.00)
        Zn            13.00    65.39000     Pr( 1.00)

     24 Sym. Ops., with inversion, found (12 have fractional translation)

   Cartesian axes

     site n.     atom                  positions (alat units)
         1           Mg  tau(   1) = (  -0.0000005   0.6177133   0.1104895  )
         2           Mg  tau(   2) = (   0.5349557   0.3088562   0.9658560  )
         3           Mg  tau(   3) = (   0.5349557   0.3088562   1.6002436  )
         4           Mg  tau(   4) = (  -0.0000005   0.6177133   0.7448770  )
         5           Zn  tau(   5) = (   0.0000000   0.0000000   0.0000000  )
         6           Zn  tau(   6) = (   0.0000000   0.0000000   0.8553665  )
         7           Zn  tau(   7) = (   0.0000000   0.3180455   1.2830498  )
         8           Zn  tau(   8) = (   0.7944748   0.1590228   0.4276833  )
         9           Zn  tau(   9) = (   0.2754355   0.1590228   0.4276833  )
        10           Zn  tau(  10) = (   0.2595196   0.7675467   1.2830498  )
        11           Zn  tau(  11) = (  -0.2595196   0.7675467   1.2830498  )
        12           Zn  tau(  12) = (   0.5349551   0.6085240   0.4276833  )

     number of k points=    12  gaussian smearing, width (Ry)=  0.1000
                       cart. coord. in units 2pi/alat
        k(    1) = (   0.0000000   0.0000000   0.0000000), wk =   0.0833333
        k(    2) = (   0.0000000   0.0000000   0.1461362), wk =   0.1666667
        k(    3) = (   0.0000000   0.0000000  -0.2922724), wk =   0.0833333
        k(    4) = (   0.0000000   0.3597500   0.0000000), wk =   0.1666667
        k(    5) = (   0.0000000   0.3597500   0.1461362), wk =   0.3333333
        k(    6) = (   0.0000000   0.3597500  -0.2922724), wk =   0.1666667
        k(    7) = (  -0.4673289  -0.2698125   0.0000000), wk =   0.0833333
        k(    8) = (  -0.4673289  -0.2698125   0.1461362), wk =   0.1666667
        k(    9) = (  -0.4673289  -0.2698125  -0.2922724), wk =   0.0833333
        k(   10) = (  -0.4673289   0.0899375   0.0000000), wk =   0.1666667
        k(   11) = (  -0.4673289   0.0899375   0.1461362), wk =   0.3333333
        k(   12) = (  -0.4673289   0.0899375  -0.2922724), wk =   0.1666667

     Largest allocated arrays     est. size (Mb)     dimensions
     Largest temporary arrays     est. size (Mb)     dimensions

     Initial potential from superposition of free atoms
     Check: negative starting charge=   -0.001798

     starting charge  103.92434, renormalised to  176.00000

     negative rho (up, down):  0.305E-02 0.000E+00
     Starting wfc are  160 randomized atomic wfcs

     Writing output data file Prototype-La-hP12-MgZn2.save

     Self-consistent Calculation

[...]

     negative rho (up, down):  0.164E-03 0.000E+00

[...]

     iteration # 13     ecut=    40.00 Ry     beta=0.70
     CG style diagonalization
     c_bands:  1 eigenvalues not converged
     c_bands:  1 eigenvalues not converged
     ethr =  2.81E-06,  avg # of iterations =  3.2

[...]

     total energy              =   -1548.66175514 Ry
     Harris-Foulkes estimate   =   -1548.66178013 Ry
     estimated scf accuracy    <       0.00007476 Ry

     iteration # 16     ecut=    40.00 Ry     beta=0.70
     CG style diagonalization
     ethr =  1.71E-08,  avg # of iterations =  3.5

     End of self-consistent calculation

[...]

          k = 0.0000 0.3597-0.2923 (  7072 PWs)   bands (ev):

[...]

          k =-0.4673 0.0899-0.2923 (  7084 PWs)   bands (ev):

   -45.5504 -45.5504 -45.5447 -45.5447 -20.9211 -20.9211 -20.6149 -20.6149
   -20.1630 -20.1630 -20.0399 -20.0399 -16.5453 -16.5453 -16.5195 -16.5195
   -16.4964 -16.4964 -16.4694 -16.4694 -16.4526 -16.4526 -16.4486 -16.4486
    -2.8585  -2.8585  -1.9751  -1.9751  -1.3374  -1.3374  -1.2543  -1.2543
    -1.0557  -1.0557  -0.8151  -0.8151  -0.3436  -0.3436   0.1088   0.1088
     0.4413   0.4413   0.6724   0.6724   1.0915   1.0915   1.2076   1.2076
    17.0343  17.0343  17.3355  17.3356  17.5848  17.5848  17.7634  17.7635
    17.8453  17.8453  18.1492  18.1492  18.3783  18.3783  18.5649  18.5649
    18.8191  18.8191  19.2008  19.2009  19.3624  19.3624  19.5672  19.5672
    20.0322  20.0322  20.2055  20.2056  20.6058  20.6058  21.0561  21.0561
    21.2959  21.2959  21.4539  21.4539  22.1018  22.1018  22.3999  22.3999
    22.6358  22.6358  23.4536  23.4536  23.6991  23.6991  24.1696  24.1696
    24.4898  24.4898  24.7914  24.7914  24.9631  24.9632  25.7730  25.7731
    26.2623  26.2638

     the Fermi energy is    22.6871 ev

!    total energy              =   -1548.66176643 Ry
     Harris-Foulkes estimate   =   -1548.66176696 Ry
     estimated scf accuracy    <       0.00000070 Ry

     The total energy is the sum of the following terms:

     one-electron contribution =     -84.48253654 Ry
     hartree contribution      =     172.52130819 Ry
     xc contribution           =    -174.20777504 Ry
     ewald contribution        =   -1461.88413101 Ry
     smearing contrib. (-TS)   =      -0.60863204 Ry

     convergence has been achieved in  16 iterations

     Forces acting on atoms (Ry/au):

     atom    1 type  1   force =     0.00000000    0.00000000    0.00802607
     atom    2 type  1   force =     0.00000000    0.00000000    0.00802607
     atom    3 type  1   force =     0.00000000    0.00000000   -0.00802607
     atom    4 type  1   force =     0.00000000    0.00000000   -0.00802607
     atom    5 type  2   force =     0.00000000    0.00000000    0.00000000
     atom    6 type  2   force =     0.00000000    0.00000000    0.00000000
     atom    7 type  2   force =     0.00000000    0.00263755    0.00000000
     atom    8 type  2   force =    -0.00228418    0.00131877    0.00000000
     atom    9 type  2   force =     0.00228418    0.00131877    0.00000000
     atom   10 type  2   force =    -0.00228418   -0.00131877    0.00000000
     atom   11 type  2   force =     0.00228418   -0.00131877    0.00000000
     atom   12 type  2   force =     0.00000000   -0.00263755    0.00000000

     Total force =     0.017304     Total SCF correction =     0.001089

     entering subroutine stress ...

          total   stress  (Ry/bohr**3)                   (kbar)     P=  164.17
   0.00115615   0.00000000   0.00000000        170.08      0.00      0.00
   0.00000000   0.00115615   0.00000000          0.00    170.08      0.00
   0.00000000   0.00000000   0.00103563          0.00      0.00    152.35

     Writing output data file Prototype-La-hP12-MgZn2.save

     General routines

     Parallel routines

   This run was terminated on:  23:19:56  22Mar2018

   JOB DONE.