     Program PWSCF v.5.0.2 starts on 22Mar2018 at 16:20:28

     Current dimensions of program PWSCF are:
     Max number of different atomic species (ntypx) = 10
     Max number of k-points (npk) =  40000
     Max angular momentum in pseudopotentials (lmaxx) =  3
     Waiting for input...
     Reading input from standard input

     Subspace diagonalization in iterative solution of the eigenvalue problem:
     a serial algorithm will be used

     bravais-lattice index     =            0
     lattice parameter (alat)  =      12.0168  a.u.
     unit-cell volume          =    1187.3413 (a.u.)^3
     number of atoms/cell      =            8
     number of atomic types    =            2
     number of electrons       =       116.00
     number of Kohn-Sham states=           70
     kinetic-energy cutoff     =      40.0000  Ry
     charge density cutoff     =     160.0000  Ry
     convergence threshold     =      1.0E-04
     mixing beta               =       0.7000
     number of iterations used =            8  plain     mixing
     Exchange-correlation      = SLA-PZ-NOGX-NOGC ( 1 1 0 0 0)
     EXX-fraction              =        0.00
     nstep                     =           50

     celldm(1)=  12.016801  celldm(2)=   0.000000  celldm(3)=   0.000000
     celldm(4)=   0.000000  celldm(5)=   0.000000  celldm(6)=   0.000000

     crystal axes: (cart. coord. in units of alat)
               a(1) = (   1.000000   0.000000   0.000000 )
               a(2) = (  -0.500000   0.866025   0.000000 )
               a(3) = (   0.000000   0.000000   0.790093 )

     reciprocal axes: (cart. coord. in units 2 pi/alat)
               b(1) = (  1.000000  0.577350  0.000000 )
               b(2) = (  0.000000  1.154701  0.000000 )
               b(3) = (  0.000000  0.000000  1.265674 )

     PseudoPot. # 1 for Pr read from file:
     /home/cwx6513/pp.La/Pr.UPF
     MD5 check sum: 70e2b4b153859e92c8c91247dfc63203
     Pseudo is Norm-conserving, Zval = 13.0
     Generated in analytical, separable form
     Using radial grid of 1255 points,  6 beta functions with:
                l(1) =   0
                l(2) =   0
                l(3) =   1
                l(4) =   1
                l(5) =   2
                l(6) =   3

     PseudoPot. # 2 for Tb read from file:
     /home/cwx6513/pp.La/Tb.UPF
     MD5 check sum: 3d6088a3f0cf7fd2e110c43f7f8e95c2
     Pseudo is Norm-conserving, Zval = 19.0
     Generated in analytical, separable form
     Using radial grid of 1263 points,  6 beta functions with:
                l(1) =   0
                l(2) =   0
                l(3) =   1
                l(4) =   1
                l(5) =   2
                l(6) =   3

     atomic species   valence    mass     pseudopotential
        Mg            13.00    24.30500     Pr( 1.00)
        Cd            19.00   112.41100     Tb( 1.00)

     24 Sym. Ops., with inversion, found (12 have fractional translation)

   Cartesian axes

     site n.     atom                  positions (alat units)
         1           Mg  tau(   1) = (   0.2478935   0.7204716   0.1975233  )
         2           Mg  tau(   2) = (   0.7478935   0.1455538   0.5925699  )
         3           Mg  tau(   3) = (   0.2521065   0.1455538   0.5925699  )
         4           Mg  tau(   4) = (  -0.2478935   0.7204716   0.1975233  )
         5           Mg  tau(   5) = (   0.0000000   0.2911075   0.1975233  )
         6           Mg  tau(   6) = (   0.5000000   0.5749179   0.5925699  )
         7           Cd  tau(   7) = (   0.5000005   0.2886748   0.1975233  )
         8           Cd  tau(   8) = (  -0.0000005   0.5773506   0.5925699  )

     number of k points=    64  gaussian smearing, width (Ry)=  0.1000
                       cart. coord. in units 2pi/alat
        k(    1) = (   0.0000000   0.0000000   0.0000000), wk =   0.0095238
        k(    2) = (   0.0000000   0.0000000   0.1808105), wk =   0.0190476
        k(    3) = (   0.0000000   0.0000000   0.3616210), wk =   0.0190476
        k(    4) = (   0.0000000   0.0000000   0.5424315), wk =   0.0190476
        k(    5) = (   0.0000000   0.1924501   0.0000000), wk =   0.0190476
        k(    6) = (   0.0000000   0.1924501   0.1808105), wk =   0.0380952
        k(    7) = (   0.0000000   0.1924501   0.3616210), wk =   0.0380952
        k(    8) = (   0.0000000   0.1924501   0.5424315), wk =   0.0380952
        k(    9) = (   0.0000000   0.3849002   0.0000000), wk =   0.0190476
        k(   10) = (   0.0000000   0.3849002   0.1808105), wk =   0.0380952
        k(   11) = (   0.0000000   0.3849002   0.3616210), wk =   0.0380952
        k(   12) = (   0.0000000   0.3849002   0.5424315), wk =   0.0380952
        k(   13) = (   0.0000000  -0.5773503   0.0000000), wk =   0.0095238
        k(   14) = (   0.0000000  -0.5773503   0.1808105), wk =   0.0190476
        k(   15) = (   0.0000000  -0.5773503   0.3616210), wk =   0.0190476
        k(   16) = (   0.0000000  -0.5773503   0.5424315), wk =   0.0190476
        k(   17) = (   0.2000000   0.1154701   0.0000000), wk =   0.0190476
        k(   18) = (   0.2000000   0.1154701   0.1808105), wk =   0.0380952
        k(   19) = (   0.2000000   0.1154701   0.3616210), wk =   0.0380952
        k(   20) = (   0.2000000   0.1154701   0.5424315), wk =   0.0380952
        k(   21) = (   0.2000000   0.3079201   0.0000000), wk =   0.0190476
        k(   22) = (   0.2000000   0.3079201   0.1808105), wk =   0.0380952
        k(   23) = (   0.2000000   0.3079201   0.3616210), wk =   0.0380952
        k(   24) = (   0.2000000   0.3079201   0.5424315), wk =   0.0380952
        k(   25) = (   0.2000000   0.5003702   0.0000000), wk =   0.0190476
        k(   26) = (   0.2000000   0.5003702   0.1808105), wk =   0.0380952
        k(   27) = (   0.2000000   0.5003702   0.3616210), wk =   0.0380952
        k(   28) = (   0.2000000   0.5003702   0.5424315), wk =   0.0380952
        k(   29) = (   0.2000000  -0.4618802   0.0000000), wk =   0.0190476
        k(   30) = (   0.2000000  -0.4618802   0.1808105), wk =   0.0380952
        k(   31) = (   0.2000000  -0.4618802   0.3616210), wk =   0.0380952
        k(   32) = (   0.2000000  -0.4618802   0.5424315), wk =   0.0380952
        k(   33) = (   0.2000000  -0.2694301   0.0000000), wk =   0.0190476
        k(   34) = (   0.2000000  -0.2694301   0.1808105), wk =   0.0380952
        k(   35) = (   0.2000000  -0.2694301   0.3616210), wk =   0.0380952
        k(   36) = (   0.2000000  -0.2694301   0.5424315), wk =   0.0380952
        k(   37) = (   0.2000000  -0.0769800   0.0000000), wk =   0.0190476
        k(   38) = (   0.2000000  -0.0769800   0.1808105), wk =   0.0380952
        k(   39) = (   0.2000000  -0.0769800   0.3616210), wk =   0.0380952
        k(   40) = (   0.2000000  -0.0769800   0.5424315), wk =   0.0380952
        k(   41) = (   0.4000000   0.2309401   0.0000000), wk =   0.0190476
        k(   42) = (   0.4000000   0.2309401   0.1808105), wk =   0.0380952
        k(   43) = (   0.4000000   0.2309401   0.3616210), wk =   0.0380952
        k(   44) = (   0.4000000   0.2309401   0.5424315), wk =   0.0380952
        k(   45) = (   0.4000000   0.4233902   0.0000000), wk =   0.0190476
        k(   46) = (   0.4000000   0.4233902   0.1808105), wk =   0.0380952
        k(   47) = (   0.4000000   0.4233902   0.3616210), wk =   0.0380952
        k(   48) = (   0.4000000   0.4233902   0.5424315), wk =   0.0380952
        k(   49) = (   0.4000000   0.6158403   0.0000000), wk =   0.0190476
        k(   50) = (   0.4000000   0.6158403   0.1808105), wk =   0.0380952
        k(   51) = (   0.4000000   0.6158403   0.3616210), wk =   0.0380952
        k(   52) = (   0.4000000   0.6158403   0.5424315), wk =   0.0380952
        k(   53) = (   0.4000000  -0.3464102   0.0000000), wk =   0.0190476
        k(   54) = (   0.4000000  -0.3464102   0.1808105), wk =   0.0380952
        k(   55) = (   0.4000000  -0.3464102   0.3616210), wk =   0.0380952
        k(   56) = (   0.4000000  -0.3464102   0.5424315), wk =   0.0380952
        k(   57) = (   0.4000000  -0.1539601   0.0000000), wk =   0.0190476
        k(   58) = (   0.4000000  -0.1539601   0.1808105), wk =   0.0380952
        k(   59) = (   0.4000000  -0.1539601   0.3616210), wk =   0.0380952
        k(   60) = (   0.4000000  -0.1539601   0.5424315), wk =   0.0380952
        k(   61) = (   0.4000000   0.0384900   0.0000000), wk =   0.0190476
        k(   62) = (   0.4000000   0.0384900   0.1808105), wk =   0.0380952
        k(   63) = (   0.4000000   0.0384900   0.3616210), wk =   0.0380952
        k(   64) = (   0.4000000   0.0384900   0.5424315), wk =   0.0380952

     Largest allocated arrays     est. size (Mb)     dimensions
     Largest temporary arrays     est. size (Mb)     dimensions

     Initial potential from superposition of free atoms
     Check: negative starting charge=   -0.002192

     starting charge   77.94326, renormalised to  116.00000

     negative rho (up, down):  0.326E-02 0.000E+00
     Starting wfc are  120 randomized atomic wfcs

     Self-consistent Calculation

     iteration #  1     ecut=    40.00 Ry     beta=0.70
     CG style diagonalization
     ethr =  1.00E-02,  avg # of iterations = 17.9

     negative rho (up, down):  0.966E-03 0.000E+00

     total energy              =     444.65485877 Ry
     Harris-Foulkes estimate   =   -1957.17545732 Ry
     estimated scf accuracy    <    2823.33877497 Ry

[...]

     iteration #  3     ecut=    40.00 Ry     beta=0.70
     CG style diagonalization
     c_bands:  1 eigenvalues not converged
     c_bands:  2 eigenvalues not converged
     c_bands:  1 eigenvalues not converged
     c_bands:  2 eigenvalues not converged
     c_bands:  1 eigenvalues not converged
     c_bands:  1 eigenvalues not converged
     c_bands:  2 eigenvalues not converged
     c_bands:  1 eigenvalues not converged
     c_bands:  1 eigenvalues not converged
     c_bands:  1 eigenvalues not converged
     c_bands:  1 eigenvalues not converged
     c_bands:  1 eigenvalues not converged
     c_bands:  1 eigenvalues not converged
     c_bands:  1 eigenvalues not converged
     c_bands:  1 eigenvalues not converged
     c_bands:  1 eigenvalues not converged
     c_bands:  2 eigenvalues not converged
     c_bands:  1 eigenvalues not converged
     c_bands:  1 eigenvalues not converged
     c_bands:  1 eigenvalues not converged
     c_bands:  1 eigenvalues not converged
     c_bands:  1 eigenvalues not converged
     c_bands:  1 eigenvalues not converged
     c_bands:  1 eigenvalues not converged
     c_bands:  1 eigenvalues not converged
     c_bands:  1 eigenvalues not converged
     ethr =  1.00E-02,  avg # of iterations = 10.8

[...]

     End of self-consistent calculation

          k = 0.0000 0.0000 0.0000 (  5047 PWs)   bands (ev):

   -54.2231 -54.2216 -22.5754 -22.5660 -22.5294 -22.5294 -22.5216 -22.5216
   -22.0777 -21.7343 -21.7342 -21.6929 -21.5469 -21.5468  -3.0095  -2.8173
    -2.5032  -2.2568  -2.2568  -2.1236  -2.1235  -2.0947  -2.0946  -1.5849
    -1.1921  -1.1920  -0.8990  -0.8989  -0.8653  -0.8653  -0.8593  -0.8361
    14.2994  14.2994  14.4042  14.5822  14.6871  14.6871  14.9191  14.9191
[...]
        k(   16) = (   0.0000000  -0.5834853   0.5400527), wk =   0.0190476
        k(   17) = (   0.2021252   0.1166971   0.0000000), wk =   0.0190476
        k(   18) = (   0.2021252   0.1166971   0.1800176), wk =   0.0380952
        k(   19) = (   0.2021252   0.1166971   0.3600351), wk =   0.0380952
        k(   20) = (   0.2021252   0.1166971   0.5400527), wk =   0.0380952
        k(   21) = (   0.2021252   0.3111922   0.0000000), wk =   0.0190476
        k(   22) = (   0.2021252   0.3111922   0.1800176), wk =   0.0380952
        k(   23) = (   0.2021252   0.3111922   0.3600351), wk =   0.0380952
        k(   24) = (   0.2021252   0.3111922   0.5400527), wk =   0.0380952
        k(   25) = (   0.2021252   0.5056873   0.0000000), wk =   0.0190476
        k(   26) = (   0.2021252   0.5056873   0.1800176), wk =   0.0380952
        k(   27) = (   0.2021252   0.5056873   0.3600351), wk =   0.0380952
        k(   28) = (   0.2021252   0.5056873   0.5400527), wk =   0.0380952
        k(   29) = (   0.2021252  -0.4667882   0.0000000), wk =   0.0190476
        k(   30) = (   0.2021252  -0.4667882   0.1800176), wk =   0.0380952
        k(   31) = (   0.2021252  -0.4667882   0.3600351), wk =   0.0380952
        k(   32) = (   0.2021252  -0.4667882   0.5400527), wk =   0.0380952
        k(   33) = (   0.2021252  -0.2722931   0.0000000), wk =   0.0190476
        k(   34) = (   0.2021252  -0.2722931   0.1800176), wk =   0.0380952
        k(   35) = (   0.2021252  -0.2722931   0.3600351), wk =   0.0380952
        k(   36) = (   0.2021252  -0.2722931   0.5400527), wk =   0.0380952
        k(   37) = (   0.2021252  -0.0777980   0.0000000), wk =   0.0190476
        k(   38) = (   0.2021252  -0.0777980   0.1800176), wk =   0.0380952
        k(   39) = (   0.2021252  -0.0777980   0.3600351), wk =   0.0380952
        k(   40) = (   0.2021252  -0.0777980   0.5400527), wk =   0.0380952
        k(   41) = (   0.4042505   0.2333941   0.0000000), wk =   0.0190476
        k(   42) = (   0.4042505   0.2333941   0.1800176), wk =   0.0380952
        k(   43) = (   0.4042505   0.2333941   0.3600351), wk =   0.0380952
        k(   44) = (   0.4042505   0.2333941   0.5400527), wk =   0.0380952
        k(   45) = (   0.4042505   0.4278892   0.0000000), wk =   0.0190476
        k(   46) = (   0.4042505   0.4278892   0.1800176), wk =   0.0380952
        k(   47) = (   0.4042505   0.4278892   0.3600351), wk =   0.0380952
        k(   48) = (   0.4042505   0.4278892   0.5400527), wk =   0.0380952
        k(   49) = (   0.4042505   0.6223843   0.0000000), wk =   0.0190476
        k(   50) = (   0.4042505   0.6223843   0.1800176), wk =   0.0380952
        k(   51) = (   0.4042505   0.6223843   0.3600351), wk =   0.0380952
        k(   52) = (   0.4042505   0.6223843   0.5400527), wk =   0.0380952
        k(   53) = (   0.4042505  -0.3500912   0.0000000), wk =   0.0190476
        k(   54) = (   0.4042505  -0.3500912   0.1800176), wk =   0.0380952
        k(   55) = (   0.4042505  -0.3500912   0.3600351), wk =   0.0380952
        k(   56) = (   0.4042505  -0.3500912   0.5400527), wk =   0.0380952
        k(   57) = (   0.4042505  -0.1555961   0.0000000), wk =   0.0190476
        k(   58) = (   0.4042505  -0.1555961   0.1800176), wk =   0.0380952
        k(   59) = (   0.4042505  -0.1555961   0.3600351), wk =   0.0380952
        k(   60) = (   0.4042505  -0.1555961   0.5400527), wk =   0.0380952
        k(   61) = (   0.4042505   0.0388990   0.0000000), wk =   0.0190476
        k(   62) = (   0.4042505   0.0388990   0.1800176), wk =   0.0380952
        k(   63) = (   0.4042505   0.0388990   0.3600351), wk =   0.0380952
        k(   64) = (   0.4042505   0.0388990   0.5400527), wk =   0.0380952
     Check: negative starting charge=   -0.001840

     negative rho (up, down):  0.200E-04 0.000E+00
     extrapolated charge  115.39804, renormalised to  116.00000

[...]

     The maximum number of steps has been reached.

     End of BFGS Geometry Optimization
Begin final coordinates
     new unit-cell volume =   1167.62464 a.u.^3 (   173.02412 Ang^3 )

CELL_PARAMETERS (alat= 12.01680127)
   0.989485556   0.000000000   0.000000000
  -0.494742778   0.856919628   0.000000000
   0.000000000   0.000000000   0.793573330

ATOMIC_POSITIONS (crystal)
Mg       0.668937608   0.834468804   0.250000000
Mg       0.834468804   0.165531196   0.750000000
Mg       0.331062392   0.165531196   0.750000000
Mg       0.165531196   0.834468804   0.250000000
Mg       0.165531196   0.331062392   0.250000000
Mg       0.834468804   0.668937608   0.750000000
Cd       0.666667000   0.333333000   0.250000000
Cd       0.333333000   0.666667000   0.750000000
End final coordinates

     A final scf calculation at the relaxed structure.
     The G-vectors are recalculated for the final unit cell
     Results may differ from those at the preceding step.

     bravais-lattice index     =            0
     lattice parameter (alat)  =      12.0168  a.u.
     unit-cell volume          =    1167.6246 (a.u.)^3
     number of atoms/cell      =            8
     number of atomic types    =            2
     number of electrons       =       116.00
     number of Kohn-Sham states=           70
     kinetic-energy cutoff     =      40.0000  Ry
     charge density cutoff     =     160.0000  Ry
     convergence threshold     =      9.3E-06
     mixing beta               =       0.7000
     number of iterations used =            8  plain     mixing
     Exchange-correlation      = SLA-PZ-NOGX-NOGC ( 1 1 0 0 0)
     EXX-fraction              =        0.00

     celldm(1)=  12.016801  celldm(2)=   0.000000  celldm(3)=   0.000000
     celldm(4)=   0.000000  celldm(5)=   0.000000  celldm(6)=   0.000000

     crystal axes: (cart. coord. in units of alat)
               a(1) = (   0.989486   0.000000   0.000000 )
               a(2) = (  -0.494743   0.856920   0.000000 )
               a(3) = (   0.000000   0.000000   0.793573 )

     reciprocal axes: (cart. coord. in units 2 pi/alat)
               b(1) = (  1.010626  0.583485  0.000000 )
               b(2) = (  0.000000  1.166971  0.000000 )
               b(3) = (  0.000000  0.000000  1.260123 )

     PseudoPot. # 1 for Pr read from file:
     /home/cwx6513/pp.La/Pr.UPF
     MD5 check sum: 70e2b4b153859e92c8c91247dfc63203
     Pseudo is Norm-conserving, Zval = 13.0
     Generated in analytical, separable form
     Using radial grid of 1255 points,  6 beta functions with:
                l(1) =   0
                l(2) =   0
                l(3) =   1
                l(4) =   1
                l(5) =   2
                l(6) =   3

     PseudoPot. # 2 for Tb read from file:
     /home/cwx6513/pp.La/Tb.UPF
     MD5 check sum: 3d6088a3f0cf7fd2e110c43f7f8e95c2
     Pseudo is Norm-conserving, Zval = 19.0
     Generated in analytical, separable form
     Using radial grid of 1263 points,  6 beta functions with:
                l(1) =   0
                l(2) =   0
                l(3) =   1
                l(4) =   1
                l(5) =   2
                l(6) =   3

     atomic species   valence    mass     pseudopotential
        Mg            13.00    24.30500     Pr( 1.00)
        Cd            19.00   112.41100     Tb( 1.00)

     24 Sym. Ops., with inversion, found (12 have fractional translation)

   Cartesian axes

     site n.     atom                  positions (alat units)
         1           Mg  tau(   1) = (   0.2490567   0.7150727   0.1983933  )
         2           Mg  tau(   2) = (   0.7437995   0.1418469   0.5951800  )
         3           Mg  tau(   3) = (   0.2456861   0.1418469   0.5951800  )
         4           Mg  tau(   4) = (  -0.2490567   0.7150727   0.1983933  )
         5           Mg  tau(   5) = (   0.0000000   0.2836939   0.1983933  )
         6           Mg  tau(   6) = (   0.4947428   0.5732258   0.5951800  )
         7           Cd  tau(   7) = (   0.4947433   0.2856396   0.1983933  )
         8           Cd  tau(   8) = (  -0.0000005   0.5712800   0.5951800  )

     number of k points=    64  gaussian smearing, width (Ry)=  0.1000
                       cart. coord. in units 2pi/alat
        k(    1) = (   0.0000000   0.0000000   0.0000000), wk =   0.0095238
        k(    2) = (   0.0000000   0.0000000   0.1800176), wk =   0.0190476
        k(    3) = (   0.0000000   0.0000000   0.3600351), wk =   0.0190476
        k(    4) = (   0.0000000   0.0000000   0.5400527), wk =   0.0190476
        k(    5) = (   0.0000000   0.1944951   0.0000000), wk =   0.0190476
        k(    6) = (   0.0000000   0.1944951   0.1800176), wk =   0.0380952
        k(    7) = (   0.0000000   0.1944951   0.3600351), wk =   0.0380952
        k(    8) = (   0.0000000   0.1944951   0.5400527), wk =   0.0380952
        k(    9) = (   0.0000000   0.3889902   0.0000000), wk =   0.0190476
        k(   10) = (   0.0000000   0.3889902   0.1800176), wk =   0.0380952
        k(   11) = (   0.0000000   0.3889902   0.3600351), wk =   0.0380952
        k(   12) = (   0.0000000   0.3889902   0.5400527), wk =   0.0380952
        k(   13) = (   0.0000000  -0.5834853   0.0000000), wk =   0.0095238
        k(   14) = (   0.0000000  -0.5834853   0.1800176), wk =   0.0190476
        k(   15) = (   0.0000000  -0.5834853   0.3600351), wk =   0.0190476
        k(   16) = (   0.0000000  -0.5834853   0.5400527), wk =   0.0190476
        k(   17) = (   0.2021252   0.1166971   0.0000000), wk =   0.0190476
        k(   18) = (   0.2021252   0.1166971   0.1800176), wk =   0.0380952
        k(   19) = (   0.2021252   0.1166971   0.3600351), wk =   0.0380952
        k(   20) = (   0.2021252   0.1166971   0.5400527), wk =   0.0380952
        k(   21) = (   0.2021252   0.3111922   0.0000000), wk =   0.0190476
        k(   22) = (   0.2021252   0.3111922   0.1800176), wk =   0.0380952
        k(   23) = (   0.2021252   0.3111922   0.3600351), wk =   0.0380952
        k(   24) = (   0.2021252   0.3111922   0.5400527), wk =   0.0380952
        k(   25) = (   0.2021252   0.5056873   0.0000000), wk =   0.0190476
        k(   26) = (   0.2021252   0.5056873   0.1800176), wk =   0.0380952
        k(   27) = (   0.2021252   0.5056873   0.3600351), wk =   0.0380952
        k(   28) = (   0.2021252   0.5056873   0.5400527), wk =   0.0380952
        k(   29) = (   0.2021252  -0.4667882   0.0000000), wk =   0.0190476
        k(   30) = (   0.2021252  -0.4667882   0.1800176), wk =   0.0380952
        k(   31) = (   0.2021252  -0.4667882   0.3600351), wk =   0.0380952
        k(   32) = (   0.2021252  -0.4667882   0.5400527), wk =   0.0380952
        k(   33) = (   0.2021252  -0.2722931   0.0000000), wk =   0.0190476
        k(   34) = (   0.2021252  -0.2722931   0.1800176), wk =   0.0380952
        k(   35) = (   0.2021252  -0.2722931   0.3600351), wk =   0.0380952
        k(   36) = (   0.2021252  -0.2722931   0.5400527), wk =   0.0380952
        k(   37) = (   0.2021252  -0.0777980   0.0000000), wk =   0.0190476
        k(   38) = (   0.2021252  -0.0777980   0.1800176), wk =   0.0380952
        k(   39) = (   0.2021252  -0.0777980   0.3600351), wk =   0.0380952
        k(   40) = (   0.2021252  -0.0777980   0.5400527), wk =   0.0380952
        k(   41) = (   0.4042505   0.2333941   0.0000000), wk =   0.0190476
        k(   42) = (   0.4042505   0.2333941   0.1800176), wk =   0.0380952
        k(   43) = (   0.4042505   0.2333941   0.3600351), wk =   0.0380952
        k(   44) = (   0.4042505   0.2333941   0.5400527), wk =   0.0380952
        k(   45) = (   0.4042505   0.4278892   0.0000000), wk =   0.0190476
        k(   46) = (   0.4042505   0.4278892   0.1800176), wk =   0.0380952
        k(   47) = (   0.4042505   0.4278892   0.3600351), wk =   0.0380952
        k(   48) = (   0.4042505   0.4278892   0.5400527), wk =   0.0380952
        k(   49) = (   0.4042505   0.6223843   0.0000000), wk =   0.0190476
        k(   50) = (   0.4042505   0.6223843   0.1800176), wk =   0.0380952
        k(   51) = (   0.4042505   0.6223843   0.3600351), wk =   0.0380952
        k(   52) = (   0.4042505   0.6223843   0.5400527), wk =   0.0380952
        k(   53) = (   0.4042505  -0.3500912   0.0000000), wk =   0.0190476
        k(   54) = (   0.4042505  -0.3500912   0.1800176), wk =   0.0380952
        k(   55) = (   0.4042505  -0.3500912   0.3600351), wk =   0.0380952
        k(   56) = (   0.4042505  -0.3500912   0.5400527), wk =   0.0380952
        k(   57) = (   0.4042505  -0.1555961   0.0000000), wk =   0.0190476
        k(   58) = (   0.4042505  -0.1555961   0.1800176), wk =   0.0380952
        k(   59) = (   0.4042505  -0.1555961   0.3600351), wk =   0.0380952
        k(   60) = (   0.4042505  -0.1555961   0.5400527), wk =   0.0380952
        k(   61) = (   0.4042505   0.0388990   0.0000000), wk =   0.0190476
        k(   62) = (   0.4042505   0.0388990   0.1800176), wk =   0.0380952
        k(   63) = (   0.4042505   0.0388990   0.3600351), wk =   0.0380952
        k(   64) = (   0.4042505   0.0388990   0.5400527), wk =   0.0380952

     Largest allocated arrays     est. size (Mb)     dimensions
     Largest temporary arrays     est. size (Mb)     dimensions

     Initial potential from superposition of free atoms
     Check: negative starting charge=   -0.000649

     starting charge   77.94326, renormalised to  116.00000

     negative rho (up, down):  0.965E-03 0.000E+00
     Starting wfc are  120 randomized atomic wfcs

     Writing output data file Prototype-La-hP8-Mg3Cd.save

     Self-consistent Calculation

[...]

     negative rho (up, down):  0.806E-04 0.000E+00

[...]

     iteration # 14     ecut=    40.00 Ry     beta=0.70
     CG style diagonalization
     c_bands:  1 eigenvalues not converged
     c_bands:  1 eigenvalues not converged
     c_bands:  1 eigenvalues not converged
     ethr =  4.74E-07,  avg # of iterations =  3.5

[...]

     total energy              =   -1016.50030270 Ry
     Harris-Foulkes estimate   =   -1016.50031592 Ry
     estimated scf accuracy    <       0.00004344 Ry

     iteration # 16     ecut=    40.00 Ry     beta=0.70
     CG style diagonalization
     ethr =  3.75E-08,  avg # of iterations =  3.2

     End of self-consistent calculation

[...]

          k = 0.4043 0.0389 0.5401 (  4984 PWs)   bands (ev):

   -53.8727 -53.8714 -22.2239 -22.2195 -22.2009 -22.1944 -22.1875 -22.1859
   -21.4343 -21.3560 -21.2866 -21.2527 -21.2233 -21.1957  -2.3370  -2.3063
    -2.2182  -2.1800  -2.0130  -1.9584  -1.4361  -1.2965  -1.1349  -1.1173
    -0.9432  -0.8335  -0.7569  -0.7065  -0.6481  -0.5468  -0.4810  -0.4602
    15.0292  15.0755  15.1447  15.1966  15.3039  15.3315  15.4368  15.4880
    15.5960  15.6830  16.6517  16.8083  18.4236  18.6665  18.8699  18.9125
    19.3607  19.6551  19.7813  19.9125  20.0706  20.2374  20.6695  20.7727
    21.1295  21.2105  21.4368  21.6458  22.3343  22.3511  22.4415  23.2458
    23.5687  23.9313  24.5081  24.5386  24.6277  24.9043

     the Fermi energy is    21.5045 ev

!    total energy              =   -1016.50029965 Ry
     Harris-Foulkes estimate   =   -1016.50030660 Ry
     estimated scf accuracy    <       0.00000739 Ry

     The total energy is the sum of the following terms:

     one-electron contribution =     -89.87633940 Ry
     hartree contribution      =     124.72476859 Ry
     xc contribution           =    -113.58428189 Ry
     ewald contribution        =    -937.25914865 Ry
     smearing contrib. (-TS)   =      -0.50529831 Ry

     convergence has been achieved in  16 iterations

     Forces acting on atoms (Ry/au):

     atom    1 type  1   force =     0.00549088    0.00317016    0.00000000
     atom    2 type  1   force =     0.00549088   -0.00317016    0.00000000
     atom    3 type  1   force =    -0.00549088   -0.00317016    0.00000000
     atom    4 type  1   force =    -0.00549088    0.00317016    0.00000000
     atom    5 type  1   force =     0.00000000   -0.00634032    0.00000000
     atom    6 type  1   force =     0.00000000    0.00634032    0.00000000
     atom    7 type  2   force =     0.00000000    0.00000000    0.00000000
     atom    8 type  2   force =     0.00000000    0.00000000    0.00000000

     Total force =     0.015531     Total SCF correction =     0.004902
     SCF correction compared to forces is large: reduce conv_thr to get better values

     entering subroutine stress ...

          total   stress  (Ry/bohr**3)                   (kbar)     P=   -6.43
  -0.00008949   0.00000000   0.00000000        -13.16      0.00      0.00
   0.00000000  -0.00008949   0.00000000          0.00    -13.16      0.00
   0.00000000   0.00000000   0.00004792          0.00      0.00      7.05

     Writing output data file Prototype-La-hP8-Mg3Cd.save

     General routines

     Parallel routines

   This run was terminated on:  17:10:20  22Mar2018

   JOB DONE.