     Program PWSCF v.5.0.2 starts on 22Mar2018 at 16:20:29

     Current dimensions of program PWSCF are:
     Max number of different atomic species (ntypx) = 10
     Max number of k-points (npk) =  40000
     Max angular momentum in pseudopotentials (lmaxx) =  3
     Waiting for input...
     Reading input from standard input

     Subspace diagonalization in iterative solution of the eigenvalue problem:
     a serial algorithm will be used

     bravais-lattice index     =            0
     lattice parameter (alat)  =       8.5346  a.u.
     unit-cell volume          =     621.6493 (a.u.)^3
     number of atoms/cell      =            8
     number of atomic types    =            2
     number of electrons       =       116.00
     number of Kohn-Sham states=           70
     kinetic-energy cutoff     =      40.0000  Ry
     charge density cutoff     =     160.0000  Ry
     convergence threshold     =      1.0E-04
     mixing beta               =       0.7000
     number of iterations used =            8  plain     mixing
     Exchange-correlation      = SLA-PZ-NOGX-NOGC ( 1 1 0 0 0)
     EXX-fraction              =        0.00
     nstep                     =           50

     celldm(1)=   8.534573  celldm(2)=   0.000000  celldm(3)=   0.000000
     celldm(4)=   0.000000  celldm(5)=   0.000000  celldm(6)=   0.000000

     crystal axes: (cart. coord. in units of alat)
               a(1) = (   1.000000   0.000000   0.000000 )
               a(2) = (   0.000000   1.000000   0.000000 )
               a(3) = (   0.000000   0.000000   1.000000 )

     reciprocal axes: (cart. coord. in units 2 pi/alat)
               b(1) = (  1.000000  0.000000  0.000000 )
               b(2) = (  0.000000  1.000000  0.000000 )
               b(3) = (  0.000000  0.000000  1.000000 )

     PseudoPot. # 1 for Pr read from file:
     /home/cwx6513/pp.La/Pr.UPF
     MD5 check sum: 70e2b4b153859e92c8c91247dfc63203
     Pseudo is Norm-conserving, Zval = 13.0
     Generated in analytical, separable form
     Using radial grid of 1255 points,  6 beta functions with:
                l(1) =   0
                l(2) =   0
                l(3) =   1
                l(4) =   1
                l(5) =   2
                l(6) =   3

     PseudoPot. # 2 for Tb read from file:
     /home/cwx6513/pp.La/Tb.UPF
     MD5 check sum: 3d6088a3f0cf7fd2e110c43f7f8e95c2
     Pseudo is Norm-conserving, Zval = 19.0
     Generated in analytical, separable form
     Using radial grid of 1263 points,  6 beta functions with:
                l(1) =   0
                l(2) =   0
                l(3) =   1
                l(4) =   1
                l(5) =   2
                l(6) =   3

     atomic species   valence    mass     pseudopotential
        Cr            13.00    51.99610     Pr( 1.00)
        Si            19.00    28.08550     Tb( 1.00)

     48 Sym. Ops., with inversion, found (24 have fractional translation)

   Cartesian axes

     site n.     atom                  positions (alat units)
         1           Cr  tau(   1) = (   0.0000000   0.5000000   0.2500000  )
         2           Cr  tau(   2) = (   0.0000000   0.5000000   0.7500000  )
         3           Cr  tau(   3) = (   0.5000000   0.7500000   0.0000000  )
         4           Cr  tau(   4) = (   0.5000000   0.2500000   0.0000000  )
         5           Cr  tau(   5) = (   0.7500000   0.0000000   0.5000000  )
         6           Cr  tau(   6) = (   0.2500000   0.0000000   0.5000000  )
         7           Si  tau(   7) = (   0.5000000   0.5000000   0.5000000  )
         8           Si  tau(   8) = (   0.0000000   0.0000000   0.0000000  )

     number of k points=    48  gaussian smearing, width (Ry)=  0.1000
                       cart. coord. in units 2pi/alat
        k(    1) = (   0.0000000   0.0000000   0.0000000), wk =   0.0095238
        k(    2) = (   0.0000000   0.0000000   0.1428571), wk =   0.0190476
        k(    3) = (   0.0000000   0.0000000   0.2857143), wk =   0.0190476
        k(    4) = (   0.0000000   0.0000000   0.4285714), wk =   0.0190476
        k(    5) = (   0.0000000   0.1666667   0.0000000), wk =   0.0190476
        k(    6) = (   0.0000000   0.1666667   0.1428571), wk =   0.0380952
        k(    7) = (   0.0000000   0.1666667   0.2857143), wk =   0.0380952
        k(    8) = (   0.0000000   0.1666667   0.4285714), wk =   0.0380952
        k(    9) = (   0.0000000   0.3333333   0.0000000), wk =   0.0190476
        k(   10) = (   0.0000000   0.3333333   0.1428571), wk =   0.0380952
        k(   11) = (   0.0000000   0.3333333   0.2857143), wk =   0.0380952
        k(   12) = (   0.0000000   0.3333333   0.4285714), wk =   0.0380952
        k(   13) = (   0.0000000  -0.5000000   0.0000000), wk =   0.0095238
        k(   14) = (   0.0000000  -0.5000000   0.1428571), wk =   0.0190476
        k(   15) = (   0.0000000  -0.5000000   0.2857143), wk =   0.0190476
        k(   16) = (   0.0000000  -0.5000000   0.4285714), wk =   0.0190476
        k(   17) = (   0.2000000   0.0000000   0.0000000), wk =   0.0190476
        k(   18) = (   0.2000000   0.0000000   0.1428571), wk =   0.0380952
        k(   19) = (   0.2000000   0.0000000   0.2857143), wk =   0.0380952
        k(   20) = (   0.2000000   0.0000000   0.4285714), wk =   0.0380952
        k(   21) = (   0.2000000   0.1666667   0.0000000), wk =   0.0380952
        k(   22) = (   0.2000000   0.1666667   0.1428571), wk =   0.0761905
        k(   23) = (   0.2000000   0.1666667   0.2857143), wk =   0.0761905
        k(   24) = (   0.2000000   0.1666667   0.4285714), wk =   0.0761905
        k(   25) = (   0.2000000   0.3333333   0.0000000), wk =   0.0380952
        k(   26) = (   0.2000000   0.3333333   0.1428571), wk =   0.0761905
        k(   27) = (   0.2000000   0.3333333   0.2857143), wk =   0.0761905
        k(   28) = (   0.2000000   0.3333333   0.4285714), wk =   0.0761905
        k(   29) = (   0.2000000  -0.5000000   0.0000000), wk =   0.0190476
        k(   30) = (   0.2000000  -0.5000000   0.1428571), wk =   0.0380952
        k(   31) = (   0.2000000  -0.5000000   0.2857143), wk =   0.0380952
        k(   32) = (   0.2000000  -0.5000000   0.4285714), wk =   0.0380952
        k(   33) = (   0.4000000   0.0000000   0.0000000), wk =   0.0190476
        k(   34) = (   0.4000000   0.0000000   0.1428571), wk =   0.0380952
        k(   35) = (   0.4000000   0.0000000   0.2857143), wk =   0.0380952
        k(   36) = (   0.4000000   0.0000000   0.4285714), wk =   0.0380952
        k(   37) = (   0.4000000   0.1666667   0.0000000), wk =   0.0380952
        k(   38) = (   0.4000000   0.1666667   0.1428571), wk =   0.0761905
        k(   39) = (   0.4000000   0.1666667   0.2857143), wk =   0.0761905
        k(   40) = (   0.4000000   0.1666667   0.4285714), wk =   0.0761905
        k(   41) = (   0.4000000   0.3333333   0.0000000), wk =   0.0380952
        k(   42) = (   0.4000000   0.3333333   0.1428571), wk =   0.0761905
        k(   43) = (   0.4000000   0.3333333   0.2857143), wk =   0.0761905
        k(   44) = (   0.4000000   0.3333333   0.4285714), wk =   0.0761905
        k(   45) = (   0.4000000  -0.5000000   0.0000000), wk =   0.0190476
        k(   46) = (   0.4000000  -0.5000000   0.1428571), wk =   0.0380952
        k(   47) = (   0.4000000  -0.5000000   0.2857143), wk =   0.0380952
        k(   48) = (   0.4000000  -0.5000000   0.4285714), wk =   0.0380952

     Largest allocated arrays     est. size (Mb)     dimensions
     Largest temporary arrays     est. size (Mb)     dimensions

     Initial potential from superposition of free atoms

     starting charge   77.94326, renormalised to  116.00000
     Starting wfc are  120 randomized atomic wfcs

     Self-consistent Calculation

     iteration #  1     ecut=    40.00 Ry     beta=0.70
     CG style diagonalization
     c_bands:  4 eigenvalues not converged
     c_bands:  1 eigenvalues not converged
     c_bands:  5 eigenvalues not converged
     c_bands:  5 eigenvalues not converged
     c_bands:  4 eigenvalues not converged
     c_bands:  1 eigenvalues not converged
     c_bands:  3 eigenvalues not converged
     c_bands:  4 eigenvalues not converged
     c_bands:  2 eigenvalues not converged
     c_bands:  1 eigenvalues not converged
     c_bands:  3 eigenvalues not converged
     c_bands:  2 eigenvalues not converged
     c_bands:  1 eigenvalues not converged
     c_bands:  5 eigenvalues not converged
     c_bands:  5 eigenvalues not converged
     c_bands:  4 eigenvalues not converged
     c_bands:  3 eigenvalues not converged
     c_bands:  4 eigenvalues not converged
     c_bands:  3 eigenvalues not converged
     c_bands:  3 eigenvalues not converged
     c_bands:  2 eigenvalues not converged
     c_bands:  2 eigenvalues not converged
     c_bands:  4 eigenvalues not converged
     c_bands:  2 eigenvalues not converged
     c_bands:  3 eigenvalues not converged
     c_bands:  1 eigenvalues not converged
     c_bands:  1 eigenvalues not converged
     c_bands:  4 eigenvalues not converged
     c_bands:  1 eigenvalues not converged
     c_bands:  3 eigenvalues not converged
     c_bands:  1 eigenvalues not converged
     c_bands:  1 eigenvalues not converged
     c_bands:  3 eigenvalues not converged
     ethr =  1.00E-02,  avg # of iterations = 13.5

     total energy              =      29.20570259 Ry
     Harris-Foulkes estimate   =   -1622.36782135 Ry
     estimated scf accuracy    <    1961.28940913 Ry

     iteration #  2     ecut=    40.00 Ry     beta=0.70
     CG style diagonalization
     ethr =  1.00E-02,  avg # of iterations = 19.3

[...]

     End of self-consistent calculation

          k = 0.0000 0.0000 0.0000 (  2601 PWs)   bands (ev):

   -35.8649 -35.8562  -4.9144  -4.9144  -4.9144  -4.7199  -4.7199  -4.7199
    -4.2682  -2.5539  -2.5539   0.6234   0.6234   0.6234  11.5471  11.5471
    12.9369  15.1235  15.1235  15.1235  17.6399  17.6399  17.6399  19.5242
    19.5242  19.5242  19.8316  19.8316  19.8316  25.1425  25.1425  25.1425
    31.3376  31.3376  33.0057  33.0057  33.3954  33.3954  33.3954  33.7284
    33.7284  33.7284  33.7774  33.9962  33.9962  33.9962  34.9966  35.2104
    38.0816  38.0816  38.0816  39.1127  39.1127  40.8081  42.2660  42.2660
    42.2660  42.6361  42.6361  44.6405  44.6405  44.6405  45.5106  45.5108
    45.5107  48.0344  49.2257  49.5788  49.5790  49.5797

[...]

     the Fermi energy is    43.2087 ev

!    total energy              =   -1009.88328227 Ry
     Harris-Foulkes estimate   =   -1009.88330160 Ry
     estimated scf accuracy    <       0.00002133 Ry

     The total energy is the sum of the following terms:

     one-electron contribution =     203.51115394 Ry
     hartree contribution      =      64.52371465 Ry
     xc contribution           =    -123.26686384 Ry
     ewald contribution        =   -1154.38170598 Ry
     smearing contrib. (-TS)   =      -0.26958104 Ry

     convergence has been achieved in  11 iterations

     Forces acting on atoms (Ry/au):

     atom    1 type  1   force =     0.00000000    0.00000000    0.00000000
     atom    2 type  1   force =     0.00000000    0.00000000    0.00000000
[...]

[...]

          total   stress  (Ry/bohr**3)                   (kbar)     P=-1124.72
  -0.00764572   0.00000000   0.00000000      -1124.72      0.00      0.00
   0.00000000  -0.00764572   0.00000000          0.00  -1124.72      0.00
   0.00000000   0.00000000  -0.00764572          0.00      0.00  -1124.72

     number of scf cycles    =   3
     number of bfgs steps    =   2

     enthalpy old            =   -1013.5844883788 Ry
     enthalpy new            =   -1012.0514240394 Ry

     CASE: enthalpy_new > enthalpy_old

     new trust radius        =       0.4027391597 bohr

     trust_radius < trust_radius_min

     resetting bfgs history

     Message from routine bfgs:
     history already reset at previous step: stopping
     new conv_thr            =       0.0000010000 Ry

     new unit-cell volume =   1042.43312 a.u.^3 (   154.47265 Ang^3 )

[...]

ATOMIC_POSITIONS (crystal)
Cr       0.000000000   0.500000000   0.250000000
Cr       0.000000000   0.500000000   0.750000000
Cr       0.500000000   0.750000000   0.000000000
Cr       0.500000000   0.250000000   0.000000000
Cr       0.750000000   0.000000000   0.500000000
Cr       0.250000000   0.000000000   0.500000000
Si       0.500000000   0.500000000   0.500000000
Si       0.000000000   0.000000000   0.000000000

     Writing output data file Prototype-La-cP8-Cr3Si.save
     Check: negative starting charge=   -0.041004
     NEW-OLD atomic charge density approx. for the potential
     NEW k-points:
        k(    1) = (   0.0000000   0.0000000   0.0000000), wk =   0.0095238
        k(    2) = (   0.0000000   0.0000000   0.1202452), wk =   0.0190476
        k(    3) = (   0.0000000   0.0000000   0.2404904), wk =   0.0190476
        k(    4) = (   0.0000000   0.0000000   0.3607356), wk =   0.0190476
        k(    5) = (   0.0000000   0.1402861   0.0000000), wk =   0.0190476
        k(    6) = (   0.0000000   0.1402861   0.1202452), wk =   0.0380952
        k(    7) = (   0.0000000   0.1402861   0.2404904), wk =   0.0380952
        k(    8) = (   0.0000000   0.1402861   0.3607356), wk =   0.0380952
        k(    9) = (   0.0000000   0.2805721   0.0000000), wk =   0.0190476
        k(   10) = (   0.0000000   0.2805721   0.1202452), wk =   0.0380952
        k(   11) = (   0.0000000   0.2805721   0.2404904), wk =   0.0380952
        k(   12) = (   0.0000000   0.2805721   0.3607356), wk =   0.0380952
        k(   13) = (   0.0000000  -0.4208582   0.0000000), wk =   0.0095238
        k(   14) = (   0.0000000  -0.4208582   0.1202452), wk =   0.0190476
        k(   15) = (   0.0000000  -0.4208582   0.2404904), wk =   0.0190476
        k(   16) = (   0.0000000  -0.4208582   0.3607356), wk =   0.0190476
        k(   17) = (   0.1683433   0.0000000   0.0000000), wk =   0.0190476
        k(   18) = (   0.1683433   0.0000000   0.1202452), wk =   0.0380952
        k(   19) = (   0.1683433   0.0000000   0.2404904), wk =   0.0380952
        k(   20) = (   0.1683433   0.0000000   0.3607356), wk =   0.0380952
        k(   21) = (   0.1683433   0.1402861   0.0000000), wk =   0.0380952
        k(   22) = (   0.1683433   0.1402861   0.1202452), wk =   0.0761905
        k(   23) = (   0.1683433   0.1402861   0.2404904), wk =   0.0761905
        k(   24) = (   0.1683433   0.1402861   0.3607356), wk =   0.0761905
        k(   25) = (   0.1683433   0.2805721   0.0000000), wk =   0.0380952
        k(   26) = (   0.1683433   0.2805721   0.1202452), wk =   0.0761905
        k(   27) = (   0.1683433   0.2805721   0.2404904), wk =   0.0761905
        k(   28) = (   0.1683433   0.2805721   0.3607356), wk =   0.0761905
        k(   29) = (   0.1683433  -0.4208582   0.0000000), wk =   0.0190476
        k(   30) = (   0.1683433  -0.4208582   0.1202452), wk =   0.0380952
        k(   31) = (   0.1683433  -0.4208582   0.2404904), wk =   0.0380952
        k(   32) = (   0.1683433  -0.4208582   0.3607356), wk =   0.0380952
        k(   33) = (   0.3366865   0.0000000   0.0000000), wk =   0.0190476
        k(   34) = (   0.3366865   0.0000000   0.1202452), wk =   0.0380952
        k(   35) = (   0.3366865   0.0000000   0.2404904), wk =   0.0380952
        k(   36) = (   0.3366865   0.0000000   0.3607356), wk =   0.0380952
        k(   37) = (   0.3366865   0.1402861   0.0000000), wk =   0.0380952
        k(   38) = (   0.3366865   0.1402861   0.1202452), wk =   0.0761905
        k(   39) = (   0.3366865   0.1402861   0.2404904), wk =   0.0761905
        k(   40) = (   0.3366865   0.1402861   0.3607356), wk =   0.0761905
        k(   41) = (   0.3366865   0.2805721   0.0000000), wk =   0.0380952
        k(   42) = (   0.3366865   0.2805721   0.1202452), wk =   0.0761905
        k(   43) = (   0.3366865   0.2805721   0.2404904), wk =   0.0761905
        k(   44) = (   0.3366865   0.2805721   0.3607356), wk =   0.0761905
        k(   45) = (   0.3366865  -0.4208582   0.0000000), wk =   0.0190476
        k(   46) = (   0.3366865  -0.4208582   0.1202452), wk =   0.0380952
        k(   47) = (   0.3366865  -0.4208582   0.2404904), wk =   0.0380952
        k(   48) = (   0.3366865  -0.4208582   0.3607356), wk =   0.0380952
     Check: negative starting charge=   -0.021028

     negative rho (up, down):  0.238E+01 0.000E+00
     extrapolated charge   90.68662, renormalised to  116.00000

[...]

     The maximum number of steps has been reached.

     End of BFGS Geometry Optimization
Begin final coordinates
     new unit-cell volume =   1042.43312 a.u.^3 (   154.47265 Ang^3 )

CELL_PARAMETERS (alat=  8.53457320)
   1.188048743   0.000000000   0.000000000
   0.000000000   1.188048743   0.000000000
   0.000000000   0.000000000   1.188048743

ATOMIC_POSITIONS (crystal)
Cr       0.000000000   0.500000000   0.250000000
Cr       0.000000000   0.500000000   0.750000000
Cr       0.500000000   0.750000000   0.000000000
Cr       0.500000000   0.250000000   0.000000000
Cr       0.750000000   0.000000000   0.500000000
Cr       0.250000000   0.000000000   0.500000000
Si       0.500000000   0.500000000   0.500000000
Si       0.000000000   0.000000000   0.000000000
End final coordinates

     A final scf calculation at the relaxed structure.
     The G-vectors are recalculated for the final unit cell
     Results may differ from those at the preceding step.

     bravais-lattice index     =            0
     lattice parameter (alat)  =       8.5346  a.u.
     unit-cell volume          =    1042.4331 (a.u.)^3
     number of atoms/cell      =            8
     number of atomic types    =            2
     number of electrons       =       116.00
     number of Kohn-Sham states=           70
     kinetic-energy cutoff     =      40.0000  Ry
     charge density cutoff     =     160.0000  Ry
     convergence threshold     =      1.0E-06
     mixing beta               =       0.7000
     number of iterations used =            8  plain     mixing
     Exchange-correlation      = SLA-PZ-NOGX-NOGC ( 1 1 0 0 0)
     EXX-fraction              =        0.00

     celldm(1)=   8.534573  celldm(2)=   0.000000  celldm(3)=   0.000000
     celldm(4)=   0.000000  celldm(5)=   0.000000  celldm(6)=   0.000000

     crystal axes: (cart. coord. in units of alat)
               a(1) = (   1.188049   0.000000   0.000000 )
               a(2) = (   0.000000   1.188049   0.000000 )
               a(3) = (   0.000000   0.000000   1.188049 )

     reciprocal axes: (cart. coord. in units 2 pi/alat)
               b(1) = (  0.841716  0.000000  0.000000 )
               b(2) = (  0.000000  0.841716  0.000000 )
               b(3) = (  0.000000  0.000000  0.841716 )

     PseudoPot. # 1 for Pr read from file:
     /home/cwx6513/pp.La/Pr.UPF
     MD5 check sum: 70e2b4b153859e92c8c91247dfc63203
     Pseudo is Norm-conserving, Zval = 13.0
     Generated in analytical, separable form
     Using radial grid of 1255 points,  6 beta functions with:
                l(1) =   0
                l(2) =   0
                l(3) =   1
                l(4) =   1
                l(5) =   2
                l(6) =   3

     PseudoPot. # 2 for Tb read from file:
     /home/cwx6513/pp.La/Tb.UPF
     MD5 check sum: 3d6088a3f0cf7fd2e110c43f7f8e95c2
     Pseudo is Norm-conserving, Zval = 19.0
     Generated in analytical, separable form
     Using radial grid of 1263 points,  6 beta functions with:
                l(1) =   0
                l(2) =   0
                l(3) =   1
                l(4) =   1
                l(5) =   2
                l(6) =   3

     atomic species   valence    mass     pseudopotential
        Cr            13.00    51.99610     Pr( 1.00)
        Si            19.00    28.08550     Tb( 1.00)

     48 Sym. Ops., with inversion, found (24 have fractional translation)

   Cartesian axes

     site n.     atom                  positions (alat units)
         1           Cr  tau(   1) = (   0.0000000   0.5940244   0.2970122  )
         2           Cr  tau(   2) = (   0.0000000   0.5940244   0.8910366  )
         3           Cr  tau(   3) = (   0.5940244   0.8910366   0.0000000  )
         4           Cr  tau(   4) = (   0.5940244   0.2970122   0.0000000  )
         5           Cr  tau(   5) = (   0.8910366   0.0000000   0.5940244  )
         6           Cr  tau(   6) = (   0.2970122   0.0000000   0.5940244  )
         7           Si  tau(   7) = (   0.5940244   0.5940244   0.5940244  )
         8           Si  tau(   8) = (   0.0000000   0.0000000   0.0000000  )

     number of k points=    48  gaussian smearing, width (Ry)=  0.1000
                       cart. coord. in units 2pi/alat
        k(    1) = (   0.0000000   0.0000000   0.0000000), wk =   0.0095238
        k(    2) = (   0.0000000   0.0000000   0.1202452), wk =   0.0190476
        k(    3) = (   0.0000000   0.0000000   0.2404904), wk =   0.0190476
        k(    4) = (   0.0000000   0.0000000   0.3607356), wk =   0.0190476
        k(    5) = (   0.0000000   0.1402861   0.0000000), wk =   0.0190476
        k(    6) = (   0.0000000   0.1402861   0.1202452), wk =   0.0380952
        k(    7) = (   0.0000000   0.1402861   0.2404904), wk =   0.0380952
        k(    8) = (   0.0000000   0.1402861   0.3607356), wk =   0.0380952
        k(    9) = (   0.0000000   0.2805721   0.0000000), wk =   0.0190476
        k(   10) = (   0.0000000   0.2805721   0.1202452), wk =   0.0380952
        k(   11) = (   0.0000000   0.2805721   0.2404904), wk =   0.0380952
        k(   12) = (   0.0000000   0.2805721   0.3607356), wk =   0.0380952
        k(   13) = (   0.0000000  -0.4208582   0.0000000), wk =   0.0095238
        k(   14) = (   0.0000000  -0.4208582   0.1202452), wk =   0.0190476
        k(   15) = (   0.0000000  -0.4208582   0.2404904), wk =   0.0190476
        k(   16) = (   0.0000000  -0.4208582   0.3607356), wk =   0.0190476
        k(   17) = (   0.1683433   0.0000000   0.0000000), wk =   0.0190476
        k(   18) = (   0.1683433   0.0000000   0.1202452), wk =   0.0380952
        k(   19) = (   0.1683433   0.0000000   0.2404904), wk =   0.0380952
        k(   20) = (   0.1683433   0.0000000   0.3607356), wk =   0.0380952
        k(   21) = (   0.1683433   0.1402861   0.0000000), wk =   0.0380952
        k(   22) = (   0.1683433   0.1402861   0.1202452), wk =   0.0761905
        k(   23) = (   0.1683433   0.1402861   0.2404904), wk =   0.0761905
        k(   24) = (   0.1683433   0.1402861   0.3607356), wk =   0.0761905
        k(   25) = (   0.1683433   0.2805721   0.0000000), wk =   0.0380952
        k(   26) = (   0.1683433   0.2805721   0.1202452), wk =   0.0761905
        k(   27) = (   0.1683433   0.2805721   0.2404904), wk =   0.0761905
        k(   28) = (   0.1683433   0.2805721   0.3607356), wk =   0.0761905
        k(   29) = (   0.1683433  -0.4208582   0.0000000), wk =   0.0190476
        k(   30) = (   0.1683433  -0.4208582   0.1202452), wk =   0.0380952
        k(   31) = (   0.1683433  -0.4208582   0.2404904), wk =   0.0380952
        k(   32) = (   0.1683433  -0.4208582   0.3607356), wk =   0.0380952
        k(   33) = (   0.3366865   0.0000000   0.0000000), wk =   0.0190476
        k(   34) = (   0.3366865   0.0000000   0.1202452), wk =   0.0380952
        k(   35) = (   0.3366865   0.0000000   0.2404904), wk =   0.0380952
        k(   36) = (   0.3366865   0.0000000   0.3607356), wk =   0.0380952
        k(   37) = (   0.3366865   0.1402861   0.0000000), wk =   0.0380952
        k(   38) = (   0.3366865   0.1402861   0.1202452), wk =   0.0761905
        k(   39) = (   0.3366865   0.1402861   0.2404904), wk =   0.0761905
        k(   40) = (   0.3366865   0.1402861   0.3607356), wk =   0.0761905
        k(   41) = (   0.3366865   0.2805721   0.0000000), wk =   0.0380952
        k(   42) = (   0.3366865   0.2805721   0.1202452), wk =   0.0761905
        k(   43) = (   0.3366865   0.2805721   0.2404904), wk =   0.0761905
        k(   44) = (   0.3366865   0.2805721   0.3607356), wk =   0.0761905
        k(   45) = (   0.3366865  -0.4208582   0.0000000), wk =   0.0190476
        k(   46) = (   0.3366865  -0.4208582   0.1202452), wk =   0.0380952
        k(   47) = (   0.3366865  -0.4208582   0.2404904), wk =   0.0380952
        k(   48) = (   0.3366865  -0.4208582   0.3607356), wk =   0.0380952

     Largest allocated arrays     est. size (Mb)     dimensions
     Largest temporary arrays     est. size (Mb)     dimensions

     Initial potential from superposition of free atoms
     Check: negative starting charge=   -0.001127

     starting charge   77.94326, renormalised to  116.00000

     negative rho (up, down):  0.168E-02 0.000E+00
     Starting wfc are  120 randomized atomic wfcs

     Writing output data file Prototype-La-cP8-Cr3Si.save

     Self-consistent Calculation

[...]

     negative rho (up, down):  0.476E-04 0.000E+00

[...]

     iteration # 15     ecut=    40.00 Ry     beta=0.70
     CG style diagonalization
     c_bands:  1 eigenvalues not converged
     ethr =  1.87E-07,  avg # of iterations =  4.6

[...]

     total energy              =   -1016.12394771 Ry
     Harris-Foulkes estimate   =   -1016.12395065 Ry
     estimated scf accuracy    <       0.00000713 Ry

     iteration # 21     ecut=    40.00 Ry     beta=0.70
     CG style diagonalization
     ethr =  3.28E-09,  avg # of iterations =  3.5

     End of self-consistent calculation

[...]

          k = 0.3367-0.4209 0.3607 (  4466 PWs)   bands (ev):

   -51.3584 -51.3583 -19.7669 -19.7661 -19.7501 -19.7496 -19.7452 -19.7450
   -18.4338 -18.4046 -18.3142 -18.3112 -18.2214 -18.1874   0.4300   0.5996
     0.8124   0.8220   1.0374   1.0425   1.3511   1.4247   1.7408   1.7769
     1.8930   1.9089   2.0549   2.0657   2.1057   2.1219   2.1273   2.1752
    17.2771  17.2960  17.3873  17.3948  17.4766  17.5259  17.5674  17.5740
    17.6073  17.6235  20.3534  20.3543  21.4614  21.4757  21.9813  22.0818
    22.1234  22.1296  23.1766  23.2056  23.5358  23.5359  23.7262  23.7656
    24.9593  25.1595  25.3010  25.5326  25.6042  25.6562  26.2282  26.3121
    26.8117  26.8926  27.6172  27.6331  27.7007  27.8602

     the Fermi energy is    24.5355 ev

!    total energy              =   -1016.12394865 Ry
     Harris-Foulkes estimate   =   -1016.12394879 Ry
     estimated scf accuracy    <       0.00000016 Ry

     The total energy is the sum of the following terms:

     one-electron contribution =     -42.36996835 Ry
     hartree contribution      =     113.26977227 Ry
     xc contribution           =    -114.92154649 Ry
     ewald contribution        =    -971.66190597 Ry
     smearing contrib. (-TS)   =      -0.44030010 Ry

     convergence has been achieved in  21 iterations

     Forces acting on atoms (Ry/au):

     atom    1 type  1   force =     0.00000000    0.00000000    0.00000000
     atom    2 type  1   force =     0.00000000    0.00000000    0.00000000
     atom    3 type  1   force =     0.00000000    0.00000000    0.00000000
     atom    4 type  1   force =     0.00000000    0.00000000    0.00000000
     atom    5 type  1   force =     0.00000000    0.00000000    0.00000000
     atom    6 type  1   force =     0.00000000    0.00000000    0.00000000
     atom    7 type  2   force =     0.00000000    0.00000000    0.00000000
     atom    8 type  2   force =     0.00000000    0.00000000    0.00000000

     Total force =     0.000000     Total SCF correction =     0.000000

     entering subroutine stress ...

          total   stress  (Ry/bohr**3)                   (kbar)     P=  321.44
   0.00218511   0.00000000   0.00000000        321.44      0.00      0.00
   0.00000000   0.00218511   0.00000000          0.00    321.44      0.00
   0.00000000   0.00000000   0.00218511          0.00      0.00    321.44

     Writing output data file Prototype-La-cP8-Cr3Si.save

     General routines

     Parallel routines

   This run was terminated on:  16:51: 5  22Mar2018

   JOB DONE.