     Program PWSCF v.5.0.2 starts on 23Mar2018 at  2:18:12

     Current dimensions of program PWSCF are:
     Max number of different atomic species (ntypx) = 10
     Max number of k-points (npk) =  40000
     Max angular momentum in pseudopotentials (lmaxx) =  3
     Waiting for input...
     Reading input from standard input

     Subspace diagonalization in iterative solution of the eigenvalue problem:
     a serial algorithm will be used

     bravais-lattice index     =            0
     lattice parameter (alat)  =       8.5346  a.u.
     unit-cell volume          =     621.6493 (a.u.)^3
     number of atoms/cell      =            8
     number of atomic types    =            2
     number of electrons       =       156.00
     number of Kohn-Sham states=           94
     kinetic-energy cutoff     =      40.0000  Ry
     charge density cutoff     =     160.0000  Ry
     convergence threshold     =      1.0E-04
     mixing beta               =       0.7000
     number of iterations used =            8  plain     mixing
     Exchange-correlation      = SLA-PZ-NOGX-NOGC ( 1 1 0 0 0)
     EXX-fraction              =        0.00
     nstep                     =           50

     celldm(1)=   8.534573  celldm(2)=   0.000000  celldm(3)=   0.000000
     celldm(4)=   0.000000  celldm(5)=   0.000000  celldm(6)=   0.000000

     crystal axes: (cart. coord. in units of alat)
               a(1) = (   1.000000   0.000000   0.000000 )
               a(2) = (   0.000000   1.000000   0.000000 )
               a(3) = (   0.000000   0.000000   1.000000 )

     reciprocal axes: (cart. coord. in units 2 pi/alat)
               b(1) = (  1.000000  0.000000  0.000000 )
               b(2) = (  0.000000  1.000000  0.000000 )
               b(3) = (  0.000000  0.000000  1.000000 )

     PseudoPot. # 1 for Dy read from file:
     /home/cwx6513/pp.La/Dy.UPF
     MD5 check sum: 9597327bec62616a94a14d07f3fd9936
     Pseudo is Norm-conserving, Zval = 20.0
     Generated in analytical, separable form
     Using radial grid of 1265 points,  6 beta functions with:
                l(1) =   0
                l(2) =   0
                l(3) =   1
                l(4) =   1
                l(5) =   2
                l(6) =   3

     PseudoPot. # 2 for Gd read from file:
     /home/cwx6513/pp.La/Gd.UPF
     MD5 check sum: 09a8be538722f05520810cb6aac0efd2
     Pseudo is Norm-conserving, Zval = 18.0
     Generated in analytical, separable form
     Using radial grid of 1263 points,  6 beta functions with:
                l(1) =   0
                l(2) =   0
                l(3) =   1
                l(4) =   1
                l(5) =   2
                l(6) =   3

     atomic species   valence    mass     pseudopotential
        Cr            20.00    51.99610     Dy( 1.00)
        Si            18.00    28.08550     Gd( 1.00)

     48 Sym. Ops., with inversion, found (24 have fractional translation)

   Cartesian axes

     site n.     atom                  positions (alat units)
         1           Cr  tau(   1) = (   0.0000000   0.5000000   0.2500000  )
         2           Cr  tau(   2) = (   0.0000000   0.5000000   0.7500000  )
         3           Cr  tau(   3) = (   0.5000000   0.7500000   0.0000000  )
         4           Cr  tau(   4) = (   0.5000000   0.2500000   0.0000000  )
         5           Cr  tau(   5) = (   0.7500000   0.0000000   0.5000000  )
         6           Cr  tau(   6) = (   0.2500000   0.0000000   0.5000000  )
         7           Si  tau(   7) = (   0.5000000   0.5000000   0.5000000  )
         8           Si  tau(   8) = (   0.0000000   0.0000000   0.0000000  )

     number of k points=    48  gaussian smearing, width (Ry)=  0.1000
                       cart. coord. in units 2pi/alat
        k(    1) = (   0.0000000   0.0000000   0.0000000), wk =   0.0095238
        k(    2) = (   0.0000000   0.0000000   0.1428571), wk =   0.0190476
        k(    3) = (   0.0000000   0.0000000   0.2857143), wk =   0.0190476
        k(    4) = (   0.0000000   0.0000000   0.4285714), wk =   0.0190476
        k(    5) = (   0.0000000   0.1666667   0.0000000), wk =   0.0190476
        k(    6) = (   0.0000000   0.1666667   0.1428571), wk =   0.0380952
        k(    7) = (   0.0000000   0.1666667   0.2857143), wk =   0.0380952
        k(    8) = (   0.0000000   0.1666667   0.4285714), wk =   0.0380952
        k(    9) = (   0.0000000   0.3333333   0.0000000), wk =   0.0190476
        k(   10) = (   0.0000000   0.3333333   0.1428571), wk =   0.0380952
        k(   11) = (   0.0000000   0.3333333   0.2857143), wk =   0.0380952
        k(   12) = (   0.0000000   0.3333333   0.4285714), wk =   0.0380952
        k(   13) = (   0.0000000  -0.5000000   0.0000000), wk =   0.0095238
        k(   14) = (   0.0000000  -0.5000000   0.1428571), wk =   0.0190476
        k(   15) = (   0.0000000  -0.5000000   0.2857143), wk =   0.0190476
        k(   16) = (   0.0000000  -0.5000000   0.4285714), wk =   0.0190476
        k(   17) = (   0.2000000   0.0000000   0.0000000), wk =   0.0190476
        k(   18) = (   0.2000000   0.0000000   0.1428571), wk =   0.0380952
        k(   19) = (   0.2000000   0.0000000   0.2857143), wk =   0.0380952
        k(   20) = (   0.2000000   0.0000000   0.4285714), wk =   0.0380952
        k(   21) = (   0.2000000   0.1666667   0.0000000), wk =   0.0380952
        k(   22) = (   0.2000000   0.1666667   0.1428571), wk =   0.0761905
        k(   23) = (   0.2000000   0.1666667   0.2857143), wk =   0.0761905
        k(   24) = (   0.2000000   0.1666667   0.4285714), wk =   0.0761905
        k(   25) = (   0.2000000   0.3333333   0.0000000), wk =   0.0380952
        k(   26) = (   0.2000000   0.3333333   0.1428571), wk =   0.0761905
        k(   27) = (   0.2000000   0.3333333   0.2857143), wk =   0.0761905
        k(   28) = (   0.2000000   0.3333333   0.4285714), wk =   0.0761905
        k(   29) = (   0.2000000  -0.5000000   0.0000000), wk =   0.0190476
        k(   30) = (   0.2000000  -0.5000000   0.1428571), wk =   0.0380952
        k(   31) = (   0.2000000  -0.5000000   0.2857143), wk =   0.0380952
        k(   32) = (   0.2000000  -0.5000000   0.4285714), wk =   0.0380952
        k(   33) = (   0.4000000   0.0000000   0.0000000), wk =   0.0190476
        k(   34) = (   0.4000000   0.0000000   0.1428571), wk =   0.0380952
        k(   35) = (   0.4000000   0.0000000   0.2857143), wk =   0.0380952
        k(   36) = (   0.4000000   0.0000000   0.4285714), wk =   0.0380952
        k(   37) = (   0.4000000   0.1666667   0.0000000), wk =   0.0380952
        k(   38) = (   0.4000000   0.1666667   0.1428571), wk =   0.0761905
        k(   39) = (   0.4000000   0.1666667   0.2857143), wk =   0.0761905
        k(   40) = (   0.4000000   0.1666667   0.4285714), wk =   0.0761905
        k(   41) = (   0.4000000   0.3333333   0.0000000), wk =   0.0380952
        k(   42) = (   0.4000000   0.3333333   0.1428571), wk =   0.0761905
        k(   43) = (   0.4000000   0.3333333   0.2857143), wk =   0.0761905
        k(   44) = (   0.4000000   0.3333333   0.4285714), wk =   0.0761905
        k(   45) = (   0.4000000  -0.5000000   0.0000000), wk =   0.0190476
        k(   46) = (   0.4000000  -0.5000000   0.1428571), wk =   0.0380952
        k(   47) = (   0.4000000  -0.5000000   0.2857143), wk =   0.0380952
        k(   48) = (   0.4000000  -0.5000000   0.4285714), wk =   0.0380952

     Largest allocated arrays     est. size (Mb)     dimensions
     Largest temporary arrays     est. size (Mb)     dimensions

     Initial potential from superposition of free atoms

     Starting from uniform charge
     Starting wfc are    0 randomized atomic wfcs

     Self-consistent Calculation

     iteration #  1     ecut=    40.00 Ry     beta=0.70
     CG style diagonalization
     c_bands:  1 eigenvalues not converged
     c_bands:  4 eigenvalues not converged
     c_bands:  3 eigenvalues not converged
     c_bands:  4 eigenvalues not converged
     c_bands:  4 eigenvalues not converged
     c_bands:  3 eigenvalues not converged
     c_bands:  2 eigenvalues not converged
     c_bands:  1 eigenvalues not converged
     c_bands:  4 eigenvalues not converged
     c_bands:  3 eigenvalues not converged
     c_bands:  1 eigenvalues not converged
     c_bands:  3 eigenvalues not converged
     c_bands:  3 eigenvalues not converged
     c_bands:  5 eigenvalues not converged
     c_bands:  4 eigenvalues not converged
     c_bands:  4 eigenvalues not converged
     c_bands:  5 eigenvalues not converged
     c_bands:  1 eigenvalues not converged
     c_bands:  2 eigenvalues not converged
     c_bands:  1 eigenvalues not converged
     c_bands:  2 eigenvalues not converged
     c_bands:  3 eigenvalues not converged
     c_bands:  1 eigenvalues not converged
     c_bands:  2 eigenvalues not converged
     c_bands:  4 eigenvalues not converged
     c_bands:  4 eigenvalues not converged
     c_bands:  3 eigenvalues not converged
     c_bands:  3 eigenvalues not converged
     c_bands:  3 eigenvalues not converged
     c_bands:  2 eigenvalues not converged
     c_bands:  1 eigenvalues not converged
     c_bands:  5 eigenvalues not converged
     c_bands:  3 eigenvalues not converged
     c_bands:  1 eigenvalues not converged
     c_bands:  1 eigenvalues not converged
     c_bands:  5 eigenvalues not converged
     c_bands:  3 eigenvalues not converged
     c_bands:  1 eigenvalues not converged
     ethr =  1.00E-02,  avg # of iterations = 12.1

     total energy              =   -1836.69672252 Ry
     Harris-Foulkes estimate   =   -2191.41687177 Ry
     estimated scf accuracy    <     462.63934479 Ry

[...]

     iteration #  3     ecut=    40.00 Ry     beta=0.70
     CG style diagonalization
     ethr =  1.00E-02,  avg # of iterations =  4.1

[...]

     End of self-consistent calculation

          k = 0.0000 0.0000 0.0000 (  2601 PWs)   bands (ev):

   -38.2850 -38.1636 -38.1636 -37.5277 -37.5277 -37.5277 -23.1436 -23.1038
    -7.6919  -7.6919  -7.3463  -5.7878  -5.7878  -5.7878  -4.9006  -4.9006
    -4.9006  -4.8382  -4.8382  -4.8382  -4.5902  -4.5902  -4.5902  -3.5639
    -3.5639  -3.5639   5.2997   5.2997   5.2997   5.3685   5.3685   5.3685
    29.1686  29.1686  29.5233  29.9614  29.9614  29.9614  31.4223  32.0737
    32.8653  32.8653  32.8653  32.9403  32.9403  32.9403  33.1395  33.2443
    33.2443  36.7799  36.7799  36.9109  36.9109  36.9109  37.4107  37.4107
    37.4107  37.8596  37.8596  37.8596  38.0770  38.0770  38.0770  38.7461
    38.7461  40.9695  40.9695  40.9695  40.9831  40.9831  43.2161  43.2161
    43.2161  46.4627  46.4627  46.4627  50.9814  50.9814  51.2143  51.4688
    52.0446  52.0446  52.0446  52.5013  52.5013  52.5013  55.9843  55.9844
    55.9845  56.5071  56.5093  56.5094  56.5505  56.5492

[...]

     the Fermi energy is    49.5253 ev

!    total energy              =   -1958.63508809 Ry
     Harris-Foulkes estimate   =   -1958.63509534 Ry
     estimated scf accuracy    <       0.00000866 Ry

     The total energy is the sum of the following terms:

     one-electron contribution =     126.45967371 Ry
     hartree contribution      =     164.03950804 Ry
[...]
     new conv_thr            =       0.0000010000 Ry

[...]

          total   stress  (Ry/bohr**3)                   (kbar)     P=-1249.61
  -0.00849469   0.00000000   0.00000000      -1249.61      0.00      0.00
   0.00000000  -0.00849469   0.00000000          0.00  -1249.61      0.00
   0.00000000   0.00000000  -0.00849469          0.00      0.00  -1249.61

     number of scf cycles    =   3
     number of bfgs steps    =   2

     enthalpy old            =   -1962.4182591578 Ry
     enthalpy new            =   -1961.1437903254 Ry

     CASE: enthalpy_new > enthalpy_old

     new trust radius        =       0.2088880580 bohr

     trust_radius < trust_radius_min

     resetting bfgs history

     Message from routine bfgs:
     history already reset at previous step: stopping
     new conv_thr            =       0.0000010000 Ry

     new unit-cell volume =   1048.63744 a.u.^3 (   155.39203 Ang^3 )

[...]

ATOMIC_POSITIONS (crystal)
Cr       0.000000000   0.500000000   0.250000000
Cr       0.000000000   0.500000000   0.750000000
Cr       0.500000000   0.750000000   0.000000000
Cr       0.500000000   0.250000000   0.000000000
Cr       0.750000000   0.000000000   0.500000000
Cr       0.250000000   0.000000000   0.500000000
Si       0.500000000   0.500000000   0.500000000
Si       0.000000000   0.000000000   0.000000000

     Writing output data file Prototype-La-cP8-Cr3Si.save
     NEW-OLD atomic charge density approx. for the potential
     NEW k-points:
        k(    1) = (   0.0000000   0.0000000   0.0000000), wk =   0.0095238
        k(    2) = (   0.0000000   0.0000000   0.1200076), wk =   0.0190476
        k(    3) = (   0.0000000   0.0000000   0.2400151), wk =   0.0190476
        k(    4) = (   0.0000000   0.0000000   0.3600227), wk =   0.0190476
        k(    5) = (   0.0000000   0.1400088   0.0000000), wk =   0.0190476
        k(    6) = (   0.0000000   0.1400088   0.1200076), wk =   0.0380952
        k(    7) = (   0.0000000   0.1400088   0.2400151), wk =   0.0380952
        k(    8) = (   0.0000000   0.1400088   0.3600227), wk =   0.0380952
        k(    9) = (   0.0000000   0.2800177   0.0000000), wk =   0.0190476
        k(   10) = (   0.0000000   0.2800177   0.1200076), wk =   0.0380952
        k(   11) = (   0.0000000   0.2800177   0.2400151), wk =   0.0380952
        k(   12) = (   0.0000000   0.2800177   0.3600227), wk =   0.0380952
        k(   13) = (   0.0000000  -0.4200265   0.0000000), wk =   0.0095238
        k(   14) = (   0.0000000  -0.4200265   0.1200076), wk =   0.0190476
        k(   15) = (   0.0000000  -0.4200265   0.2400151), wk =   0.0190476
        k(   16) = (   0.0000000  -0.4200265   0.3600227), wk =   0.0190476
        k(   17) = (   0.1680106   0.0000000   0.0000000), wk =   0.0190476
        k(   18) = (   0.1680106   0.0000000   0.1200076), wk =   0.0380952
        k(   19) = (   0.1680106   0.0000000   0.2400151), wk =   0.0380952
        k(   20) = (   0.1680106   0.0000000   0.3600227), wk =   0.0380952
        k(   21) = (   0.1680106   0.1400088   0.0000000), wk =   0.0380952
        k(   22) = (   0.1680106   0.1400088   0.1200076), wk =   0.0761905
        k(   23) = (   0.1680106   0.1400088   0.2400151), wk =   0.0761905
        k(   24) = (   0.1680106   0.1400088   0.3600227), wk =   0.0761905
        k(   25) = (   0.1680106   0.2800177   0.0000000), wk =   0.0380952
        k(   26) = (   0.1680106   0.2800177   0.1200076), wk =   0.0761905
        k(   27) = (   0.1680106   0.2800177   0.2400151), wk =   0.0761905
        k(   28) = (   0.1680106   0.2800177   0.3600227), wk =   0.0761905
        k(   29) = (   0.1680106  -0.4200265   0.0000000), wk =   0.0190476
        k(   30) = (   0.1680106  -0.4200265   0.1200076), wk =   0.0380952
        k(   31) = (   0.1680106  -0.4200265   0.2400151), wk =   0.0380952
        k(   32) = (   0.1680106  -0.4200265   0.3600227), wk =   0.0380952
        k(   33) = (   0.3360212   0.0000000   0.0000000), wk =   0.0190476
        k(   34) = (   0.3360212   0.0000000   0.1200076), wk =   0.0380952
        k(   35) = (   0.3360212   0.0000000   0.2400151), wk =   0.0380952
        k(   36) = (   0.3360212   0.0000000   0.3600227), wk =   0.0380952
        k(   37) = (   0.3360212   0.1400088   0.0000000), wk =   0.0380952
        k(   38) = (   0.3360212   0.1400088   0.1200076), wk =   0.0761905
        k(   39) = (   0.3360212   0.1400088   0.2400151), wk =   0.0761905
        k(   40) = (   0.3360212   0.1400088   0.3600227), wk =   0.0761905
        k(   41) = (   0.3360212   0.2800177   0.0000000), wk =   0.0380952
        k(   42) = (   0.3360212   0.2800177   0.1200076), wk =   0.0761905
        k(   43) = (   0.3360212   0.2800177   0.2400151), wk =   0.0761905
        k(   44) = (   0.3360212   0.2800177   0.3600227), wk =   0.0761905
        k(   45) = (   0.3360212  -0.4200265   0.0000000), wk =   0.0190476
        k(   46) = (   0.3360212  -0.4200265   0.1200076), wk =   0.0380952
        k(   47) = (   0.3360212  -0.4200265   0.2400151), wk =   0.0380952
        k(   48) = (   0.3360212  -0.4200265   0.3600227), wk =   0.0380952

[...]

     The maximum number of steps has been reached.

     End of BFGS Geometry Optimization
Begin final coordinates
     new unit-cell volume =   1048.63744 a.u.^3 (   155.39203 Ang^3 )

CELL_PARAMETERS (alat=  8.53457320)
   1.190401081   0.000000000   0.000000000
   0.000000000   1.190401081   0.000000000
   0.000000000   0.000000000   1.190401081

ATOMIC_POSITIONS (crystal)
Cr       0.000000000   0.500000000   0.250000000
Cr       0.000000000   0.500000000   0.750000000
Cr       0.500000000   0.750000000   0.000000000
Cr       0.500000000   0.250000000   0.000000000
Cr       0.750000000   0.000000000   0.500000000
Cr       0.250000000   0.000000000   0.500000000
Si       0.500000000   0.500000000   0.500000000
Si       0.000000000   0.000000000   0.000000000
End final coordinates

     A final scf calculation at the relaxed structure.
     The G-vectors are recalculated for the final unit cell
     Results may differ from those at the preceding step.

     bravais-lattice index     =            0
     lattice parameter (alat)  =       8.5346  a.u.
     unit-cell volume          =    1048.6374 (a.u.)^3
     number of atoms/cell      =            8
     number of atomic types    =            2
     number of electrons       =       156.00
     number of Kohn-Sham states=           94
     kinetic-energy cutoff     =      40.0000  Ry
     charge density cutoff     =     160.0000  Ry
     convergence threshold     =      1.0E-06
     mixing beta               =       0.7000
     number of iterations used =            8  plain     mixing
     Exchange-correlation      = SLA-PZ-NOGX-NOGC ( 1 1 0 0 0)
     EXX-fraction              =        0.00

     celldm(1)=   8.534573  celldm(2)=   0.000000  celldm(3)=   0.000000
     celldm(4)=   0.000000  celldm(5)=   0.000000  celldm(6)=   0.000000

     crystal axes: (cart. coord. in units of alat)
               a(1) = (   1.190401   0.000000   0.000000 )
               a(2) = (   0.000000   1.190401   0.000000 )
               a(3) = (   0.000000   0.000000   1.190401 )

     reciprocal axes: (cart. coord. in units 2 pi/alat)
               b(1) = (  0.840053  0.000000  0.000000 )
               b(2) = (  0.000000  0.840053  0.000000 )
               b(3) = (  0.000000  0.000000  0.840053 )

     PseudoPot. # 1 for Dy read from file:
     /home/cwx6513/pp.La/Dy.UPF
     MD5 check sum: 9597327bec62616a94a14d07f3fd9936
     Pseudo is Norm-conserving, Zval = 20.0
     Generated in analytical, separable form
     Using radial grid of 1265 points,  6 beta functions with:
                l(1) =   0
                l(2) =   0
                l(3) =   1
                l(4) =   1
                l(5) =   2
                l(6) =   3

     PseudoPot. # 2 for Gd read from file:
     /home/cwx6513/pp.La/Gd.UPF
     MD5 check sum: 09a8be538722f05520810cb6aac0efd2
     Pseudo is Norm-conserving, Zval = 18.0
     Generated in analytical, separable form
     Using radial grid of 1263 points,  6 beta functions with:
                l(1) =   0
                l(2) =   0
                l(3) =   1
                l(4) =   1
                l(5) =   2
                l(6) =   3

     atomic species   valence    mass     pseudopotential
        Cr            20.00    51.99610     Dy( 1.00)
        Si            18.00    28.08550     Gd( 1.00)

     48 Sym. Ops., with inversion, found (24 have fractional translation)

   Cartesian axes

     site n.     atom                  positions (alat units)
         1           Cr  tau(   1) = (   0.0000000   0.5952005   0.2976003  )
         2           Cr  tau(   2) = (   0.0000000   0.5952005   0.8928008  )
         3           Cr  tau(   3) = (   0.5952005   0.8928008   0.0000000  )
         4           Cr  tau(   4) = (   0.5952005   0.2976003   0.0000000  )
         5           Cr  tau(   5) = (   0.8928008   0.0000000   0.5952005  )
         6           Cr  tau(   6) = (   0.2976003   0.0000000   0.5952005  )
         7           Si  tau(   7) = (   0.5952005   0.5952005   0.5952005  )
         8           Si  tau(   8) = (   0.0000000   0.0000000   0.0000000  )

     number of k points=    48  gaussian smearing, width (Ry)=  0.1000
                       cart. coord. in units 2pi/alat
        k(    1) = (   0.0000000   0.0000000   0.0000000), wk =   0.0095238
        k(    2) = (   0.0000000   0.0000000   0.1200076), wk =   0.0190476
        k(    3) = (   0.0000000   0.0000000   0.2400151), wk =   0.0190476
        k(    4) = (   0.0000000   0.0000000   0.3600227), wk =   0.0190476
        k(    5) = (   0.0000000   0.1400088   0.0000000), wk =   0.0190476
        k(    6) = (   0.0000000   0.1400088   0.1200076), wk =   0.0380952
        k(    7) = (   0.0000000   0.1400088   0.2400151), wk =   0.0380952
        k(    8) = (   0.0000000   0.1400088   0.3600227), wk =   0.0380952
        k(    9) = (   0.0000000   0.2800177   0.0000000), wk =   0.0190476
        k(   10) = (   0.0000000   0.2800177   0.1200076), wk =   0.0380952
        k(   11) = (   0.0000000   0.2800177   0.2400151), wk =   0.0380952
        k(   12) = (   0.0000000   0.2800177   0.3600227), wk =   0.0380952
        k(   13) = (   0.0000000  -0.4200265   0.0000000), wk =   0.0095238
        k(   14) = (   0.0000000  -0.4200265   0.1200076), wk =   0.0190476
        k(   15) = (   0.0000000  -0.4200265   0.2400151), wk =   0.0190476
        k(   16) = (   0.0000000  -0.4200265   0.3600227), wk =   0.0190476
        k(   17) = (   0.1680106   0.0000000   0.0000000), wk =   0.0190476
        k(   18) = (   0.1680106   0.0000000   0.1200076), wk =   0.0380952
        k(   19) = (   0.1680106   0.0000000   0.2400151), wk =   0.0380952
        k(   20) = (   0.1680106   0.0000000   0.3600227), wk =   0.0380952
        k(   21) = (   0.1680106   0.1400088   0.0000000), wk =   0.0380952
        k(   22) = (   0.1680106   0.1400088   0.1200076), wk =   0.0761905
        k(   23) = (   0.1680106   0.1400088   0.2400151), wk =   0.0761905
        k(   24) = (   0.1680106   0.1400088   0.3600227), wk =   0.0761905
        k(   25) = (   0.1680106   0.2800177   0.0000000), wk =   0.0380952
        k(   26) = (   0.1680106   0.2800177   0.1200076), wk =   0.0761905
        k(   27) = (   0.1680106   0.2800177   0.2400151), wk =   0.0761905
        k(   28) = (   0.1680106   0.2800177   0.3600227), wk =   0.0761905
        k(   29) = (   0.1680106  -0.4200265   0.0000000), wk =   0.0190476
        k(   30) = (   0.1680106  -0.4200265   0.1200076), wk =   0.0380952
        k(   31) = (   0.1680106  -0.4200265   0.2400151), wk =   0.0380952
        k(   32) = (   0.1680106  -0.4200265   0.3600227), wk =   0.0380952
        k(   33) = (   0.3360212   0.0000000   0.0000000), wk =   0.0190476
        k(   34) = (   0.3360212   0.0000000   0.1200076), wk =   0.0380952
        k(   35) = (   0.3360212   0.0000000   0.2400151), wk =   0.0380952
        k(   36) = (   0.3360212   0.0000000   0.3600227), wk =   0.0380952
        k(   37) = (   0.3360212   0.1400088   0.0000000), wk =   0.0380952
        k(   38) = (   0.3360212   0.1400088   0.1200076), wk =   0.0761905
        k(   39) = (   0.3360212   0.1400088   0.2400151), wk =   0.0761905
        k(   40) = (   0.3360212   0.1400088   0.3600227), wk =   0.0761905
        k(   41) = (   0.3360212   0.2800177   0.0000000), wk =   0.0380952
        k(   42) = (   0.3360212   0.2800177   0.1200076), wk =   0.0761905
        k(   43) = (   0.3360212   0.2800177   0.2400151), wk =   0.0761905
        k(   44) = (   0.3360212   0.2800177   0.3600227), wk =   0.0761905
        k(   45) = (   0.3360212  -0.4200265   0.0000000), wk =   0.0190476
        k(   46) = (   0.3360212  -0.4200265   0.1200076), wk =   0.0380952
        k(   47) = (   0.3360212  -0.4200265   0.2400151), wk =   0.0380952
        k(   48) = (   0.3360212  -0.4200265   0.3600227), wk =   0.0380952

     Largest allocated arrays     est. size (Mb)     dimensions
     Largest temporary arrays     est. size (Mb)     dimensions

     Initial potential from superposition of free atoms

     Starting from uniform charge
     Starting wfc are    0 randomized atomic wfcs

     Writing output data file Prototype-La-cP8-Cr3Si.save

     Self-consistent Calculation

[...]

     iteration # 10     ecut=    40.00 Ry     beta=0.70
     CG style diagonalization
     c_bands:  1 eigenvalues not converged
     c_bands:  1 eigenvalues not converged
     c_bands:  1 eigenvalues not converged
     ethr =  4.20E-07,  avg # of iterations =  3.7

[...]

     total energy              =   -1965.95082145 Ry
     Harris-Foulkes estimate   =   -1965.95082329 Ry
     estimated scf accuracy    <       0.00000296 Ry

     iteration # 12     ecut=    40.00 Ry     beta=0.70
     CG style diagonalization
     ethr =  1.89E-09,  avg # of iterations =  3.6

     End of self-consistent calculation

[...]

          k = 0.3360-0.4200 0.3600 (  4498 PWs)   bands (ev):

   -56.8529 -56.8485 -56.8414 -56.8411 -56.8334 -56.8296 -42.2228 -42.2228
   -24.0427 -24.0080 -23.9206 -23.9204 -23.8268 -23.7921 -23.7617 -23.7614
   -23.7225 -23.7171 -23.7103 -23.7069 -23.7010 -23.6925 -23.6845 -23.6813
   -23.6762 -23.6725 -13.2755 -13.2754 -13.2739 -13.2739 -13.2714 -13.2713
    15.9858  16.0059  16.0351  16.0823  16.0935  16.2080  16.2284  16.2419
    16.4345  16.4392  16.5064  16.5456  16.5766  16.5929  16.6833  16.6901
    17.0696  17.0717  17.2107  17.2316  17.3462  17.3652  17.7524  17.8996
    18.0503  18.1072  18.2179  18.2384  18.3493  18.3628  20.5184  20.5189
    20.8871  20.9465  21.0941  21.2158  22.7321  22.7361  22.7667  22.7720
    23.1247  23.1997  23.2991  23.3946  23.7967  23.8827  24.4753  24.6027
    31.3390  31.6005  32.3407  32.3978  33.1046  33.3605  33.7920  34.0278
    34.5136  34.5508  34.8694  34.9402  34.9807  35.1469

     the Fermi energy is    26.3483 ev

!    total energy              =   -1965.95082207 Ry
     Harris-Foulkes estimate   =   -1965.95082211 Ry
     estimated scf accuracy    <       0.00000005 Ry

     The total energy is the sum of the following terms:

     one-electron contribution =    -340.31265610 Ry
     hartree contribution      =     286.45573954 Ry
     xc contribution           =    -184.48506034 Ry
     ewald contribution        =   -1727.44980382 Ry
     smearing contrib. (-TS)   =      -0.15904135 Ry

     convergence has been achieved in  12 iterations

     Forces acting on atoms (Ry/au):

     atom    1 type  1   force =     0.00000000    0.00000000    0.00000000
     atom    2 type  1   force =     0.00000000    0.00000000    0.00000000
     atom    3 type  1   force =     0.00000000    0.00000000    0.00000000
     atom    4 type  1   force =     0.00000000    0.00000000    0.00000000
     atom    5 type  1   force =     0.00000000    0.00000000    0.00000000
     atom    6 type  1   force =     0.00000000    0.00000000    0.00000000
     atom    7 type  2   force =     0.00000000    0.00000000    0.00000000
     atom    8 type  2   force =     0.00000000    0.00000000    0.00000000

     Total force =     0.000000     Total SCF correction =     0.000000

     entering subroutine stress ...

          total   stress  (Ry/bohr**3)                   (kbar)     P=   39.00
   0.00026511   0.00000000   0.00000000         39.00      0.00      0.00
   0.00000000   0.00026511   0.00000000          0.00     39.00      0.00
   0.00000000   0.00000000   0.00026511          0.00      0.00     39.00

     Writing output data file Prototype-La-cP8-Cr3Si.save

     General routines

     Parallel routines

   This run was terminated on:   2:48:35  23Mar2018

   JOB DONE.