     Program PWSCF v.5.0.2 starts on 23Mar2018 at  2:18:12

     Current dimensions of program PWSCF are:
     Max number of different atomic species (ntypx) = 10
     Max number of k-points (npk) =  40000
     Max angular momentum in pseudopotentials (lmaxx) =  3
     Waiting for input...
     Reading input from standard input

     Subspace diagonalization in iterative solution of the eigenvalue problem:
     a serial algorithm will be used

     bravais-lattice index     =            0
     lattice parameter (alat)  =       9.9235  a.u.
     unit-cell volume          =    1361.0366 (a.u.)^3
     number of atoms/cell      =           12
     number of atomic types    =            2
     number of electrons       =       224.00
     number of Kohn-Sham states=          134
     kinetic-energy cutoff     =      40.0000  Ry
     charge density cutoff     =     160.0000  Ry
     convergence threshold     =      1.0E-04
     mixing beta               =       0.7000
     number of iterations used =            8  plain     mixing
     Exchange-correlation      = SLA-PZ-NOGX-NOGC ( 1 1 0 0 0)
     EXX-fraction              =        0.00
     nstep                     =           50

     celldm(1)=   9.923489  celldm(2)=   0.000000  celldm(3)=   0.000000
     celldm(4)=   0.000000  celldm(5)=   0.000000  celldm(6)=   0.000000

     crystal axes: (cart. coord. in units of alat)
               a(1) = (   1.000000   0.000000   0.000000 )
               a(2) = (  -0.500000   0.866025   0.000000 )
               a(3) = (   0.000000   0.000000   1.608222 )

     reciprocal axes: (cart. coord. in units 2 pi/alat)
               b(1) = (  1.000000  0.577350  0.000000 )
               b(2) = (  0.000000  1.154701  0.000000 )
               b(3) = (  0.000000  0.000000  0.621805 )

     PseudoPot. # 1 for Dy read from file:
     /home/cwx6513/pp.La/Dy.UPF
     MD5 check sum: 9597327bec62616a94a14d07f3fd9936
     Pseudo is Norm-conserving, Zval = 20.0
     Generated in analytical, separable form
     Using radial grid of 1265 points,  6 beta functions with:
                l(1) =   0
                l(2) =   0
                l(3) =   1
                l(4) =   1
                l(5) =   2
                l(6) =   3

     PseudoPot. # 2 for Gd read from file:
     /home/cwx6513/pp.La/Gd.UPF
     MD5 check sum: 09a8be538722f05520810cb6aac0efd2
     Pseudo is Norm-conserving, Zval = 18.0
     Generated in analytical, separable form
     Using radial grid of 1263 points,  6 beta functions with:
                l(1) =   0
                l(2) =   0
                l(3) =   1
                l(4) =   1
                l(5) =   2
                l(6) =   3

     atomic species   valence    mass     pseudopotential
        Mg            20.00    24.30500     Dy( 1.00)
        Zn            18.00    65.39000     Gd( 1.00)

     24 Sym. Ops., with inversion, found (12 have fractional translation)

   Cartesian axes

     site n.     atom                  positions (alat units)
         1           Mg  tau(   1) = (  -0.0000005   0.5773506   0.1003820  )
         2           Mg  tau(   2) = (   0.5000005   0.2886748   0.9044931  )
         3           Mg  tau(   3) = (   0.5000005   0.2886748   1.5078402  )
         4           Mg  tau(   4) = (  -0.0000005   0.5773506   0.7037291  )
         5           Zn  tau(   5) = (   0.0000000   0.0000000   0.0000000  )
         6           Zn  tau(   6) = (   0.0000000   0.0000000   0.8041111  )
         7           Zn  tau(   7) = (   0.0000000   0.2950739   1.2061667  )
         8           Zn  tau(   8) = (   0.7444585   0.1475370   0.4020556  )
         9           Zn  tau(   9) = (   0.2555415   0.1475370   0.4020556  )
        10           Zn  tau(  10) = (   0.2444585   0.7184884   1.2061667  )
        11           Zn  tau(  11) = (  -0.2444585   0.7184884   1.2061667  )
        12           Zn  tau(  12) = (   0.5000000   0.5709515   0.4020556  )

     number of k points=    12  gaussian smearing, width (Ry)=  0.1000
                       cart. coord. in units 2pi/alat
        k(    1) = (   0.0000000   0.0000000   0.0000000), wk =   0.0833333
        k(    2) = (   0.0000000   0.0000000   0.1554512), wk =   0.1666667
        k(    3) = (   0.0000000   0.0000000  -0.3109023), wk =   0.0833333
        k(    4) = (   0.0000000   0.3849002   0.0000000), wk =   0.1666667
        k(    5) = (   0.0000000   0.3849002   0.1554512), wk =   0.3333333
        k(    6) = (   0.0000000   0.3849002  -0.3109023), wk =   0.1666667
        k(    7) = (  -0.5000000  -0.2886751   0.0000000), wk =   0.0833333
        k(    8) = (  -0.5000000  -0.2886751   0.1554512), wk =   0.1666667
        k(    9) = (  -0.5000000  -0.2886751  -0.3109023), wk =   0.0833333
        k(   10) = (  -0.5000000   0.0962250   0.0000000), wk =   0.1666667
        k(   11) = (  -0.5000000   0.0962250   0.1554512), wk =   0.3333333
        k(   12) = (  -0.5000000   0.0962250  -0.3109023), wk =   0.1666667

     Largest allocated arrays     est. size (Mb)     dimensions
     Largest temporary arrays     est. size (Mb)     dimensions

     Initial potential from superposition of free atoms

     Starting from uniform charge
     Starting wfc are    0 randomized atomic wfcs

     Self-consistent Calculation

     iteration #  1     ecut=    40.00 Ry     beta=0.70
     CG style diagonalization
     ethr =  1.00E-02,  avg # of iterations = 17.5

     total energy              =   -2461.62365150 Ry
     Harris-Foulkes estimate   =   -3127.34887194 Ry
     estimated scf accuracy    <     861.66942180 Ry

[...]

     iteration #  3     ecut=    40.00 Ry     beta=0.70
     CG style diagonalization
     c_bands:  1 eigenvalues not converged
     c_bands:  1 eigenvalues not converged
     ethr =  1.00E-02,  avg # of iterations =  7.4

[...]

     negative rho (up, down):  0.392E-04 0.000E+00

[...]

     End of self-consistent calculation

          k = 0.0000 0.0000 0.0000 (  5769 PWs)   bands (ev):

   -52.9289 -52.9287 -52.9180 -52.9155 -39.3846 -39.2987 -38.9918 -38.9578
   -38.9577 -38.9559 -38.9558 -38.8929 -19.9092 -19.9023 -19.9014 -19.9014
   -19.8790 -19.8790 -19.8294 -19.8097 -19.8077 -19.8076 -19.8067 -19.8066
   -12.2401 -11.8824 -11.3385 -10.8534 -10.8534 -10.7690 -10.7689 -10.6197
   -10.6196 -10.3608 -10.0621 -10.0499 -10.0498  -9.9931  -9.9930  -9.4743
    -9.4672  -9.4114  -9.4114  -9.4098  -9.3803  -9.3803  -9.2994  -9.2994
    18.7791  19.2584  19.3539  19.5830  19.6733  19.6733  20.0270  20.0270
    20.2998  20.3554  20.4695  20.4696  20.4771  20.5877  20.6289  20.6289
    20.8721  20.8721  21.1208  21.1208  21.2505  21.2505  21.2604  21.2605
    21.7196  21.7837  21.7837  22.0211  22.0211  22.1528  22.1528  22.7761
    22.9168  23.0091  23.0092  23.7542  23.8890  23.8890  24.6243  24.6243
    24.8962  24.8962  25.4885  25.6421  26.2036  26.2037  26.8729  26.9171
    27.1526  27.4078  27.4078  27.5562  27.5562  27.6659  27.6660  27.9676
    27.9676  29.4639  29.4639  29.8691  29.8691  30.4814  31.0000  31.4934
    31.6043  31.6125  32.0196  32.0196  32.2216  32.3488  32.3488  34.0566
    34.1793  34.1794  34.8845  35.4495  35.9150  35.9151  36.4657  37.6362
    37.6363  37.9395  38.2822  38.3707  38.3710  38.6695

[...]

          k =-0.5000-0.2887 0.0000 (  5800 PWs)   bands (ev):

[...]

     the Fermi energy is    30.2451 ev

!    total energy              =   -2651.76162439 Ry
     Harris-Foulkes estimate   =   -2651.76167720 Ry
     estimated scf accuracy    <       0.00006049 Ry

     The total energy is the sum of the following terms:

     one-electron contribution =    -233.04424420 Ry
     hartree contribution      =     324.02379940 Ry
     xc contribution           =    -259.96195787 Ry
     ewald contribution        =   -2482.46434722 Ry
     smearing contrib. (-TS)   =      -0.31487449 Ry

     convergence has been achieved in  10 iterations

     Forces acting on atoms (Ry/au):

     atom    1 type  1   force =     0.00000000    0.00000000    0.00121009
     atom    2 type  1   force =     0.00000000    0.00000000    0.00121009
     atom    3 type  1   force =     0.00000000    0.00000000   -0.00121009
     atom    4 type  1   force =     0.00000000    0.00000000   -0.00121009
     atom    5 type  2   force =     0.00000000    0.00000000    0.00000000
     atom    6 type  2   force =     0.00000000    0.00000000    0.00000000
     atom    7 type  2   force =     0.00000000    0.03655190    0.00000000
     atom    8 type  2   force =    -0.03165487    0.01827595    0.00000000
     atom    9 type  2   force =     0.03165487    0.01827595    0.00000000
     atom   10 type  2   force =    -0.03165487   -0.01827595    0.00000000
     atom   11 type  2   force =     0.03165487   -0.01827595    0.00000000
     atom   12 type  2   force =     0.00000000   -0.03655190    0.00000000

     Total force =     0.089566     Total SCF correction =     0.000000

     entering subroutine stress ...

          total   stress  (Ry/bohr**3)                   (kbar)     P=  668.97
   0.00445131   0.00000000   0.00000000        654.81      0.00      0.00
   0.00000000   0.00445131   0.00000000          0.00    654.81      0.00
   0.00000000   0.00000000   0.00474005          0.00      0.00    697.28

     BFGS Geometry Optimization

     number of scf cycles    =   1
     number of bfgs steps    =   0

     enthalpy new            =   -2651.7616243915 Ry

     new trust radius        =       0.5000000000 bohr
     new conv_thr            =       0.0001000000 Ry

     new unit-cell volume =   1644.11605 a.u.^3 (   243.63286 Ang^3 )

CELL_PARAMETERS (alat=  9.92348860)
   1.063637149   0.000000000   0.000000000
  -0.531818574   0.921136791   0.000000000
   0.000000000   0.000000000   1.717203317

ATOMIC_POSITIONS (crystal)
Mg       0.333333000   0.666667000   0.062461360
Mg       0.666667000   0.333333000   0.562461360
Mg       0.666667000   0.333333000   0.937538640
Mg       0.333333000   0.666667000   0.437538640
Zn       0.000000000   0.000000000   0.000000000
Zn       0.000000000   0.000000000   0.500000000
Zn       0.171577095   0.343154189   0.750000000
Zn       0.828422905   0.171577095   0.250000000
Zn       0.343154189   0.171577095   0.250000000
Zn       0.656845811   0.828422905   0.750000000
Zn       0.171577095   0.828422905   0.750000000
Zn       0.828422905   0.656845811   0.250000000

     Writing output data file Prototype-La-hP12-MgZn2.save
     NEW-OLD atomic charge density approx. for the potential
     NEW k-points:
        k(    1) = (   0.0000000   0.0000000   0.0000000), wk =   0.0833333
        k(    2) = (   0.0000000   0.0000000   0.1455856), wk =   0.1666667
        k(    3) = (   0.0000000   0.0000000  -0.2911711), wk =   0.0833333
        k(    4) = (   0.0000000   0.3618717   0.0000000), wk =   0.1666667
        k(    5) = (   0.0000000   0.3618717   0.1455856), wk =   0.3333333
        k(    6) = (   0.0000000   0.3618717  -0.2911711), wk =   0.1666667
        k(    7) = (  -0.4700851  -0.2714038   0.0000000), wk =   0.0833333
        k(    8) = (  -0.4700851  -0.2714038   0.1455856), wk =   0.1666667
        k(    9) = (  -0.4700851  -0.2714038  -0.2911711), wk =   0.0833333
        k(   10) = (  -0.4700851   0.0904679   0.0000000), wk =   0.1666667
        k(   11) = (  -0.4700851   0.0904679   0.1455856), wk =   0.3333333
        k(   12) = (  -0.4700851   0.0904679  -0.2911711), wk =   0.1666667

[...]

     enthalpy old            =   -2651.7616243915 Ry
     enthalpy new            =   -2651.9501088967 Ry

     CASE: enthalpy_new < enthalpy_old

     small trust_radius: resetting bfgs history

     new trust radius        =       0.4843489843 bohr
     new conv_thr            =       0.0000285483 Ry

[...]

     number of scf cycles    =   3
     number of bfgs steps    =   2

     enthalpy old            =   -2651.9501088967 Ry
     enthalpy new            =   -2651.8060612803 Ry

     CASE: enthalpy_new > enthalpy_old

     new trust radius        =       0.1943549416 bohr

     trust_radius < trust_radius_min

     resetting bfgs history

     Message from routine bfgs:
     history already reset at previous step: stopping
     new conv_thr            =       0.0000285483 Ry

     new unit-cell volume =   1355.26351 a.u.^3 (   200.82933 Ang^3 )

[...]

ATOMIC_POSITIONS (crystal)
Mg       0.333333000   0.666667000   0.062902151
Mg       0.666667000   0.333333000   0.562902151
Mg       0.666667000   0.333333000   0.937097849
Mg       0.333333000   0.666667000   0.437097849
Zn       0.000000000   0.000000000   0.000000000
Zn       0.000000000   0.000000000   0.500000000
Zn       0.169816545   0.339633090   0.750000000
Zn       0.830183455   0.169816545   0.250000000
Zn       0.339633090   0.169816545   0.250000000
Zn       0.660366910   0.830183455   0.750000000
Zn       0.169816545   0.830183455   0.750000000
Zn       0.830183455   0.660366910   0.250000000

     Writing output data file Prototype-La-hP12-MgZn2.save
     NEW-OLD atomic charge density approx. for the potential
     NEW k-points:
        k(    1) = (   0.0000000   0.0000000   0.0000000), wk =   0.0833333
        k(    2) = (   0.0000000   0.0000000   0.1554263), wk =   0.1666667
        k(    3) = (   0.0000000   0.0000000  -0.3108526), wk =   0.0833333
        k(    4) = (   0.0000000   0.3857500   0.0000000), wk =   0.1666667
        k(    5) = (   0.0000000   0.3857500   0.1554263), wk =   0.3333333
        k(    6) = (   0.0000000   0.3857500  -0.3108526), wk =   0.1666667
        k(    7) = (  -0.5011039  -0.2893125   0.0000000), wk =   0.0833333
        k(    8) = (  -0.5011039  -0.2893125   0.1554263), wk =   0.1666667
        k(    9) = (  -0.5011039  -0.2893125  -0.3108526), wk =   0.0833333
        k(   10) = (  -0.5011039   0.0964375   0.0000000), wk =   0.1666667
        k(   11) = (  -0.5011039   0.0964375   0.1554263), wk =   0.3333333
        k(   12) = (  -0.5011039   0.0964375  -0.3108526), wk =   0.1666667

[...]

     The maximum number of steps has been reached.

     End of BFGS Geometry Optimization
Begin final coordinates
     new unit-cell volume =   1355.26351 a.u.^3 (   200.82933 Ang^3 )

CELL_PARAMETERS (alat=  9.92348860)
   0.997797068   0.000000000   0.000000000
  -0.498898534   0.864117609   0.000000000
   0.000000000   0.000000000   1.608479541

ATOMIC_POSITIONS (crystal)
Mg       0.333333000   0.666667000   0.062902151
Mg       0.666667000   0.333333000   0.562902151
Mg       0.666667000   0.333333000   0.937097849
Mg       0.333333000   0.666667000   0.437097849
Zn       0.000000000   0.000000000   0.000000000
Zn       0.000000000   0.000000000   0.500000000
Zn       0.169816545   0.339633090   0.750000000
Zn       0.830183455   0.169816545   0.250000000
Zn       0.339633090   0.169816545   0.250000000
Zn       0.660366910   0.830183455   0.750000000
Zn       0.169816545   0.830183455   0.750000000
Zn       0.830183455   0.660366910   0.250000000
End final coordinates

     A final scf calculation at the relaxed structure.
     The G-vectors are recalculated for the final unit cell
     Results may differ from those at the preceding step.

     bravais-lattice index     =            0
     lattice parameter (alat)  =       9.9235  a.u.
     unit-cell volume          =    1355.2635 (a.u.)^3
     number of atoms/cell      =           12
     number of atomic types    =            2
     number of electrons       =       224.00
     number of Kohn-Sham states=          134
     kinetic-energy cutoff     =      40.0000  Ry
     charge density cutoff     =     160.0000  Ry
     convergence threshold     =      2.9E-05
     mixing beta               =       0.7000
     number of iterations used =            8  plain     mixing
     Exchange-correlation      = SLA-PZ-NOGX-NOGC ( 1 1 0 0 0)
     EXX-fraction              =        0.00

     celldm(1)=   9.923489  celldm(2)=   0.000000  celldm(3)=   0.000000
     celldm(4)=   0.000000  celldm(5)=   0.000000  celldm(6)=   0.000000

     crystal axes: (cart. coord. in units of alat)
               a(1) = (   0.997797   0.000000   0.000000 )
               a(2) = (  -0.498899   0.864118   0.000000 )
               a(3) = (   0.000000   0.000000   1.608480 )

     reciprocal axes: (cart. coord. in units 2 pi/alat)
               b(1) = (  1.002208  0.578625  0.000000 )
               b(2) = (  0.000000  1.157250  0.000000 )
               b(3) = (  0.000000  0.000000  0.621705 )

     PseudoPot. # 1 for Dy read from file:
     /home/cwx6513/pp.La/Dy.UPF
     MD5 check sum: 9597327bec62616a94a14d07f3fd9936
     Pseudo is Norm-conserving, Zval = 20.0
     Generated in analytical, separable form
     Using radial grid of 1265 points,  6 beta functions with:
                l(1) =   0
                l(2) =   0
                l(3) =   1
                l(4) =   1
                l(5) =   2
                l(6) =   3

     PseudoPot. # 2 for Gd read from file:
     /home/cwx6513/pp.La/Gd.UPF
     MD5 check sum: 09a8be538722f05520810cb6aac0efd2
     Pseudo is Norm-conserving, Zval = 18.0
     Generated in analytical, separable form
     Using radial grid of 1263 points,  6 beta functions with:
                l(1) =   0
                l(2) =   0
                l(3) =   1
                l(4) =   1
                l(5) =   2
                l(6) =   3

     atomic species   valence    mass     pseudopotential
        Mg            20.00    24.30500     Dy( 1.00)
        Zn            18.00    65.39000     Gd( 1.00)

     24 Sym. Ops., with inversion, found (12 have fractional translation)

   Cartesian axes

     site n.     atom                  positions (alat units)
         1           Mg  tau(   1) = (  -0.0000005   0.5760787   0.1011768  )
         2           Mg  tau(   2) = (   0.4988990   0.2880389   0.9054166  )
         3           Mg  tau(   3) = (   0.4988990   0.2880389   1.5073027  )
         4           Mg  tau(   4) = (  -0.0000005   0.5760787   0.7030629  )
         5           Zn  tau(   5) = (   0.0000000   0.0000000   0.0000000  )
         6           Zn  tau(   6) = (   0.0000000   0.0000000   0.8042398  )
         7           Zn  tau(   7) = (   0.0000000   0.2934829   1.2063597  )
         8           Zn  tau(   8) = (   0.7436334   0.1467415   0.4021199  )
         9           Zn  tau(   9) = (   0.2541637   0.1467415   0.4021199  )
        10           Zn  tau(  10) = (   0.2447349   0.7173761   1.2063597  )
        11           Zn  tau(  11) = (  -0.2447349   0.7173761   1.2063597  )
        12           Zn  tau(  12) = (   0.4988985   0.5706347   0.4021199  )

     number of k points=    12  gaussian smearing, width (Ry)=  0.1000
                       cart. coord. in units 2pi/alat
        k(    1) = (   0.0000000   0.0000000   0.0000000), wk =   0.0833333
        k(    2) = (   0.0000000   0.0000000   0.1554263), wk =   0.1666667
        k(    3) = (   0.0000000   0.0000000  -0.3108526), wk =   0.0833333
        k(    4) = (   0.0000000   0.3857500   0.0000000), wk =   0.1666667
        k(    5) = (   0.0000000   0.3857500   0.1554263), wk =   0.3333333
        k(    6) = (   0.0000000   0.3857500  -0.3108526), wk =   0.1666667
        k(    7) = (  -0.5011039  -0.2893125   0.0000000), wk =   0.0833333
        k(    8) = (  -0.5011039  -0.2893125   0.1554263), wk =   0.1666667
        k(    9) = (  -0.5011039  -0.2893125  -0.3108526), wk =   0.0833333
        k(   10) = (  -0.5011039   0.0964375   0.0000000), wk =   0.1666667
        k(   11) = (  -0.5011039   0.0964375   0.1554263), wk =   0.3333333
        k(   12) = (  -0.5011039   0.0964375  -0.3108526), wk =   0.1666667

     Largest allocated arrays     est. size (Mb)     dimensions
     Largest temporary arrays     est. size (Mb)     dimensions

     Initial potential from superposition of free atoms

     Starting from uniform charge
     Starting wfc are    0 randomized atomic wfcs

     Writing output data file Prototype-La-hP12-MgZn2.save

     Self-consistent Calculation

[...]

     iteration # 10     ecut=    40.00 Ry     beta=0.70
     CG style diagonalization
     c_bands:  1 eigenvalues not converged
     ethr =  4.71E-07,  avg # of iterations =  3.5

     total energy              =   -2651.71581006 Ry
     Harris-Foulkes estimate   =   -2651.71584085 Ry
     estimated scf accuracy    <       0.00005780 Ry

     iteration # 11     ecut=    40.00 Ry     beta=0.70
     CG style diagonalization
     ethr =  2.58E-08,  avg # of iterations =  3.8

     End of self-consistent calculation

[...]

          k = 0.0000 0.3857-0.3109 (  5806 PWs)   bands (ev):

[...]

          k =-0.5011 0.0964-0.3109 (  5798 PWs)   bands (ev):

   -52.8031 -52.8030 -52.8011 -52.8010 -39.1053 -39.1053 -38.9794 -38.9794
   -38.8168 -38.8168 -38.7701 -38.7701 -19.7898 -19.7898 -19.7748 -19.7748
   -19.7508 -19.7507 -19.7151 -19.7151 -19.6842 -19.6841 -19.6788 -19.6787
   -11.4638 -11.4638 -10.9151 -10.9151 -10.4945 -10.4945 -10.4333 -10.4333
   -10.3148 -10.3148 -10.1832 -10.1832  -9.9983  -9.9983  -9.7363  -9.7363
    -9.5527  -9.5527  -9.4542  -9.4542  -9.3145  -9.3145  -9.2758  -9.2758
    19.7043  19.7043  19.9873  19.9874  20.0825  20.0825  20.2905  20.2905
    20.3777  20.3777  20.6039  20.6040  20.7409  20.7409  20.9921  20.9921
    21.1720  21.1720  21.4133  21.4133  21.6547  21.6547  22.0032  22.0032
    22.3249  22.3249  22.5898  22.5898  22.9396  22.9396  23.2117  23.2117
    23.3466  23.3466  23.9476  23.9476  24.3020  24.3020  24.4829  24.4830
    24.7502  24.7502  25.2909  25.2909  25.5937  25.5937  26.0723  26.0723
    26.3653  26.3653  26.6764  26.6764  26.7920  26.7920  27.3992  27.3992
    27.6394  27.6394  27.8228  27.8228  28.2704  28.2704  29.4340  29.4340
    30.3053  30.3053  32.1084  32.1084  33.3540  33.3540  33.7662  33.7662
    35.0408  35.0408  36.4667  36.4667  37.6332  37.6332  38.1585  38.1586
    38.5331  38.5332  39.2320  39.2320  39.5844  39.5845

     the Fermi energy is    30.4077 ev

!    total energy              =   -2651.71582579 Ry
     Harris-Foulkes estimate   =   -2651.71582744 Ry
     estimated scf accuracy    <       0.00000198 Ry

     The total energy is the sum of the following terms:

     one-electron contribution =    -228.56054376 Ry
     hartree contribution      =     322.94381498 Ry
     xc contribution           =    -260.05967243 Ry
     ewald contribution        =   -2485.72703818 Ry
     smearing contrib. (-TS)   =      -0.31238641 Ry

     convergence has been achieved in  11 iterations

     Forces acting on atoms (Ry/au):

     atom    1 type  1   force =     0.00000000    0.00000000    0.00707461
     atom    2 type  1   force =     0.00000000    0.00000000    0.00707461
     atom    3 type  1   force =     0.00000000    0.00000000   -0.00707461
     atom    4 type  1   force =     0.00000000    0.00000000   -0.00707461
     atom    5 type  2   force =     0.00000000    0.00000000    0.00000000
     atom    6 type  2   force =     0.00000000    0.00000000    0.00000000
     atom    7 type  2   force =     0.00000000    0.05561675    0.00000000
     atom    8 type  2   force =    -0.04816552    0.02780837    0.00000000
     atom    9 type  2   force =     0.04816552    0.02780837    0.00000000
     atom   10 type  2   force =    -0.04816552   -0.02780837    0.00000000
     atom   11 type  2   force =     0.04816552   -0.02780837    0.00000000
     atom   12 type  2   force =     0.00000000   -0.05561675    0.00000000

     Total force =     0.136965     Total SCF correction =     0.000000

     entering subroutine stress ...

          total   stress  (Ry/bohr**3)                   (kbar)     P=  705.29
   0.00470232   0.00000000   0.00000000        691.73      0.00      0.00
   0.00000000   0.00470232   0.00000000          0.00    691.73      0.00
   0.00000000   0.00000000   0.00497882          0.00      0.00    732.41

     Writing output data file Prototype-La-hP12-MgZn2.save

     General routines

     Parallel routines

   This run was terminated on:   2:40:45  23Mar2018

   JOB DONE.