     Program PWSCF v.5.0.2 starts on 23Mar2018 at 10:11:39

     Current dimensions of program PWSCF are:
     Max number of different atomic species (ntypx) = 10
     Max number of k-points (npk) =  40000
     Max angular momentum in pseudopotentials (lmaxx) =  3
     Waiting for input...
     Reading input from standard input

     bravais-lattice index     =            0
     lattice parameter (alat)  =       6.8196  a.u.
     unit-cell volume          =     424.5056 (a.u.)^3
     number of atoms/cell      =            2
     number of atomic types    =            1
     number of electrons       =        42.00
     number of Kohn-Sham states=           25
     kinetic-energy cutoff     =      60.0000  Ry
     charge density cutoff     =     240.0000  Ry
     convergence threshold     =      1.0E-06
     mixing beta               =       0.7000
     number of iterations used =            8  plain     mixing
     Exchange-correlation      = SLA-PZ-NOGX-NOGC ( 1 1 0 0 0)
     EXX-fraction              =        0.00
     nstep                     =           50

     celldm(1)=   6.819555  celldm(2)=   0.000000  celldm(3)=   0.000000
     celldm(4)=   0.000000  celldm(5)=   0.000000  celldm(6)=   0.000000

     crystal axes: (cart. coord. in units of alat)
               a(1) = (   1.000000   0.000000   0.000000 )
               a(2) = (  -0.500000   0.866025   0.000000 )
               a(3) = (   0.000000   0.000000   1.545555 )

     reciprocal axes: (cart. coord. in units 2 pi/alat)
               b(1) = (  1.000000  0.577350  0.000000 )
               b(2) = (  0.000000  1.154701  0.000000 )
               b(3) = (  0.000000  0.000000  0.647017 )

     PseudoPot. # 1 for Ho read from file:
     /home/cwx6513/pp.La/Ho.UPF
     MD5 check sum: f307ee11bce99f5b724fa279e3790763
     Pseudo is Norm-conserving, Zval = 21.0
     Generated in analytical, separable form
     Using radial grid of 1265 points,  6 beta functions with:
                l(1) =   0
                l(2) =   0
                l(3) =   1
                l(4) =   1
                l(5) =   2
                l(6) =   3

     atomic species   valence    mass     pseudopotential
        Ho            21.00   164.93000     Ho( 1.00)

     24 Sym. Ops., with inversion, found (12 have fractional translation)

   Cartesian axes

     site n.     atom                  positions (alat units)
         1           Ho  tau(   1) = (  -0.0000005   0.5773506   1.1591666  )
         2           Ho  tau(   2) = (   0.5000005   0.2886748   0.3863889  )

     number of k points=    64  gaussian smearing, width (Ry)=  0.1000
                       cart. coord. in units 2pi/alat
        k(    1) = (   0.0000000   0.0000000   0.0000000), wk =   0.0095238
        k(    2) = (   0.0000000   0.0000000   0.0924309), wk =   0.0190476
        k(    3) = (   0.0000000   0.0000000   0.1848619), wk =   0.0190476
        k(    4) = (   0.0000000   0.0000000   0.2772928), wk =   0.0190476
        k(    5) = (   0.0000000   0.1924501   0.0000000), wk =   0.0190476
        k(    6) = (   0.0000000   0.1924501   0.0924309), wk =   0.0380952
        k(    7) = (   0.0000000   0.1924501   0.1848619), wk =   0.0380952
        k(    8) = (   0.0000000   0.1924501   0.2772928), wk =   0.0380952
        k(    9) = (   0.0000000   0.3849002   0.0000000), wk =   0.0190476
        k(   10) = (   0.0000000   0.3849002   0.0924309), wk =   0.0380952
        k(   11) = (   0.0000000   0.3849002   0.1848619), wk =   0.0380952
        k(   12) = (   0.0000000   0.3849002   0.2772928), wk =   0.0380952
        k(   13) = (   0.0000000  -0.5773503   0.0000000), wk =   0.0095238
        k(   14) = (   0.0000000  -0.5773503   0.0924309), wk =   0.0190476
        k(   15) = (   0.0000000  -0.5773503   0.1848619), wk =   0.0190476
        k(   16) = (   0.0000000  -0.5773503   0.2772928), wk =   0.0190476
        k(   17) = (   0.2000000   0.1154701   0.0000000), wk =   0.0190476
        k(   18) = (   0.2000000   0.1154701   0.0924309), wk =   0.0380952
        k(   19) = (   0.2000000   0.1154701   0.1848619), wk =   0.0380952
        k(   20) = (   0.2000000   0.1154701   0.2772928), wk =   0.0380952
        k(   21) = (   0.2000000   0.3079201   0.0000000), wk =   0.0190476
        k(   22) = (   0.2000000   0.3079201   0.0924309), wk =   0.0380952
        k(   23) = (   0.2000000   0.3079201   0.1848619), wk =   0.0380952
        k(   24) = (   0.2000000   0.3079201   0.2772928), wk =   0.0380952
        k(   25) = (   0.2000000   0.5003702   0.0000000), wk =   0.0190476
        k(   26) = (   0.2000000   0.5003702   0.0924309), wk =   0.0380952
        k(   27) = (   0.2000000   0.5003702   0.1848619), wk =   0.0380952
        k(   28) = (   0.2000000   0.5003702   0.2772928), wk =   0.0380952
        k(   29) = (   0.2000000  -0.4618802   0.0000000), wk =   0.0190476
        k(   30) = (   0.2000000  -0.4618802   0.0924309), wk =   0.0380952
        k(   31) = (   0.2000000  -0.4618802   0.1848619), wk =   0.0380952
        k(   32) = (   0.2000000  -0.4618802   0.2772928), wk =   0.0380952
        k(   33) = (   0.2000000  -0.2694301   0.0000000), wk =   0.0190476
        k(   34) = (   0.2000000  -0.2694301   0.0924309), wk =   0.0380952
        k(   35) = (   0.2000000  -0.2694301   0.1848619), wk =   0.0380952
        k(   36) = (   0.2000000  -0.2694301   0.2772928), wk =   0.0380952
        k(   37) = (   0.2000000  -0.0769800   0.0000000), wk =   0.0190476
        k(   38) = (   0.2000000  -0.0769800   0.0924309), wk =   0.0380952
        k(   39) = (   0.2000000  -0.0769800   0.1848619), wk =   0.0380952
        k(   40) = (   0.2000000  -0.0769800   0.2772928), wk =   0.0380952
        k(   41) = (   0.4000000   0.2309401   0.0000000), wk =   0.0190476
        k(   42) = (   0.4000000   0.2309401   0.0924309), wk =   0.0380952
        k(   43) = (   0.4000000   0.2309401   0.1848619), wk =   0.0380952
        k(   44) = (   0.4000000   0.2309401   0.2772928), wk =   0.0380952
        k(   45) = (   0.4000000   0.4233902   0.0000000), wk =   0.0190476
        k(   46) = (   0.4000000   0.4233902   0.0924309), wk =   0.0380952
        k(   47) = (   0.4000000   0.4233902   0.1848619), wk =   0.0380952
        k(   48) = (   0.4000000   0.4233902   0.2772928), wk =   0.0380952
        k(   49) = (   0.4000000   0.6158403   0.0000000), wk =   0.0190476
        k(   50) = (   0.4000000   0.6158403   0.0924309), wk =   0.0380952
        k(   51) = (   0.4000000   0.6158403   0.1848619), wk =   0.0380952
        k(   52) = (   0.4000000   0.6158403   0.2772928), wk =   0.0380952
        k(   53) = (   0.4000000  -0.3464102   0.0000000), wk =   0.0190476
        k(   54) = (   0.4000000  -0.3464102   0.0924309), wk =   0.0380952
        k(   55) = (   0.4000000  -0.3464102   0.1848619), wk =   0.0380952
        k(   56) = (   0.4000000  -0.3464102   0.2772928), wk =   0.0380952
        k(   57) = (   0.4000000  -0.1539601   0.0000000), wk =   0.0190476
        k(   58) = (   0.4000000  -0.1539601   0.0924309), wk =   0.0380952
        k(   59) = (   0.4000000  -0.1539601   0.1848619), wk =   0.0380952
        k(   60) = (   0.4000000  -0.1539601   0.2772928), wk =   0.0380952
        k(   61) = (   0.4000000   0.0384900   0.0000000), wk =   0.0190476
        k(   62) = (   0.4000000   0.0384900   0.0924309), wk =   0.0380952
        k(   63) = (   0.4000000   0.0384900   0.1848619), wk =   0.0380952
        k(   64) = (   0.4000000   0.0384900   0.2772928), wk =   0.0380952

     Largest allocated arrays     est. size (Mb)     dimensions
     Largest temporary arrays     est. size (Mb)     dimensions

     Initial potential from superposition of free atoms

     Starting from uniform charge
     Starting wfc are    0 randomized atomic wfcs

     Self-consistent Calculation

     iteration #  1     ecut=    60.00 Ry     beta=0.70
     CG style diagonalization
     c_bands:  1 eigenvalues not converged
     c_bands:  2 eigenvalues not converged
     c_bands:  1 eigenvalues not converged
     c_bands:  1 eigenvalues not converged
     c_bands:  2 eigenvalues not converged
     c_bands:  1 eigenvalues not converged
     c_bands:  2 eigenvalues not converged
     c_bands:  1 eigenvalues not converged
     c_bands:  1 eigenvalues not converged
     c_bands:  2 eigenvalues not converged
     c_bands:  1 eigenvalues not converged
     c_bands:  2 eigenvalues not converged
     c_bands:  1 eigenvalues not converged
     c_bands:  2 eigenvalues not converged
     c_bands:  1 eigenvalues not converged
     c_bands:  2 eigenvalues not converged
     c_bands:  2 eigenvalues not converged
     c_bands:  3 eigenvalues not converged
     c_bands:  3 eigenvalues not converged
     c_bands:  2 eigenvalues not converged
     c_bands:  2 eigenvalues not converged
     c_bands:  3 eigenvalues not converged
     c_bands:  3 eigenvalues not converged
     c_bands:  2 eigenvalues not converged
     c_bands:  2 eigenvalues not converged
     c_bands:  2 eigenvalues not converged
     c_bands:  2 eigenvalues not converged
     c_bands:  1 eigenvalues not converged
     c_bands:  1 eigenvalues not converged
     c_bands:  2 eigenvalues not converged
     c_bands:  1 eigenvalues not converged
     c_bands:  2 eigenvalues not converged
     c_bands:  3 eigenvalues not converged
     c_bands:  2 eigenvalues not converged
     c_bands:  1 eigenvalues not converged
     c_bands:  4 eigenvalues not converged
     c_bands:  1 eigenvalues not converged
     c_bands:  1 eigenvalues not converged
     c_bands:  2 eigenvalues not converged
     c_bands:  1 eigenvalues not converged
     c_bands:  2 eigenvalues not converged
     c_bands:  2 eigenvalues not converged
     c_bands:  2 eigenvalues not converged
     c_bands:  1 eigenvalues not converged
     c_bands:  2 eigenvalues not converged
     c_bands:  2 eigenvalues not converged
     c_bands:  2 eigenvalues not converged
     c_bands:  2 eigenvalues not converged
     c_bands:  3 eigenvalues not converged
     c_bands:  2 eigenvalues not converged
     c_bands:  1 eigenvalues not converged
     c_bands:  2 eigenvalues not converged
     c_bands:  2 eigenvalues not converged
     c_bands:  1 eigenvalues not converged
     c_bands:  2 eigenvalues not converged
     ethr =  1.00E-02,  avg # of iterations = 13.6

     total energy              =    -504.77426954 Ry
     Harris-Foulkes estimate   =    -800.06241566 Ry
     estimated scf accuracy    <     372.08955997 Ry

     iteration #  2     ecut=    60.00 Ry     beta=0.70
     CG style diagonalization
     ethr =  1.00E-02,  avg # of iterations =  8.5

[...]

     negative rho (up, down):  0.798E-01 0.000E+00

[...]

     End of self-consistent calculation

          k = 0.0000 0.0000 0.0000 (  3355 PWs)   bands (ev):

   -75.4237 -75.4209 -39.7164 -39.6806 -39.6806 -39.6737 -39.6737 -39.6677
     4.2228   4.5886   4.5886   4.6018   4.6779   4.6779   4.6897   4.6897
     5.2617   5.2617   6.3953  12.5077  12.7684  21.6636  21.6677  21.6679
    21.7894

[...]

     the Fermi energy is    15.9442 ev

!    total energy              =    -587.79150219 Ry
[...]

[...]

     WARNING: bfgs curvature condition failed, Theta= 0.118
     new trust radius        =       0.3780346777 bohr
     new conv_thr            =       0.0000000100 Ry

[...]

     CASE: enthalpy_new < enthalpy_old

     small trust_radius: resetting bfgs history

     new trust radius        =       0.0100000000 bohr
     new conv_thr            =       0.0000000100 Ry

[...]

          total   stress  (Ry/bohr**3)                   (kbar)     P=  522.72
   0.00342794   0.00000000   0.00000000        504.27      0.00      0.00
   0.00000000   0.00342794   0.00000000          0.00    504.27      0.00
   0.00000000   0.00000000   0.00380434          0.00      0.00    559.64

     number of scf cycles    =  22
     number of bfgs steps    =  21

     enthalpy old            =    -645.0997748926 Ry
     enthalpy new            =    -645.0991153916 Ry

     CASE: enthalpy_new > enthalpy_old

     new trust radius        =       0.0036694316 bohr

     trust_radius < trust_radius_min

     resetting bfgs history

     Message from routine bfgs:
     history already reset at previous step: stopping
     new conv_thr            =       0.0000000100 Ry

     new unit-cell volume =     79.92626 a.u.^3 (    11.84385 Ang^3 )

[...]

ATOMIC_POSITIONS (crystal)
Ho       0.333333000   0.666667000   0.750000000
Ho       0.666667000   0.333333000   0.250000000

     Writing output data file Element-Ho.q.save
     NEW-OLD atomic charge density approx. for the potential
     NEW k-points:
        k(    1) = (   0.0000000   0.0000000   0.0000000), wk =   0.0095238
        k(    2) = (   0.0000000   0.0000000   0.1647252), wk =   0.0190476
        k(    3) = (   0.0000000   0.0000000   0.3294505), wk =   0.0190476
        k(    4) = (   0.0000000   0.0000000   0.4941757), wk =   0.0190476
        k(    5) = (   0.0000000   0.3322337   0.0000000), wk =   0.0190476
        k(    6) = (   0.0000000   0.3322337   0.1647252), wk =   0.0380952
        k(    7) = (   0.0000000   0.3322337   0.3294505), wk =   0.0380952
        k(    8) = (   0.0000000   0.3322337   0.4941757), wk =   0.0380952
        k(    9) = (   0.0000000   0.6644674   0.0000000), wk =   0.0190476
        k(   10) = (   0.0000000   0.6644674   0.1647252), wk =   0.0380952
        k(   11) = (   0.0000000   0.6644674   0.3294505), wk =   0.0380952
        k(   12) = (   0.0000000   0.6644674   0.4941757), wk =   0.0380952
        k(   13) = (   0.0000000  -0.9967011   0.0000000), wk =   0.0095238
        k(   14) = (   0.0000000  -0.9967011   0.1647252), wk =   0.0190476
        k(   15) = (   0.0000000  -0.9967011   0.3294505), wk =   0.0190476
        k(   16) = (   0.0000000  -0.9967011   0.4941757), wk =   0.0190476
        k(   17) = (   0.3452674   0.1993402   0.0000000), wk =   0.0190476
        k(   18) = (   0.3452674   0.1993402   0.1647252), wk =   0.0380952
        k(   19) = (   0.3452674   0.1993402   0.3294505), wk =   0.0380952
        k(   20) = (   0.3452674   0.1993402   0.4941757), wk =   0.0380952
        k(   21) = (   0.3452674   0.5315739   0.0000000), wk =   0.0190476
        k(   22) = (   0.3452674   0.5315739   0.1647252), wk =   0.0380952
        k(   23) = (   0.3452674   0.5315739   0.3294505), wk =   0.0380952
        k(   24) = (   0.3452674   0.5315739   0.4941757), wk =   0.0380952
        k(   25) = (   0.3452674   0.8638076   0.0000000), wk =   0.0190476
        k(   26) = (   0.3452674   0.8638076   0.1647252), wk =   0.0380952
        k(   27) = (   0.3452674   0.8638076   0.3294505), wk =   0.0380952
        k(   28) = (   0.3452674   0.8638076   0.4941757), wk =   0.0380952
        k(   29) = (   0.3452674  -0.7973609   0.0000000), wk =   0.0190476
        k(   30) = (   0.3452674  -0.7973609   0.1647252), wk =   0.0380952
        k(   31) = (   0.3452674  -0.7973609   0.3294505), wk =   0.0380952
        k(   32) = (   0.3452674  -0.7973609   0.4941757), wk =   0.0380952
        k(   33) = (   0.3452674  -0.4651272   0.0000000), wk =   0.0190476
        k(   34) = (   0.3452674  -0.4651272   0.1647252), wk =   0.0380952
        k(   35) = (   0.3452674  -0.4651272   0.3294505), wk =   0.0380952
        k(   36) = (   0.3452674  -0.4651272   0.4941757), wk =   0.0380952
        k(   37) = (   0.3452674  -0.1328935   0.0000000), wk =   0.0190476
        k(   38) = (   0.3452674  -0.1328935   0.1647252), wk =   0.0380952
        k(   39) = (   0.3452674  -0.1328935   0.3294505), wk =   0.0380952
        k(   40) = (   0.3452674  -0.1328935   0.4941757), wk =   0.0380952
        k(   41) = (   0.6905348   0.3986804   0.0000000), wk =   0.0190476
        k(   42) = (   0.6905348   0.3986804   0.1647252), wk =   0.0380952
        k(   43) = (   0.6905348   0.3986804   0.3294505), wk =   0.0380952
        k(   44) = (   0.6905348   0.3986804   0.4941757), wk =   0.0380952
        k(   45) = (   0.6905348   0.7309141   0.0000000), wk =   0.0190476
        k(   46) = (   0.6905348   0.7309141   0.1647252), wk =   0.0380952
        k(   47) = (   0.6905348   0.7309141   0.3294505), wk =   0.0380952
        k(   48) = (   0.6905348   0.7309141   0.4941757), wk =   0.0380952
        k(   49) = (   0.6905348   1.0631478   0.0000000), wk =   0.0190476
        k(   50) = (   0.6905348   1.0631478   0.1647252), wk =   0.0380952
        k(   51) = (   0.6905348   1.0631478   0.3294505), wk =   0.0380952
        k(   52) = (   0.6905348   1.0631478   0.4941757), wk =   0.0380952
        k(   53) = (   0.6905348  -0.5980206   0.0000000), wk =   0.0190476
        k(   54) = (   0.6905348  -0.5980206   0.1647252), wk =   0.0380952
        k(   55) = (   0.6905348  -0.5980206   0.3294505), wk =   0.0380952
        k(   56) = (   0.6905348  -0.5980206   0.4941757), wk =   0.0380952
        k(   57) = (   0.6905348  -0.2657870   0.0000000), wk =   0.0190476
        k(   58) = (   0.6905348  -0.2657870   0.1647252), wk =   0.0380952
        k(   59) = (   0.6905348  -0.2657870   0.3294505), wk =   0.0380952
        k(   60) = (   0.6905348  -0.2657870   0.4941757), wk =   0.0380952
        k(   61) = (   0.6905348   0.0664467   0.0000000), wk =   0.0190476
        k(   62) = (   0.6905348   0.0664467   0.1647252), wk =   0.0380952
        k(   63) = (   0.6905348   0.0664467   0.3294505), wk =   0.0380952
        k(   64) = (   0.6905348   0.0664467   0.4941757), wk =   0.0380952

[...]

     The maximum number of steps has been reached.

     End of BFGS Geometry Optimization
Begin final coordinates
     new unit-cell volume =     79.92626 a.u.^3 (    11.84385 Ang^3 )

CELL_PARAMETERS (alat=  6.81955533)
   0.579261213   0.000000000   0.000000000
  -0.289630606   0.501654926   0.000000000
   0.000000000   0.000000000   0.867245000

ATOMIC_POSITIONS (crystal)
Ho       0.333333000   0.666667000   0.750000000
Ho       0.666667000   0.333333000   0.250000000
End final coordinates

     A final scf calculation at the relaxed structure.
     The G-vectors are recalculated for the final unit cell
     Results may differ from those at the preceding step.

     bravais-lattice index     =            0
     lattice parameter (alat)  =       6.8196  a.u.
     unit-cell volume          =      79.9263 (a.u.)^3
     number of atoms/cell      =            2
     number of atomic types    =            1
     number of electrons       =        42.00
     number of Kohn-Sham states=           25
     kinetic-energy cutoff     =      60.0000  Ry
     charge density cutoff     =     240.0000  Ry
     convergence threshold     =      1.0E-08
     mixing beta               =       0.7000
     number of iterations used =            8  plain     mixing
     Exchange-correlation      = SLA-PZ-NOGX-NOGC ( 1 1 0 0 0)
     EXX-fraction              =        0.00

     celldm(1)=   6.819555  celldm(2)=   0.000000  celldm(3)=   0.000000
     celldm(4)=   0.000000  celldm(5)=   0.000000  celldm(6)=   0.000000

     crystal axes: (cart. coord. in units of alat)
               a(1) = (   0.579261   0.000000   0.000000 )
               a(2) = (  -0.289631   0.501655   0.000000 )
               a(3) = (   0.000000   0.000000   0.867245 )

     reciprocal axes: (cart. coord. in units 2 pi/alat)
               b(1) = (  1.726337  0.996701  0.000000 )
               b(2) = (  0.000000  1.993402  0.000000 )
               b(3) = (  0.000000  0.000000  1.153077 )

     PseudoPot. # 1 for Ho read from file:
     /home/cwx6513/pp.La/Ho.UPF
     MD5 check sum: f307ee11bce99f5b724fa279e3790763
     Pseudo is Norm-conserving, Zval = 21.0
     Generated in analytical, separable form
     Using radial grid of 1265 points,  6 beta functions with:
                l(1) =   0
                l(2) =   0
                l(3) =   1
                l(4) =   1
                l(5) =   2
                l(6) =   3

     atomic species   valence    mass     pseudopotential
        Ho            21.00   164.93000     Ho( 1.00)

     24 Sym. Ops., with inversion, found (12 have fractional translation)

   Cartesian axes

     site n.     atom                  positions (alat units)
         1           Ho  tau(   1) = (  -0.0000003   0.3344368   0.6504338  )
         2           Ho  tau(   2) = (   0.2896309   0.1672181   0.2168113  )

     number of k points=    64  gaussian smearing, width (Ry)=  0.1000
                       cart. coord. in units 2pi/alat
        k(    1) = (   0.0000000   0.0000000   0.0000000), wk =   0.0095238
        k(    2) = (   0.0000000   0.0000000   0.1647252), wk =   0.0190476
        k(    3) = (   0.0000000   0.0000000   0.3294505), wk =   0.0190476
        k(    4) = (   0.0000000   0.0000000   0.4941757), wk =   0.0190476
        k(    5) = (   0.0000000   0.3322337   0.0000000), wk =   0.0190476
        k(    6) = (   0.0000000   0.3322337   0.1647252), wk =   0.0380952
        k(    7) = (   0.0000000   0.3322337   0.3294505), wk =   0.0380952
        k(    8) = (   0.0000000   0.3322337   0.4941757), wk =   0.0380952
        k(    9) = (   0.0000000   0.6644674   0.0000000), wk =   0.0190476
        k(   10) = (   0.0000000   0.6644674   0.1647252), wk =   0.0380952
        k(   11) = (   0.0000000   0.6644674   0.3294505), wk =   0.0380952
        k(   12) = (   0.0000000   0.6644674   0.4941757), wk =   0.0380952
        k(   13) = (   0.0000000  -0.9967011   0.0000000), wk =   0.0095238
        k(   14) = (   0.0000000  -0.9967011   0.1647252), wk =   0.0190476
        k(   15) = (   0.0000000  -0.9967011   0.3294505), wk =   0.0190476
        k(   16) = (   0.0000000  -0.9967011   0.4941757), wk =   0.0190476
        k(   17) = (   0.3452674   0.1993402   0.0000000), wk =   0.0190476
        k(   18) = (   0.3452674   0.1993402   0.1647252), wk =   0.0380952
        k(   19) = (   0.3452674   0.1993402   0.3294505), wk =   0.0380952
        k(   20) = (   0.3452674   0.1993402   0.4941757), wk =   0.0380952
        k(   21) = (   0.3452674   0.5315739   0.0000000), wk =   0.0190476
        k(   22) = (   0.3452674   0.5315739   0.1647252), wk =   0.0380952
        k(   23) = (   0.3452674   0.5315739   0.3294505), wk =   0.0380952
        k(   24) = (   0.3452674   0.5315739   0.4941757), wk =   0.0380952
        k(   25) = (   0.3452674   0.8638076   0.0000000), wk =   0.0190476
        k(   26) = (   0.3452674   0.8638076   0.1647252), wk =   0.0380952
        k(   27) = (   0.3452674   0.8638076   0.3294505), wk =   0.0380952
        k(   28) = (   0.3452674   0.8638076   0.4941757), wk =   0.0380952
        k(   29) = (   0.3452674  -0.7973609   0.0000000), wk =   0.0190476
        k(   30) = (   0.3452674  -0.7973609   0.1647252), wk =   0.0380952
        k(   31) = (   0.3452674  -0.7973609   0.3294505), wk =   0.0380952
        k(   32) = (   0.3452674  -0.7973609   0.4941757), wk =   0.0380952
        k(   33) = (   0.3452674  -0.4651272   0.0000000), wk =   0.0190476
        k(   34) = (   0.3452674  -0.4651272   0.1647252), wk =   0.0380952
        k(   35) = (   0.3452674  -0.4651272   0.3294505), wk =   0.0380952
        k(   36) = (   0.3452674  -0.4651272   0.4941757), wk =   0.0380952
        k(   37) = (   0.3452674  -0.1328935   0.0000000), wk =   0.0190476
        k(   38) = (   0.3452674  -0.1328935   0.1647252), wk =   0.0380952
        k(   39) = (   0.3452674  -0.1328935   0.3294505), wk =   0.0380952
        k(   40) = (   0.3452674  -0.1328935   0.4941757), wk =   0.0380952
        k(   41) = (   0.6905348   0.3986804   0.0000000), wk =   0.0190476
        k(   42) = (   0.6905348   0.3986804   0.1647252), wk =   0.0380952
        k(   43) = (   0.6905348   0.3986804   0.3294505), wk =   0.0380952
        k(   44) = (   0.6905348   0.3986804   0.4941757), wk =   0.0380952
        k(   45) = (   0.6905348   0.7309141   0.0000000), wk =   0.0190476
        k(   46) = (   0.6905348   0.7309141   0.1647252), wk =   0.0380952
        k(   47) = (   0.6905348   0.7309141   0.3294505), wk =   0.0380952
        k(   48) = (   0.6905348   0.7309141   0.4941757), wk =   0.0380952
        k(   49) = (   0.6905348   1.0631478   0.0000000), wk =   0.0190476
        k(   50) = (   0.6905348   1.0631478   0.1647252), wk =   0.0380952
        k(   51) = (   0.6905348   1.0631478   0.3294505), wk =   0.0380952
        k(   52) = (   0.6905348   1.0631478   0.4941757), wk =   0.0380952
        k(   53) = (   0.6905348  -0.5980206   0.0000000), wk =   0.0190476
        k(   54) = (   0.6905348  -0.5980206   0.1647252), wk =   0.0380952
        k(   55) = (   0.6905348  -0.5980206   0.3294505), wk =   0.0380952
        k(   56) = (   0.6905348  -0.5980206   0.4941757), wk =   0.0380952
        k(   57) = (   0.6905348  -0.2657870   0.0000000), wk =   0.0190476
        k(   58) = (   0.6905348  -0.2657870   0.1647252), wk =   0.0380952
        k(   59) = (   0.6905348  -0.2657870   0.3294505), wk =   0.0380952
        k(   60) = (   0.6905348  -0.2657870   0.4941757), wk =   0.0380952
        k(   61) = (   0.6905348   0.0664467   0.0000000), wk =   0.0190476
        k(   62) = (   0.6905348   0.0664467   0.1647252), wk =   0.0380952
        k(   63) = (   0.6905348   0.0664467   0.3294505), wk =   0.0380952
        k(   64) = (   0.6905348   0.0664467   0.4941757), wk =   0.0380952

     Largest allocated arrays     est. size (Mb)     dimensions
     Largest temporary arrays     est. size (Mb)     dimensions

     Initial potential from superposition of free atoms

     Starting from uniform charge
     Starting wfc are    0 randomized atomic wfcs

     Writing output data file Element-Ho.q.save

     Self-consistent Calculation

[...]

     iteration #  7     ecut=    60.00 Ry     beta=0.70
     CG style diagonalization
     c_bands:  1 eigenvalues not converged
     c_bands:  1 eigenvalues not converged
     ethr =  2.20E-08,  avg # of iterations =  4.7

[...]

     total energy              =    -577.46216567 Ry
     Harris-Foulkes estimate   =    -577.46216569 Ry
     estimated scf accuracy    <       0.00000003 Ry

     iteration #  9     ecut=    60.00 Ry     beta=0.70
     CG style diagonalization
     ethr =  7.11E-11,  avg # of iterations =  5.0

     End of self-consistent calculation

[...]

          k = 0.6905 0.0664 0.4942 (   625 PWs)   bands (ev):

    -4.0105  -3.2271  24.3289  25.2845  30.3423  31.1957  33.4198  35.0034
    62.2775  63.0897  66.3672  68.8382  70.2550  71.5156  72.0023  75.3388
    84.4154  84.9663  89.0388  91.3038  91.6896  93.9985  95.6387  96.1881
    96.7984

     the Fermi energy is    91.2785 ev

!    total energy              =    -577.46216570 Ry
     Harris-Foulkes estimate   =    -577.46216570 Ry
     estimated scf accuracy    <          2.7E-09 Ry

     The total energy is the sum of the following terms:

     one-electron contribution =     204.65827369 Ry
     hartree contribution      =      22.26842362 Ry
     xc contribution           =     -59.97022424 Ry
     ewald contribution        =    -744.34467554 Ry
     smearing contrib. (-TS)   =      -0.07396323 Ry

     convergence has been achieved in   9 iterations

     Forces acting on atoms (Ry/au):

     atom    1 type  1   force =     0.00000000    0.00000000    0.00000000
     atom    2 type  1   force =     0.00000000    0.00000000    0.00000000

     Total force =     0.000000     Total SCF correction =     0.000000

     entering subroutine stress ...

          total   stress  (Ry/bohr**3)                   (kbar)     P=16444.00
   0.09410123   0.00000000   0.00000000      13842.77      0.00      0.00
   0.00000000   0.09410123   0.00000000          0.00  13842.77      0.00
   0.00000000   0.00000000   0.14714975          0.00      0.00  21646.47

     Writing output data file Element-Ho.q.save

     General routines

     Parallel routines

   This run was terminated on:  10:52: 9  23Mar2018

   JOB DONE.