     Program PWSCF v.5.0.2 starts on 23Mar2018 at  0:57:21

     Current dimensions of program PWSCF are:
     Max number of different atomic species (ntypx) = 10
     Max number of k-points (npk) =  40000
     Max angular momentum in pseudopotentials (lmaxx) =  3
     Waiting for input...
     Reading input from standard input

     Subspace diagonalization in iterative solution of the eigenvalue problem:
     a serial algorithm will be used

     bravais-lattice index     =            0
     lattice parameter (alat)  =       8.5346  a.u.
     unit-cell volume          =     621.6493 (a.u.)^3
     number of atoms/cell      =            8
     number of atomic types    =            2
     number of electrons       =       154.00
     number of Kohn-Sham states=           92
     kinetic-energy cutoff     =      40.0000  Ry
     charge density cutoff     =     160.0000  Ry
     convergence threshold     =      1.0E-04
     mixing beta               =       0.7000
     number of iterations used =            8  plain     mixing
     Exchange-correlation      = SLA-PZ-NOGX-NOGC ( 1 1 0 0 0)
     EXX-fraction              =        0.00
     nstep                     =           50

     celldm(1)=   8.534573  celldm(2)=   0.000000  celldm(3)=   0.000000
     celldm(4)=   0.000000  celldm(5)=   0.000000  celldm(6)=   0.000000

     crystal axes: (cart. coord. in units of alat)
               a(1) = (   1.000000   0.000000   0.000000 )
               a(2) = (   0.000000   1.000000   0.000000 )
               a(3) = (   0.000000   0.000000   1.000000 )

     reciprocal axes: (cart. coord. in units 2 pi/alat)
               b(1) = (  1.000000  0.000000  0.000000 )
               b(2) = (  0.000000  1.000000  0.000000 )
               b(3) = (  0.000000  0.000000  1.000000 )

     PseudoPot. # 1 for Ho read from file:
     /home/cwx6513/pp.La/Ho.UPF
     MD5 check sum: f307ee11bce99f5b724fa279e3790763
     Pseudo is Norm-conserving, Zval = 21.0
     Generated in analytical, separable form
     Using radial grid of 1265 points,  6 beta functions with:
                l(1) =   0
                l(2) =   0
                l(3) =   1
                l(4) =   1
                l(5) =   2
                l(6) =   3

     PseudoPot. # 2 for Nd read from file:
     /home/cwx6513/pp.La/Nd.UPF
     MD5 check sum: c66c5b6abe7b5840ced9b1e244e3bed6
     Pseudo is Norm-conserving, Zval = 14.0
     Generated in analytical, separable form
     Using radial grid of 1257 points,  6 beta functions with:
                l(1) =   0
                l(2) =   0
                l(3) =   1
                l(4) =   1
                l(5) =   2
                l(6) =   3

     atomic species   valence    mass     pseudopotential
        Cr            21.00    51.99610     Ho( 1.00)
        Si            14.00    28.08550     Nd( 1.00)

     48 Sym. Ops., with inversion, found (24 have fractional translation)

   Cartesian axes

     site n.     atom                  positions (alat units)
         1           Cr  tau(   1) = (   0.0000000   0.5000000   0.2500000  )
         2           Cr  tau(   2) = (   0.0000000   0.5000000   0.7500000  )
         3           Cr  tau(   3) = (   0.5000000   0.7500000   0.0000000  )
         4           Cr  tau(   4) = (   0.5000000   0.2500000   0.0000000  )
         5           Cr  tau(   5) = (   0.7500000   0.0000000   0.5000000  )
         6           Cr  tau(   6) = (   0.2500000   0.0000000   0.5000000  )
         7           Si  tau(   7) = (   0.5000000   0.5000000   0.5000000  )
         8           Si  tau(   8) = (   0.0000000   0.0000000   0.0000000  )

     number of k points=    48  gaussian smearing, width (Ry)=  0.1000
                       cart. coord. in units 2pi/alat
        k(    1) = (   0.0000000   0.0000000   0.0000000), wk =   0.0095238
        k(    2) = (   0.0000000   0.0000000   0.1428571), wk =   0.0190476
        k(    3) = (   0.0000000   0.0000000   0.2857143), wk =   0.0190476
        k(    4) = (   0.0000000   0.0000000   0.4285714), wk =   0.0190476
        k(    5) = (   0.0000000   0.1666667   0.0000000), wk =   0.0190476
        k(    6) = (   0.0000000   0.1666667   0.1428571), wk =   0.0380952
        k(    7) = (   0.0000000   0.1666667   0.2857143), wk =   0.0380952
        k(    8) = (   0.0000000   0.1666667   0.4285714), wk =   0.0380952
        k(    9) = (   0.0000000   0.3333333   0.0000000), wk =   0.0190476
        k(   10) = (   0.0000000   0.3333333   0.1428571), wk =   0.0380952
        k(   11) = (   0.0000000   0.3333333   0.2857143), wk =   0.0380952
        k(   12) = (   0.0000000   0.3333333   0.4285714), wk =   0.0380952
        k(   13) = (   0.0000000  -0.5000000   0.0000000), wk =   0.0095238
        k(   14) = (   0.0000000  -0.5000000   0.1428571), wk =   0.0190476
        k(   15) = (   0.0000000  -0.5000000   0.2857143), wk =   0.0190476
        k(   16) = (   0.0000000  -0.5000000   0.4285714), wk =   0.0190476
        k(   17) = (   0.2000000   0.0000000   0.0000000), wk =   0.0190476
        k(   18) = (   0.2000000   0.0000000   0.1428571), wk =   0.0380952
        k(   19) = (   0.2000000   0.0000000   0.2857143), wk =   0.0380952
        k(   20) = (   0.2000000   0.0000000   0.4285714), wk =   0.0380952
        k(   21) = (   0.2000000   0.1666667   0.0000000), wk =   0.0380952
        k(   22) = (   0.2000000   0.1666667   0.1428571), wk =   0.0761905
        k(   23) = (   0.2000000   0.1666667   0.2857143), wk =   0.0761905
        k(   24) = (   0.2000000   0.1666667   0.4285714), wk =   0.0761905
        k(   25) = (   0.2000000   0.3333333   0.0000000), wk =   0.0380952
        k(   26) = (   0.2000000   0.3333333   0.1428571), wk =   0.0761905
        k(   27) = (   0.2000000   0.3333333   0.2857143), wk =   0.0761905
        k(   28) = (   0.2000000   0.3333333   0.4285714), wk =   0.0761905
        k(   29) = (   0.2000000  -0.5000000   0.0000000), wk =   0.0190476
        k(   30) = (   0.2000000  -0.5000000   0.1428571), wk =   0.0380952
        k(   31) = (   0.2000000  -0.5000000   0.2857143), wk =   0.0380952
        k(   32) = (   0.2000000  -0.5000000   0.4285714), wk =   0.0380952
        k(   33) = (   0.4000000   0.0000000   0.0000000), wk =   0.0190476
        k(   34) = (   0.4000000   0.0000000   0.1428571), wk =   0.0380952
        k(   35) = (   0.4000000   0.0000000   0.2857143), wk =   0.0380952
        k(   36) = (   0.4000000   0.0000000   0.4285714), wk =   0.0380952
        k(   37) = (   0.4000000   0.1666667   0.0000000), wk =   0.0380952
        k(   38) = (   0.4000000   0.1666667   0.1428571), wk =   0.0761905
        k(   39) = (   0.4000000   0.1666667   0.2857143), wk =   0.0761905
        k(   40) = (   0.4000000   0.1666667   0.4285714), wk =   0.0761905
        k(   41) = (   0.4000000   0.3333333   0.0000000), wk =   0.0380952
        k(   42) = (   0.4000000   0.3333333   0.1428571), wk =   0.0761905
        k(   43) = (   0.4000000   0.3333333   0.2857143), wk =   0.0761905
        k(   44) = (   0.4000000   0.3333333   0.4285714), wk =   0.0761905
        k(   45) = (   0.4000000  -0.5000000   0.0000000), wk =   0.0190476
        k(   46) = (   0.4000000  -0.5000000   0.1428571), wk =   0.0380952
        k(   47) = (   0.4000000  -0.5000000   0.2857143), wk =   0.0380952
        k(   48) = (   0.4000000  -0.5000000   0.4285714), wk =   0.0380952

     Largest allocated arrays     est. size (Mb)     dimensions
     Largest temporary arrays     est. size (Mb)     dimensions

     Initial potential from superposition of free atoms

     Starting from uniform charge
     Starting wfc are    0 randomized atomic wfcs

     Self-consistent Calculation

     iteration #  1     ecut=    40.00 Ry     beta=0.70
     CG style diagonalization
     c_bands:  2 eigenvalues not converged
     c_bands:  5 eigenvalues not converged
     c_bands:  2 eigenvalues not converged
     c_bands:  5 eigenvalues not converged
     c_bands:  5 eigenvalues not converged
     ethr =  1.00E-02,  avg # of iterations = 15.6

     total energy              =   -1604.39063287 Ry
     Harris-Foulkes estimate   =   -2309.15395250 Ry
     estimated scf accuracy    <     875.64147945 Ry

[...]

     iteration #  3     ecut=    40.00 Ry     beta=0.70
     CG style diagonalization
     ethr =  1.00E-02,  avg # of iterations =  9.2

[...]

     End of self-consistent calculation

          k = 0.0000 0.0000 0.0000 (  2601 PWs)   bands (ev):

   -46.5921 -46.5697 -46.5697 -46.0494 -46.0494 -46.0494 -12.9859 -12.9859
   -12.7968 -11.1834 -11.1834 -11.1834 -10.5403 -10.5403 -10.5403 -10.4754
   -10.4754 -10.4754 -10.3055 -10.3055 -10.3055  -9.6329  -9.6329  -9.6329
    -0.1265  -0.0334  19.6661  19.6661  19.6661  19.8431  19.8431  19.8431
    26.5018  26.5018  26.6124  28.0453  28.0453  28.0453  29.7163  30.9492
    30.9492  30.9492  31.0300  31.0300  31.4562  32.0055  32.0055  32.0055
    32.4314  33.8102  33.8102  33.8102  35.2034  35.2034  35.3431  35.3431
    35.3431  35.3531  35.3531  35.3531  36.1717  36.1717  36.1717  37.9846
    37.9846  43.3694  43.3694  43.3694  43.7685  43.7685  44.9021  44.9021
    44.9021  45.5292  45.5292  45.5292  50.4917  50.4917  50.4917  50.9647
    51.2460  51.2460  51.2460  53.4233  53.5279  53.5281  54.9798  54.9799
    54.9800  55.6326  55.6328  57.0693

[...]

     the Fermi energy is    49.2398 ev

!    total energy              =   -1973.53142210 Ry
     Harris-Foulkes estimate   =   -1973.53142429 Ry
     estimated scf accuracy    <       0.00000316 Ry

     The total energy is the sum of the following terms:

     one-electron contribution =      53.98201091 Ry
     hartree contribution      =     191.05853787 Ry
     xc contribution           =    -191.14570177 Ry
     ewald contribution        =   -2027.24527701 Ry
     smearing contrib. (-TS)   =      -0.18099209 Ry

     convergence has been achieved in   9 iterations

     Forces acting on atoms (Ry/au):

     atom    1 type  1   force =     0.00000000    0.00000000    0.00000000
     atom    2 type  1   force =     0.00000000    0.00000000    0.00000000
     atom    3 type  1   force =     0.00000000    0.00000000    0.00000000
     atom    4 type  1   force =     0.00000000    0.00000000    0.00000000
     atom    5 type  1   force =     0.00000000    0.00000000    0.00000000
     atom    6 type  1   force =     0.00000000    0.00000000    0.00000000
     atom    7 type  2   force =     0.00000000    0.00000000    0.00000000
     atom    8 type  2   force =     0.00000000    0.00000000    0.00000000

     Total force =     0.000000     Total SCF correction =     0.000000

     entering subroutine stress ...

          total   stress  (Ry/bohr**3)                   (kbar)     P= 5522.16
   0.03753889   0.00000000   0.00000000       5522.16      0.00      0.00
   0.00000000   0.03753889   0.00000000          0.00   5522.16      0.00
   0.00000000   0.00000000   0.03753889          0.00      0.00   5522.16

     BFGS Geometry Optimization

     number of scf cycles    =   1
     number of bfgs steps    =   0

     enthalpy new            =   -1973.5314220963 Ry

[...]

     new trust radius        =       0.8351375191 bohr
     new conv_thr            =       0.0000010000 Ry

[...]

          total   stress  (Ry/bohr**3)                   (kbar)     P=-1507.96
  -0.01025092   0.00000000   0.00000000      -1507.96      0.00      0.00
   0.00000000  -0.01025092   0.00000000          0.00  -1507.96      0.00
   0.00000000   0.00000000  -0.01025092          0.00      0.00  -1507.96

     number of scf cycles    =   3
     number of bfgs steps    =   2

     enthalpy old            =   -1977.4163257986 Ry
     enthalpy new            =   -1975.5829460953 Ry

     CASE: enthalpy_new > enthalpy_old

     new trust radius        =       0.2381592793 bohr

     trust_radius < trust_radius_min

     resetting bfgs history

     Message from routine bfgs:
     history already reset at previous step: stopping
     new conv_thr            =       0.0000010000 Ry

     new unit-cell volume =   1046.51755 a.u.^3 (   155.07790 Ang^3 )

[...]

ATOMIC_POSITIONS (crystal)
Cr       0.000000000   0.500000000   0.250000000
Cr       0.000000000   0.500000000   0.750000000
Cr       0.500000000   0.750000000   0.000000000
Cr       0.500000000   0.250000000   0.000000000
Cr       0.750000000   0.000000000   0.500000000
Cr       0.250000000   0.000000000   0.500000000
Si       0.500000000   0.500000000   0.500000000
Si       0.000000000   0.000000000   0.000000000

     Writing output data file Prototype-La-cP8-Cr3Si.save
     NEW-OLD atomic charge density approx. for the potential
     NEW k-points:
        k(    1) = (   0.0000000   0.0000000   0.0000000), wk =   0.0095238
        k(    2) = (   0.0000000   0.0000000   0.1200885), wk =   0.0190476
        k(    3) = (   0.0000000   0.0000000   0.2401771), wk =   0.0190476
        k(    4) = (   0.0000000   0.0000000   0.3602656), wk =   0.0190476
        k(    5) = (   0.0000000   0.1401033   0.0000000), wk =   0.0190476
        k(    6) = (   0.0000000   0.1401033   0.1200885), wk =   0.0380952
        k(    7) = (   0.0000000   0.1401033   0.2401771), wk =   0.0380952
        k(    8) = (   0.0000000   0.1401033   0.3602656), wk =   0.0380952
        k(    9) = (   0.0000000   0.2802066   0.0000000), wk =   0.0190476
        k(   10) = (   0.0000000   0.2802066   0.1200885), wk =   0.0380952
        k(   11) = (   0.0000000   0.2802066   0.2401771), wk =   0.0380952
        k(   12) = (   0.0000000   0.2802066   0.3602656), wk =   0.0380952
        k(   13) = (   0.0000000  -0.4203099   0.0000000), wk =   0.0095238
        k(   14) = (   0.0000000  -0.4203099   0.1200885), wk =   0.0190476
        k(   15) = (   0.0000000  -0.4203099   0.2401771), wk =   0.0190476
        k(   16) = (   0.0000000  -0.4203099   0.3602656), wk =   0.0190476
        k(   17) = (   0.1681240   0.0000000   0.0000000), wk =   0.0190476
        k(   18) = (   0.1681240   0.0000000   0.1200885), wk =   0.0380952
        k(   19) = (   0.1681240   0.0000000   0.2401771), wk =   0.0380952
        k(   20) = (   0.1681240   0.0000000   0.3602656), wk =   0.0380952
        k(   21) = (   0.1681240   0.1401033   0.0000000), wk =   0.0380952
        k(   22) = (   0.1681240   0.1401033   0.1200885), wk =   0.0761905
        k(   23) = (   0.1681240   0.1401033   0.2401771), wk =   0.0761905
        k(   24) = (   0.1681240   0.1401033   0.3602656), wk =   0.0761905
        k(   25) = (   0.1681240   0.2802066   0.0000000), wk =   0.0380952
        k(   26) = (   0.1681240   0.2802066   0.1200885), wk =   0.0761905
        k(   27) = (   0.1681240   0.2802066   0.2401771), wk =   0.0761905
        k(   28) = (   0.1681240   0.2802066   0.3602656), wk =   0.0761905
        k(   29) = (   0.1681240  -0.4203099   0.0000000), wk =   0.0190476
        k(   30) = (   0.1681240  -0.4203099   0.1200885), wk =   0.0380952
        k(   31) = (   0.1681240  -0.4203099   0.2401771), wk =   0.0380952
        k(   32) = (   0.1681240  -0.4203099   0.3602656), wk =   0.0380952
        k(   33) = (   0.3362479   0.0000000   0.0000000), wk =   0.0190476
        k(   34) = (   0.3362479   0.0000000   0.1200885), wk =   0.0380952
        k(   35) = (   0.3362479   0.0000000   0.2401771), wk =   0.0380952
        k(   36) = (   0.3362479   0.0000000   0.3602656), wk =   0.0380952
        k(   37) = (   0.3362479   0.1401033   0.0000000), wk =   0.0380952
        k(   38) = (   0.3362479   0.1401033   0.1200885), wk =   0.0761905
        k(   39) = (   0.3362479   0.1401033   0.2401771), wk =   0.0761905
        k(   40) = (   0.3362479   0.1401033   0.3602656), wk =   0.0761905
        k(   41) = (   0.3362479   0.2802066   0.0000000), wk =   0.0380952
        k(   42) = (   0.3362479   0.2802066   0.1200885), wk =   0.0761905
        k(   43) = (   0.3362479   0.2802066   0.2401771), wk =   0.0761905
        k(   44) = (   0.3362479   0.2802066   0.3602656), wk =   0.0761905
        k(   45) = (   0.3362479  -0.4203099   0.0000000), wk =   0.0190476
        k(   46) = (   0.3362479  -0.4203099   0.1200885), wk =   0.0380952
        k(   47) = (   0.3362479  -0.4203099   0.2401771), wk =   0.0380952
        k(   48) = (   0.3362479  -0.4203099   0.3602656), wk =   0.0380952

[...]

     The maximum number of steps has been reached.

     End of BFGS Geometry Optimization
Begin final coordinates
     new unit-cell volume =   1046.51755 a.u.^3 (   155.07790 Ang^3 )

CELL_PARAMETERS (alat=  8.53457320)
   1.189598380   0.000000000   0.000000000
   0.000000000   1.189598380   0.000000000
   0.000000000   0.000000000   1.189598380

ATOMIC_POSITIONS (crystal)
Cr       0.000000000   0.500000000   0.250000000
Cr       0.000000000   0.500000000   0.750000000
Cr       0.500000000   0.750000000   0.000000000
Cr       0.500000000   0.250000000   0.000000000
Cr       0.750000000   0.000000000   0.500000000
Cr       0.250000000   0.000000000   0.500000000
Si       0.500000000   0.500000000   0.500000000
Si       0.000000000   0.000000000   0.000000000
End final coordinates

     A final scf calculation at the relaxed structure.
     The G-vectors are recalculated for the final unit cell
     Results may differ from those at the preceding step.

     bravais-lattice index     =            0
     lattice parameter (alat)  =       8.5346  a.u.
     unit-cell volume          =    1046.5175 (a.u.)^3
     number of atoms/cell      =            8
     number of atomic types    =            2
     number of electrons       =       154.00
     number of Kohn-Sham states=           92
     kinetic-energy cutoff     =      40.0000  Ry
     charge density cutoff     =     160.0000  Ry
     convergence threshold     =      1.0E-06
     mixing beta               =       0.7000
     number of iterations used =            8  plain     mixing
     Exchange-correlation      = SLA-PZ-NOGX-NOGC ( 1 1 0 0 0)
     EXX-fraction              =        0.00

     celldm(1)=   8.534573  celldm(2)=   0.000000  celldm(3)=   0.000000
     celldm(4)=   0.000000  celldm(5)=   0.000000  celldm(6)=   0.000000

     crystal axes: (cart. coord. in units of alat)
               a(1) = (   1.189598   0.000000   0.000000 )
               a(2) = (   0.000000   1.189598   0.000000 )
               a(3) = (   0.000000   0.000000   1.189598 )

     reciprocal axes: (cart. coord. in units 2 pi/alat)
               b(1) = (  0.840620  0.000000  0.000000 )
               b(2) = (  0.000000  0.840620  0.000000 )
               b(3) = (  0.000000  0.000000  0.840620 )

     PseudoPot. # 1 for Ho read from file:
     /home/cwx6513/pp.La/Ho.UPF
     MD5 check sum: f307ee11bce99f5b724fa279e3790763
     Pseudo is Norm-conserving, Zval = 21.0
     Generated in analytical, separable form
     Using radial grid of 1265 points,  6 beta functions with:
                l(1) =   0
                l(2) =   0
                l(3) =   1
                l(4) =   1
                l(5) =   2
                l(6) =   3

     PseudoPot. # 2 for Nd read from file:
     /home/cwx6513/pp.La/Nd.UPF
     MD5 check sum: c66c5b6abe7b5840ced9b1e244e3bed6
     Pseudo is Norm-conserving, Zval = 14.0
     Generated in analytical, separable form
     Using radial grid of 1257 points,  6 beta functions with:
                l(1) =   0
                l(2) =   0
                l(3) =   1
                l(4) =   1
                l(5) =   2
                l(6) =   3

     atomic species   valence    mass     pseudopotential
        Cr            21.00    51.99610     Ho( 1.00)
        Si            14.00    28.08550     Nd( 1.00)

     48 Sym. Ops., with inversion, found (24 have fractional translation)

   Cartesian axes

     site n.     atom                  positions (alat units)
         1           Cr  tau(   1) = (   0.0000000   0.5947992   0.2973996  )
         2           Cr  tau(   2) = (   0.0000000   0.5947992   0.8921988  )
         3           Cr  tau(   3) = (   0.5947992   0.8921988   0.0000000  )
         4           Cr  tau(   4) = (   0.5947992   0.2973996   0.0000000  )
         5           Cr  tau(   5) = (   0.8921988   0.0000000   0.5947992  )
         6           Cr  tau(   6) = (   0.2973996   0.0000000   0.5947992  )
         7           Si  tau(   7) = (   0.5947992   0.5947992   0.5947992  )
         8           Si  tau(   8) = (   0.0000000   0.0000000   0.0000000  )

     number of k points=    48  gaussian smearing, width (Ry)=  0.1000
                       cart. coord. in units 2pi/alat
        k(    1) = (   0.0000000   0.0000000   0.0000000), wk =   0.0095238
        k(    2) = (   0.0000000   0.0000000   0.1200885), wk =   0.0190476
        k(    3) = (   0.0000000   0.0000000   0.2401771), wk =   0.0190476
        k(    4) = (   0.0000000   0.0000000   0.3602656), wk =   0.0190476
        k(    5) = (   0.0000000   0.1401033   0.0000000), wk =   0.0190476
        k(    6) = (   0.0000000   0.1401033   0.1200885), wk =   0.0380952
        k(    7) = (   0.0000000   0.1401033   0.2401771), wk =   0.0380952
        k(    8) = (   0.0000000   0.1401033   0.3602656), wk =   0.0380952
        k(    9) = (   0.0000000   0.2802066   0.0000000), wk =   0.0190476
        k(   10) = (   0.0000000   0.2802066   0.1200885), wk =   0.0380952
        k(   11) = (   0.0000000   0.2802066   0.2401771), wk =   0.0380952
        k(   12) = (   0.0000000   0.2802066   0.3602656), wk =   0.0380952
        k(   13) = (   0.0000000  -0.4203099   0.0000000), wk =   0.0095238
        k(   14) = (   0.0000000  -0.4203099   0.1200885), wk =   0.0190476
        k(   15) = (   0.0000000  -0.4203099   0.2401771), wk =   0.0190476
        k(   16) = (   0.0000000  -0.4203099   0.3602656), wk =   0.0190476
        k(   17) = (   0.1681240   0.0000000   0.0000000), wk =   0.0190476
        k(   18) = (   0.1681240   0.0000000   0.1200885), wk =   0.0380952
        k(   19) = (   0.1681240   0.0000000   0.2401771), wk =   0.0380952
        k(   20) = (   0.1681240   0.0000000   0.3602656), wk =   0.0380952
        k(   21) = (   0.1681240   0.1401033   0.0000000), wk =   0.0380952
        k(   22) = (   0.1681240   0.1401033   0.1200885), wk =   0.0761905
        k(   23) = (   0.1681240   0.1401033   0.2401771), wk =   0.0761905
        k(   24) = (   0.1681240   0.1401033   0.3602656), wk =   0.0761905
        k(   25) = (   0.1681240   0.2802066   0.0000000), wk =   0.0380952
        k(   26) = (   0.1681240   0.2802066   0.1200885), wk =   0.0761905
        k(   27) = (   0.1681240   0.2802066   0.2401771), wk =   0.0761905
        k(   28) = (   0.1681240   0.2802066   0.3602656), wk =   0.0761905
        k(   29) = (   0.1681240  -0.4203099   0.0000000), wk =   0.0190476
        k(   30) = (   0.1681240  -0.4203099   0.1200885), wk =   0.0380952
        k(   31) = (   0.1681240  -0.4203099   0.2401771), wk =   0.0380952
        k(   32) = (   0.1681240  -0.4203099   0.3602656), wk =   0.0380952
        k(   33) = (   0.3362479   0.0000000   0.0000000), wk =   0.0190476
        k(   34) = (   0.3362479   0.0000000   0.1200885), wk =   0.0380952
        k(   35) = (   0.3362479   0.0000000   0.2401771), wk =   0.0380952
        k(   36) = (   0.3362479   0.0000000   0.3602656), wk =   0.0380952
        k(   37) = (   0.3362479   0.1401033   0.0000000), wk =   0.0380952
        k(   38) = (   0.3362479   0.1401033   0.1200885), wk =   0.0761905
        k(   39) = (   0.3362479   0.1401033   0.2401771), wk =   0.0761905
        k(   40) = (   0.3362479   0.1401033   0.3602656), wk =   0.0761905
        k(   41) = (   0.3362479   0.2802066   0.0000000), wk =   0.0380952
        k(   42) = (   0.3362479   0.2802066   0.1200885), wk =   0.0761905
        k(   43) = (   0.3362479   0.2802066   0.2401771), wk =   0.0761905
        k(   44) = (   0.3362479   0.2802066   0.3602656), wk =   0.0761905
        k(   45) = (   0.3362479  -0.4203099   0.0000000), wk =   0.0190476
        k(   46) = (   0.3362479  -0.4203099   0.1200885), wk =   0.0380952
        k(   47) = (   0.3362479  -0.4203099   0.2401771), wk =   0.0380952
        k(   48) = (   0.3362479  -0.4203099   0.3602656), wk =   0.0380952

     Largest allocated arrays     est. size (Mb)     dimensions
     Largest temporary arrays     est. size (Mb)     dimensions

     Initial potential from superposition of free atoms

     Starting from uniform charge
     Starting wfc are    0 randomized atomic wfcs

     Writing output data file Prototype-La-cP8-Cr3Si.save

     Self-consistent Calculation

[...]

     iteration # 10     ecut=    40.00 Ry     beta=0.70
     CG style diagonalization
     c_bands:  1 eigenvalues not converged
     c_bands:  1 eigenvalues not converged
     ethr =  1.93E-07,  avg # of iterations =  3.4

[...]

     total energy              =   -1981.63296249 Ry
     Harris-Foulkes estimate   =   -1981.63296345 Ry
     estimated scf accuracy    <       0.00000142 Ry

     iteration # 12     ecut=    40.00 Ry     beta=0.70
     CG style diagonalization
     ethr =  9.22E-10,  avg # of iterations =  4.2

     End of self-consistent calculation

[...]

          k = 0.3362-0.4203 0.3603 (  4488 PWs)   bands (ev):

   -64.8443 -64.8412 -64.8376 -64.8361 -64.8295 -64.8283 -29.2483 -29.2257
   -29.1590 -29.1587 -29.0827 -29.0571 -28.9753 -28.9753 -28.9520 -28.9508
   -28.9448 -28.9403 -28.9373 -28.9342 -28.9292 -28.9241 -28.9169 -28.9166
   -20.0803 -20.0803   1.2859   1.2867   1.2948   1.2948   1.3001   1.3007
    13.6249  13.7864  13.9224  13.9285  13.9824  13.9959  14.1417  14.1426
    14.1695  14.1824  14.3234  14.3278  14.4070  14.4074  14.4992  14.5052
    14.9561  14.9580  14.9714  14.9754  15.0390  15.0448  15.2131  15.3267
    15.4283  15.4626  15.5084  15.5257  15.5584  15.5659  19.6532  19.6658
    20.2984  20.3099  20.7472  20.7606  23.7076  23.7077  25.9488  25.9508
    25.9931  25.9952  27.0245  27.1183  27.3701  27.4170  27.6077  27.6179
    30.3330  30.5788  31.4304  31.4710  32.4457  32.8905  34.0355  34.0886
    34.3026  34.3840  34.5595  34.5751

     the Fermi energy is    27.3968 ev

!    total energy              =   -1981.63296298 Ry
     Harris-Foulkes estimate   =   -1981.63296382 Ry
     estimated scf accuracy    <       0.00000093 Ry

     The total energy is the sum of the following terms:

     one-electron contribution =    -406.82933101 Ry
     hartree contribution      =     312.33738545 Ry
     xc contribution           =    -182.70008462 Ry
     ewald contribution        =   -1704.14260013 Ry
     smearing contrib. (-TS)   =      -0.29833266 Ry

     convergence has been achieved in  12 iterations

     Forces acting on atoms (Ry/au):

     atom    1 type  1   force =     0.00000000    0.00000000    0.00000000
     atom    2 type  1   force =     0.00000000    0.00000000    0.00000000
     atom    3 type  1   force =     0.00000000    0.00000000    0.00000000
     atom    4 type  1   force =     0.00000000    0.00000000    0.00000000
     atom    5 type  1   force =     0.00000000    0.00000000    0.00000000
     atom    6 type  1   force =     0.00000000    0.00000000    0.00000000
     atom    7 type  2   force =     0.00000000    0.00000000    0.00000000
     atom    8 type  2   force =     0.00000000    0.00000000    0.00000000

     Total force =     0.000000     Total SCF correction =     0.000000

     entering subroutine stress ...

          total   stress  (Ry/bohr**3)                   (kbar)     P=  156.37
   0.00106298   0.00000000   0.00000000        156.37      0.00      0.00
   0.00000000   0.00106298   0.00000000          0.00    156.37      0.00
   0.00000000   0.00000000   0.00106298          0.00      0.00    156.37

     Writing output data file Prototype-La-cP8-Cr3Si.save

     General routines

     Parallel routines

   This run was terminated on:   1:26:44  23Mar2018

   JOB DONE.