     Program PWSCF v.5.0.2 starts on 22Mar2018 at 18:43:46

     Current dimensions of program PWSCF are:
     Max number of different atomic species (ntypx) = 10
     Max number of k-points (npk) =  40000
     Max angular momentum in pseudopotentials (lmaxx) =  3
     Waiting for input...
     Reading input from standard input

     Subspace diagonalization in iterative solution of the eigenvalue problem:
     a serial algorithm will be used

     bravais-lattice index     =            0
     lattice parameter (alat)  =       8.5346  a.u.
     unit-cell volume          =     621.6493 (a.u.)^3
     number of atoms/cell      =            8
     number of atomic types    =            2
     number of electrons       =       130.00
     number of Kohn-Sham states=           78
     kinetic-energy cutoff     =      40.0000  Ry
     charge density cutoff     =     160.0000  Ry
     convergence threshold     =      1.0E-04
     mixing beta               =       0.7000
     number of iterations used =            8  plain     mixing
     Exchange-correlation      = SLA-PZ-NOGX-NOGC ( 1 1 0 0 0)
     EXX-fraction              =        0.00
     nstep                     =           50

     celldm(1)=   8.534573  celldm(2)=   0.000000  celldm(3)=   0.000000
     celldm(4)=   0.000000  celldm(5)=   0.000000  celldm(6)=   0.000000

     crystal axes: (cart. coord. in units of alat)
               a(1) = (   1.000000   0.000000   0.000000 )
               a(2) = (   0.000000   1.000000   0.000000 )
               a(3) = (   0.000000   0.000000   1.000000 )

     reciprocal axes: (cart. coord. in units 2 pi/alat)
               b(1) = (  1.000000  0.000000  0.000000 )
               b(2) = (  0.000000  1.000000  0.000000 )
               b(3) = (  0.000000  0.000000  1.000000 )

     PseudoPot. # 1 for Sm read from file:
     /home/cwx6513/pp.La/Sm.UPF
     MD5 check sum: 5079e8b144a06bfcdbc14fb02b96ab09
     Pseudo is Norm-conserving, Zval = 16.0
     Generated in analytical, separable form
     Using radial grid of 1259 points,  6 beta functions with:
                l(1) =   0
                l(2) =   0
                l(3) =   1
                l(4) =   1
                l(5) =   2
                l(6) =   3

     PseudoPot. # 2 for Eu read from file:
     /home/cwx6513/pp.La/Eu.UPF
     MD5 check sum: 5efdbbfc50c6a10138933a6429836ad2
     Pseudo is Norm-conserving, Zval = 17.0
     Generated in analytical, separable form
     Using radial grid of 1261 points,  6 beta functions with:
                l(1) =   0
                l(2) =   0
                l(3) =   1
                l(4) =   1
                l(5) =   2
                l(6) =   3

     atomic species   valence    mass     pseudopotential
        Cr            16.00    51.99610     Sm( 1.00)
        Si            17.00    28.08550     Eu( 1.00)

     48 Sym. Ops., with inversion, found (24 have fractional translation)

   Cartesian axes

     site n.     atom                  positions (alat units)
         1           Cr  tau(   1) = (   0.0000000   0.5000000   0.2500000  )
         2           Cr  tau(   2) = (   0.0000000   0.5000000   0.7500000  )
         3           Cr  tau(   3) = (   0.5000000   0.7500000   0.0000000  )
         4           Cr  tau(   4) = (   0.5000000   0.2500000   0.0000000  )
         5           Cr  tau(   5) = (   0.7500000   0.0000000   0.5000000  )
         6           Cr  tau(   6) = (   0.2500000   0.0000000   0.5000000  )
         7           Si  tau(   7) = (   0.5000000   0.5000000   0.5000000  )
         8           Si  tau(   8) = (   0.0000000   0.0000000   0.0000000  )

     number of k points=    48  gaussian smearing, width (Ry)=  0.1000
                       cart. coord. in units 2pi/alat
        k(    1) = (   0.0000000   0.0000000   0.0000000), wk =   0.0095238
        k(    2) = (   0.0000000   0.0000000   0.1428571), wk =   0.0190476
        k(    3) = (   0.0000000   0.0000000   0.2857143), wk =   0.0190476
        k(    4) = (   0.0000000   0.0000000   0.4285714), wk =   0.0190476
        k(    5) = (   0.0000000   0.1666667   0.0000000), wk =   0.0190476
        k(    6) = (   0.0000000   0.1666667   0.1428571), wk =   0.0380952
        k(    7) = (   0.0000000   0.1666667   0.2857143), wk =   0.0380952
        k(    8) = (   0.0000000   0.1666667   0.4285714), wk =   0.0380952
        k(    9) = (   0.0000000   0.3333333   0.0000000), wk =   0.0190476
        k(   10) = (   0.0000000   0.3333333   0.1428571), wk =   0.0380952
        k(   11) = (   0.0000000   0.3333333   0.2857143), wk =   0.0380952
        k(   12) = (   0.0000000   0.3333333   0.4285714), wk =   0.0380952
        k(   13) = (   0.0000000  -0.5000000   0.0000000), wk =   0.0095238
        k(   14) = (   0.0000000  -0.5000000   0.1428571), wk =   0.0190476
        k(   15) = (   0.0000000  -0.5000000   0.2857143), wk =   0.0190476
        k(   16) = (   0.0000000  -0.5000000   0.4285714), wk =   0.0190476
        k(   17) = (   0.2000000   0.0000000   0.0000000), wk =   0.0190476
        k(   18) = (   0.2000000   0.0000000   0.1428571), wk =   0.0380952
        k(   19) = (   0.2000000   0.0000000   0.2857143), wk =   0.0380952
        k(   20) = (   0.2000000   0.0000000   0.4285714), wk =   0.0380952
        k(   21) = (   0.2000000   0.1666667   0.0000000), wk =   0.0380952
        k(   22) = (   0.2000000   0.1666667   0.1428571), wk =   0.0761905
        k(   23) = (   0.2000000   0.1666667   0.2857143), wk =   0.0761905
        k(   24) = (   0.2000000   0.1666667   0.4285714), wk =   0.0761905
        k(   25) = (   0.2000000   0.3333333   0.0000000), wk =   0.0380952
        k(   26) = (   0.2000000   0.3333333   0.1428571), wk =   0.0761905
        k(   27) = (   0.2000000   0.3333333   0.2857143), wk =   0.0761905
        k(   28) = (   0.2000000   0.3333333   0.4285714), wk =   0.0761905
        k(   29) = (   0.2000000  -0.5000000   0.0000000), wk =   0.0190476
        k(   30) = (   0.2000000  -0.5000000   0.1428571), wk =   0.0380952
        k(   31) = (   0.2000000  -0.5000000   0.2857143), wk =   0.0380952
        k(   32) = (   0.2000000  -0.5000000   0.4285714), wk =   0.0380952
        k(   33) = (   0.4000000   0.0000000   0.0000000), wk =   0.0190476
        k(   34) = (   0.4000000   0.0000000   0.1428571), wk =   0.0380952
        k(   35) = (   0.4000000   0.0000000   0.2857143), wk =   0.0380952
        k(   36) = (   0.4000000   0.0000000   0.4285714), wk =   0.0380952
        k(   37) = (   0.4000000   0.1666667   0.0000000), wk =   0.0380952
        k(   38) = (   0.4000000   0.1666667   0.1428571), wk =   0.0761905
        k(   39) = (   0.4000000   0.1666667   0.2857143), wk =   0.0761905
        k(   40) = (   0.4000000   0.1666667   0.4285714), wk =   0.0761905
        k(   41) = (   0.4000000   0.3333333   0.0000000), wk =   0.0380952
        k(   42) = (   0.4000000   0.3333333   0.1428571), wk =   0.0761905
        k(   43) = (   0.4000000   0.3333333   0.2857143), wk =   0.0761905
        k(   44) = (   0.4000000   0.3333333   0.4285714), wk =   0.0761905
        k(   45) = (   0.4000000  -0.5000000   0.0000000), wk =   0.0190476
        k(   46) = (   0.4000000  -0.5000000   0.1428571), wk =   0.0380952
        k(   47) = (   0.4000000  -0.5000000   0.2857143), wk =   0.0380952
        k(   48) = (   0.4000000  -0.5000000   0.4285714), wk =   0.0380952

     Largest allocated arrays     est. size (Mb)     dimensions
     Largest temporary arrays     est. size (Mb)     dimensions

     Initial potential from superposition of free atoms

     Starting from uniform charge
     Starting wfc are    0 randomized atomic wfcs

     Self-consistent Calculation

     iteration #  1     ecut=    40.00 Ry     beta=0.70
     CG style diagonalization
     ethr =  1.00E-02,  avg # of iterations = 10.5

     total energy              =   -1209.18143809 Ry
     Harris-Foulkes estimate   =   -1341.19538352 Ry
     estimated scf accuracy    <     180.77674789 Ry

[...]

     iteration #  5     ecut=    40.00 Ry     beta=0.70
     CG style diagonalization
     c_bands:  1 eigenvalues not converged
     c_bands:  1 eigenvalues not converged
     c_bands:  1 eigenvalues not converged
     c_bands:  1 eigenvalues not converged
     c_bands:  1 eigenvalues not converged
     c_bands:  1 eigenvalues not converged
     c_bands:  1 eigenvalues not converged
     c_bands:  1 eigenvalues not converged
     c_bands:  1 eigenvalues not converged
     ethr =  1.59E-04,  avg # of iterations =  4.8

[...]

     End of self-consistent calculation

          k = 0.0000 0.0000 0.0000 (  2601 PWs)   bands (ev):

   -21.0152 -20.8700 -16.1805 -15.6709 -15.6709 -14.0805 -14.0805 -14.0805
     4.5206   4.5206   4.5206   4.5681   4.5681   5.2075   5.2075   5.2075
     5.4761   9.2060   9.2060   9.2060   9.6468   9.6468   9.6468  10.5466
    10.5466  10.5466  10.7526  10.7526  10.7526  13.3150  13.3150  13.3150
    32.5617  32.5617  32.5617  32.6740  32.6740  32.9332  34.4104  35.0686
    35.0686  35.0686  35.8527  36.0877  36.3141  36.3141  36.6391  36.6391
    36.6391  37.1234  37.1234  37.4098  37.4098  37.4098  41.7309  41.7309
    41.7309  41.9640  41.9640  41.9640  42.2787  42.2787  42.4967  42.4967
    42.4967  45.2448  45.2448  46.1988  46.1988  46.1988  48.6777  48.6777
    48.6778  50.1054  50.4370  50.4370  50.4374  51.1612

[...]

     the Fermi energy is    44.5641 ev

!    total energy              =   -1254.69330736 Ry
     Harris-Foulkes estimate   =   -1254.69331410 Ry
     estimated scf accuracy    <       0.00000742 Ry

     The total energy is the sum of the following terms:

     one-electron contribution =     250.44838568 Ry
     hartree contribution      =      65.85399799 Ry
     xc contribution           =    -143.61878903 Ry
     ewald contribution        =   -1427.09390393 Ry
     smearing contrib. (-TS)   =      -0.28299806 Ry

     convergence has been achieved in   8 iterations

     Forces acting on atoms (Ry/au):

     atom    1 type  1   force =     0.00000000    0.00000000    0.00000000
     atom    2 type  1   force =     0.00000000    0.00000000    0.00000000
     atom    3 type  1   force =     0.00000000    0.00000000    0.00000000
     atom    4 type  1   force =     0.00000000    0.00000000    0.00000000
     atom    5 type  1   force =     0.00000000    0.00000000    0.00000000
     atom    6 type  1   force =     0.00000000    0.00000000    0.00000000
     atom    7 type  2   force =     0.00000000    0.00000000    0.00000000
     atom    8 type  2   force =     0.00000000    0.00000000    0.00000000

     Total force =     0.000000     Total SCF correction =     0.000000

     entering subroutine stress ...

          total   stress  (Ry/bohr**3)                   (kbar)     P= 4762.16
   0.03237249   0.00000000   0.00000000       4762.16      0.00      0.00
   0.00000000   0.03237249   0.00000000          0.00   4762.16      0.00
   0.00000000   0.00000000   0.03237249          0.00      0.00   4762.16

     BFGS Geometry Optimization

     number of scf cycles    =   1
     number of bfgs steps    =   0

     enthalpy new            =   -1254.6933073614 Ry

[...]
     enthalpy new            =   -1258.0302858543 Ry

     CASE: enthalpy_new < enthalpy_old

     small trust_radius: resetting bfgs history

     new trust radius        =       0.7026241421 bohr
     new conv_thr            =       0.0000010000 Ry

[...]

          total   stress  (Ry/bohr**3)                   (kbar)     P=-1044.85
  -0.00710276   0.00000000   0.00000000      -1044.85      0.00      0.00
   0.00000000  -0.00710276   0.00000000          0.00  -1044.85      0.00
   0.00000000   0.00000000  -0.00710276          0.00      0.00  -1044.85

     number of scf cycles    =   3
     number of bfgs steps    =   2

     enthalpy old            =   -1258.0302858543 Ry
     enthalpy new            =   -1257.0820238381 Ry

     CASE: enthalpy_new > enthalpy_old

     new trust radius        =       0.2268777931 bohr

     trust_radius < trust_radius_min

     resetting bfgs history

     Message from routine bfgs:
     history already reset at previous step: stopping
     new conv_thr            =       0.0000010000 Ry

     new unit-cell volume =   1048.92598 a.u.^3 (   155.43479 Ang^3 )

[...]

ATOMIC_POSITIONS (crystal)
Cr       0.000000000   0.500000000   0.250000000
Cr       0.000000000   0.500000000   0.750000000
Cr       0.500000000   0.750000000   0.000000000
Cr       0.500000000   0.250000000   0.000000000
Cr       0.750000000   0.000000000   0.500000000
Cr       0.250000000   0.000000000   0.500000000
Si       0.500000000   0.500000000   0.500000000
Si       0.000000000   0.000000000   0.000000000

     Writing output data file Prototype-La-cP8-Cr3Si.save
     NEW-OLD atomic charge density approx. for the potential
     NEW k-points:
        k(    1) = (   0.0000000   0.0000000   0.0000000), wk =   0.0095238
        k(    2) = (   0.0000000   0.0000000   0.1199966), wk =   0.0190476
        k(    3) = (   0.0000000   0.0000000   0.2399931), wk =   0.0190476
        k(    4) = (   0.0000000   0.0000000   0.3599897), wk =   0.0190476
        k(    5) = (   0.0000000   0.1399960   0.0000000), wk =   0.0190476
        k(    6) = (   0.0000000   0.1399960   0.1199966), wk =   0.0380952
        k(    7) = (   0.0000000   0.1399960   0.2399931), wk =   0.0380952
        k(    8) = (   0.0000000   0.1399960   0.3599897), wk =   0.0380952
        k(    9) = (   0.0000000   0.2799920   0.0000000), wk =   0.0190476
        k(   10) = (   0.0000000   0.2799920   0.1199966), wk =   0.0380952
        k(   11) = (   0.0000000   0.2799920   0.2399931), wk =   0.0380952
        k(   12) = (   0.0000000   0.2799920   0.3599897), wk =   0.0380952
        k(   13) = (   0.0000000  -0.4199880   0.0000000), wk =   0.0095238
        k(   14) = (   0.0000000  -0.4199880   0.1199966), wk =   0.0190476
        k(   15) = (   0.0000000  -0.4199880   0.2399931), wk =   0.0190476
        k(   16) = (   0.0000000  -0.4199880   0.3599897), wk =   0.0190476
        k(   17) = (   0.1679952   0.0000000   0.0000000), wk =   0.0190476
        k(   18) = (   0.1679952   0.0000000   0.1199966), wk =   0.0380952
        k(   19) = (   0.1679952   0.0000000   0.2399931), wk =   0.0380952
        k(   20) = (   0.1679952   0.0000000   0.3599897), wk =   0.0380952
        k(   21) = (   0.1679952   0.1399960   0.0000000), wk =   0.0380952
        k(   22) = (   0.1679952   0.1399960   0.1199966), wk =   0.0761905
        k(   23) = (   0.1679952   0.1399960   0.2399931), wk =   0.0761905
        k(   24) = (   0.1679952   0.1399960   0.3599897), wk =   0.0761905
        k(   25) = (   0.1679952   0.2799920   0.0000000), wk =   0.0380952
        k(   26) = (   0.1679952   0.2799920   0.1199966), wk =   0.0761905
        k(   27) = (   0.1679952   0.2799920   0.2399931), wk =   0.0761905
        k(   28) = (   0.1679952   0.2799920   0.3599897), wk =   0.0761905
        k(   29) = (   0.1679952  -0.4199880   0.0000000), wk =   0.0190476
        k(   30) = (   0.1679952  -0.4199880   0.1199966), wk =   0.0380952
        k(   31) = (   0.1679952  -0.4199880   0.2399931), wk =   0.0380952
        k(   32) = (   0.1679952  -0.4199880   0.3599897), wk =   0.0380952
        k(   33) = (   0.3359904   0.0000000   0.0000000), wk =   0.0190476
        k(   34) = (   0.3359904   0.0000000   0.1199966), wk =   0.0380952
        k(   35) = (   0.3359904   0.0000000   0.2399931), wk =   0.0380952
        k(   36) = (   0.3359904   0.0000000   0.3599897), wk =   0.0380952
        k(   37) = (   0.3359904   0.1399960   0.0000000), wk =   0.0380952
        k(   38) = (   0.3359904   0.1399960   0.1199966), wk =   0.0761905
        k(   39) = (   0.3359904   0.1399960   0.2399931), wk =   0.0761905
        k(   40) = (   0.3359904   0.1399960   0.3599897), wk =   0.0761905
        k(   41) = (   0.3359904   0.2799920   0.0000000), wk =   0.0380952
        k(   42) = (   0.3359904   0.2799920   0.1199966), wk =   0.0761905
        k(   43) = (   0.3359904   0.2799920   0.2399931), wk =   0.0761905
        k(   44) = (   0.3359904   0.2799920   0.3599897), wk =   0.0761905
        k(   45) = (   0.3359904  -0.4199880   0.0000000), wk =   0.0190476
        k(   46) = (   0.3359904  -0.4199880   0.1199966), wk =   0.0380952
        k(   47) = (   0.3359904  -0.4199880   0.2399931), wk =   0.0380952
        k(   48) = (   0.3359904  -0.4199880   0.3599897), wk =   0.0380952

[...]

     The maximum number of steps has been reached.

     End of BFGS Geometry Optimization
Begin final coordinates
     new unit-cell volume =   1048.92598 a.u.^3 (   155.43479 Ang^3 )

CELL_PARAMETERS (alat=  8.53457320)
   1.190510254   0.000000000   0.000000000
   0.000000000   1.190510254   0.000000000
   0.000000000   0.000000000   1.190510254

ATOMIC_POSITIONS (crystal)
Cr       0.000000000   0.500000000   0.250000000
Cr       0.000000000   0.500000000   0.750000000
Cr       0.500000000   0.750000000   0.000000000
Cr       0.500000000   0.250000000   0.000000000
Cr       0.750000000   0.000000000   0.500000000
Cr       0.250000000   0.000000000   0.500000000
Si       0.500000000   0.500000000   0.500000000
Si       0.000000000   0.000000000   0.000000000
End final coordinates

     A final scf calculation at the relaxed structure.
     The G-vectors are recalculated for the final unit cell
     Results may differ from those at the preceding step.

     bravais-lattice index     =            0
     lattice parameter (alat)  =       8.5346  a.u.
     unit-cell volume          =    1048.9260 (a.u.)^3
     number of atoms/cell      =            8
     number of atomic types    =            2
     number of electrons       =       130.00
     number of Kohn-Sham states=           78
     kinetic-energy cutoff     =      40.0000  Ry
     charge density cutoff     =     160.0000  Ry
     convergence threshold     =      1.0E-06
     mixing beta               =       0.7000
     number of iterations used =            8  plain     mixing
     Exchange-correlation      = SLA-PZ-NOGX-NOGC ( 1 1 0 0 0)
     EXX-fraction              =        0.00

     celldm(1)=   8.534573  celldm(2)=   0.000000  celldm(3)=   0.000000
     celldm(4)=   0.000000  celldm(5)=   0.000000  celldm(6)=   0.000000

     crystal axes: (cart. coord. in units of alat)
               a(1) = (   1.190510   0.000000   0.000000 )
               a(2) = (   0.000000   1.190510   0.000000 )
               a(3) = (   0.000000   0.000000   1.190510 )

     reciprocal axes: (cart. coord. in units 2 pi/alat)
               b(1) = (  0.839976  0.000000  0.000000 )
               b(2) = (  0.000000  0.839976  0.000000 )
               b(3) = (  0.000000  0.000000  0.839976 )

     PseudoPot. # 1 for Sm read from file:
     /home/cwx6513/pp.La/Sm.UPF
     MD5 check sum: 5079e8b144a06bfcdbc14fb02b96ab09
     Pseudo is Norm-conserving, Zval = 16.0
     Generated in analytical, separable form
     Using radial grid of 1259 points,  6 beta functions with:
                l(1) =   0
                l(2) =   0
                l(3) =   1
                l(4) =   1
                l(5) =   2
                l(6) =   3

     PseudoPot. # 2 for Eu read from file:
     /home/cwx6513/pp.La/Eu.UPF
     MD5 check sum: 5efdbbfc50c6a10138933a6429836ad2
     Pseudo is Norm-conserving, Zval = 17.0
     Generated in analytical, separable form
     Using radial grid of 1261 points,  6 beta functions with:
                l(1) =   0
                l(2) =   0
                l(3) =   1
                l(4) =   1
                l(5) =   2
                l(6) =   3

     atomic species   valence    mass     pseudopotential
        Cr            16.00    51.99610     Sm( 1.00)
        Si            17.00    28.08550     Eu( 1.00)

     48 Sym. Ops., with inversion, found (24 have fractional translation)

   Cartesian axes

     site n.     atom                  positions (alat units)
         1           Cr  tau(   1) = (   0.0000000   0.5952551   0.2976276  )
         2           Cr  tau(   2) = (   0.0000000   0.5952551   0.8928827  )
         3           Cr  tau(   3) = (   0.5952551   0.8928827   0.0000000  )
         4           Cr  tau(   4) = (   0.5952551   0.2976276   0.0000000  )
         5           Cr  tau(   5) = (   0.8928827   0.0000000   0.5952551  )
         6           Cr  tau(   6) = (   0.2976276   0.0000000   0.5952551  )
         7           Si  tau(   7) = (   0.5952551   0.5952551   0.5952551  )
         8           Si  tau(   8) = (   0.0000000   0.0000000   0.0000000  )

     number of k points=    48  gaussian smearing, width (Ry)=  0.1000
                       cart. coord. in units 2pi/alat
        k(    1) = (   0.0000000   0.0000000   0.0000000), wk =   0.0095238
        k(    2) = (   0.0000000   0.0000000   0.1199966), wk =   0.0190476
        k(    3) = (   0.0000000   0.0000000   0.2399931), wk =   0.0190476
        k(    4) = (   0.0000000   0.0000000   0.3599897), wk =   0.0190476
        k(    5) = (   0.0000000   0.1399960   0.0000000), wk =   0.0190476
        k(    6) = (   0.0000000   0.1399960   0.1199966), wk =   0.0380952
        k(    7) = (   0.0000000   0.1399960   0.2399931), wk =   0.0380952
        k(    8) = (   0.0000000   0.1399960   0.3599897), wk =   0.0380952
        k(    9) = (   0.0000000   0.2799920   0.0000000), wk =   0.0190476
        k(   10) = (   0.0000000   0.2799920   0.1199966), wk =   0.0380952
        k(   11) = (   0.0000000   0.2799920   0.2399931), wk =   0.0380952
        k(   12) = (   0.0000000   0.2799920   0.3599897), wk =   0.0380952
        k(   13) = (   0.0000000  -0.4199880   0.0000000), wk =   0.0095238
        k(   14) = (   0.0000000  -0.4199880   0.1199966), wk =   0.0190476
        k(   15) = (   0.0000000  -0.4199880   0.2399931), wk =   0.0190476
        k(   16) = (   0.0000000  -0.4199880   0.3599897), wk =   0.0190476
        k(   17) = (   0.1679952   0.0000000   0.0000000), wk =   0.0190476
        k(   18) = (   0.1679952   0.0000000   0.1199966), wk =   0.0380952
        k(   19) = (   0.1679952   0.0000000   0.2399931), wk =   0.0380952
        k(   20) = (   0.1679952   0.0000000   0.3599897), wk =   0.0380952
        k(   21) = (   0.1679952   0.1399960   0.0000000), wk =   0.0380952
        k(   22) = (   0.1679952   0.1399960   0.1199966), wk =   0.0761905
        k(   23) = (   0.1679952   0.1399960   0.2399931), wk =   0.0761905
        k(   24) = (   0.1679952   0.1399960   0.3599897), wk =   0.0761905
        k(   25) = (   0.1679952   0.2799920   0.0000000), wk =   0.0380952
        k(   26) = (   0.1679952   0.2799920   0.1199966), wk =   0.0761905
        k(   27) = (   0.1679952   0.2799920   0.2399931), wk =   0.0761905
        k(   28) = (   0.1679952   0.2799920   0.3599897), wk =   0.0761905
        k(   29) = (   0.1679952  -0.4199880   0.0000000), wk =   0.0190476
        k(   30) = (   0.1679952  -0.4199880   0.1199966), wk =   0.0380952
        k(   31) = (   0.1679952  -0.4199880   0.2399931), wk =   0.0380952
        k(   32) = (   0.1679952  -0.4199880   0.3599897), wk =   0.0380952
        k(   33) = (   0.3359904   0.0000000   0.0000000), wk =   0.0190476
        k(   34) = (   0.3359904   0.0000000   0.1199966), wk =   0.0380952
        k(   35) = (   0.3359904   0.0000000   0.2399931), wk =   0.0380952
        k(   36) = (   0.3359904   0.0000000   0.3599897), wk =   0.0380952
        k(   37) = (   0.3359904   0.1399960   0.0000000), wk =   0.0380952
        k(   38) = (   0.3359904   0.1399960   0.1199966), wk =   0.0761905
        k(   39) = (   0.3359904   0.1399960   0.2399931), wk =   0.0761905
        k(   40) = (   0.3359904   0.1399960   0.3599897), wk =   0.0761905
        k(   41) = (   0.3359904   0.2799920   0.0000000), wk =   0.0380952
        k(   42) = (   0.3359904   0.2799920   0.1199966), wk =   0.0761905
        k(   43) = (   0.3359904   0.2799920   0.2399931), wk =   0.0761905
        k(   44) = (   0.3359904   0.2799920   0.3599897), wk =   0.0761905
        k(   45) = (   0.3359904  -0.4199880   0.0000000), wk =   0.0190476
        k(   46) = (   0.3359904  -0.4199880   0.1199966), wk =   0.0380952
        k(   47) = (   0.3359904  -0.4199880   0.2399931), wk =   0.0380952
        k(   48) = (   0.3359904  -0.4199880   0.3599897), wk =   0.0380952

     Largest allocated arrays     est. size (Mb)     dimensions
     Largest temporary arrays     est. size (Mb)     dimensions

     Initial potential from superposition of free atoms

     Starting from uniform charge
     Starting wfc are    0 randomized atomic wfcs

     Writing output data file Prototype-La-cP8-Cr3Si.save

     Self-consistent Calculation

[...]

     iteration # 10     ecut=    40.00 Ry     beta=0.70
     CG style diagonalization
     c_bands:  2 eigenvalues not converged
     c_bands:  1 eigenvalues not converged
     ethr =  1.89E-07,  avg # of iterations =  4.7

[...]

     total energy              =   -1259.87615576 Ry
     Harris-Foulkes estimate   =   -1259.87615885 Ry
     estimated scf accuracy    <       0.00001027 Ry

     iteration # 13     ecut=    40.00 Ry     beta=0.70
     CG style diagonalization
     ethr =  7.90E-09,  avg # of iterations =  3.4

     End of self-consistent calculation

[...]

          k = 0.3360-0.4200 0.3600 (  4502 PWs)   bands (ev):

   -38.8151 -38.8151 -33.4382 -33.4252 -33.3879 -33.3877 -33.3515 -33.3379
   -11.5967 -11.5948 -11.5913 -11.5910 -11.5841 -11.5840  -9.1384  -9.0490
    -8.8179  -8.8131  -8.6971  -8.6943  -8.5907  -8.5299  -8.4480  -8.4218
    -8.3882  -8.3703  -8.3274  -8.3247  -8.3025  -8.2998  -8.2864  -8.2855
    18.3174  18.3345  18.4645  18.5055  18.6290  18.6431  18.9587  18.9685
    19.0360  19.0453  19.5584  19.5605  20.0599  20.0756  20.4562  20.5117
    20.5974  20.6097  21.0041  21.2269  21.7176  21.7771  22.3548  22.3731
    22.4589  22.4881  23.0711  23.1107  23.6574  23.9442  24.0400  24.0781
    24.1813  24.2555  24.6433  24.7260  24.8308  24.9591  25.1860  25.2000
    25.4543  25.5394  26.3788  26.6098  26.8161  27.1496

     the Fermi energy is    24.2984 ev

!    total energy              =   -1259.87615751 Ry
     Harris-Foulkes estimate   =   -1259.87615759 Ry
     estimated scf accuracy    <       0.00000009 Ry

     The total energy is the sum of the following terms:

     one-electron contribution =     -55.43802725 Ry
     hartree contribution      =     129.55342244 Ry
     xc contribution           =    -134.66887886 Ry
     ewald contribution        =   -1198.72458024 Ry
     smearing contrib. (-TS)   =      -0.59809360 Ry

     convergence has been achieved in  13 iterations

     Forces acting on atoms (Ry/au):

     atom    1 type  1   force =     0.00000000    0.00000000    0.00000000
     atom    2 type  1   force =     0.00000000    0.00000000    0.00000000
     atom    3 type  1   force =     0.00000000    0.00000000    0.00000000
     atom    4 type  1   force =     0.00000000    0.00000000    0.00000000
     atom    5 type  1   force =     0.00000000    0.00000000    0.00000000
     atom    6 type  1   force =     0.00000000    0.00000000    0.00000000
     atom    7 type  2   force =     0.00000000    0.00000000    0.00000000
     atom    8 type  2   force =     0.00000000    0.00000000    0.00000000

     Total force =     0.000000     Total SCF correction =     0.000000

     entering subroutine stress ...

          total   stress  (Ry/bohr**3)                   (kbar)     P=  -33.54
  -0.00022800   0.00000000   0.00000000        -33.54      0.00      0.00
   0.00000000  -0.00022800   0.00000000          0.00    -33.54      0.00
   0.00000000   0.00000000  -0.00022800          0.00      0.00    -33.54

     Writing output data file Prototype-La-cP8-Cr3Si.save

     General routines

     Parallel routines

   This run was terminated on:  19: 4:58  22Mar2018

   JOB DONE.