     Program PWSCF v.5.0.2 starts on 22Mar2018 at 18:43:50

     Current dimensions of program PWSCF are:
     Max number of different atomic species (ntypx) = 10
     Max number of k-points (npk) =  40000
     Max angular momentum in pseudopotentials (lmaxx) =  3
     Waiting for input...
     Reading input from standard input

     Subspace diagonalization in iterative solution of the eigenvalue problem:
     a serial algorithm will be used

     bravais-lattice index     =            0
     lattice parameter (alat)  =       7.0151  a.u.
     unit-cell volume          =     862.2778 (a.u.)^3
     number of atoms/cell      =           12
     number of atomic types    =            2
     number of electrons       =       196.00
     number of Kohn-Sham states=          118
     kinetic-energy cutoff     =      40.0000  Ry
     charge density cutoff     =     160.0000  Ry
     convergence threshold     =      1.0E-04
     mixing beta               =       0.7000
     number of iterations used =            8  plain     mixing
     Exchange-correlation      = SLA-PZ-NOGX-NOGC ( 1 1 0 0 0)
     EXX-fraction              =        0.00
     nstep                     =           50

     celldm(1)=   7.015105  celldm(2)=   0.000000  celldm(3)=   0.000000
     celldm(4)=   0.000000  celldm(5)=   0.000000  celldm(6)=   0.000000

     crystal axes: (cart. coord. in units of alat)
               a(1) = (   1.000000   0.000000   0.000000 )
               a(2) = (   0.000000   1.315963   0.000000 )
               a(3) = (   0.000000   0.000000   1.898020 )

     reciprocal axes: (cart. coord. in units 2 pi/alat)
               b(1) = (  1.000000  0.000000  0.000000 )
               b(2) = (  0.000000  0.759900  0.000000 )
               b(3) = (  0.000000  0.000000  0.526865 )

     PseudoPot. # 1 for Sm read from file:
     /home/cwx6513/pp.La/Sm.UPF
     MD5 check sum: 5079e8b144a06bfcdbc14fb02b96ab09
     Pseudo is Norm-conserving, Zval = 16.0
     Generated in analytical, separable form
     Using radial grid of 1259 points,  6 beta functions with:
                l(1) =   0
                l(2) =   0
                l(3) =   1
                l(4) =   1
                l(5) =   2
                l(6) =   3

     PseudoPot. # 2 for Eu read from file:
     /home/cwx6513/pp.La/Eu.UPF
     MD5 check sum: 5efdbbfc50c6a10138933a6429836ad2
     Pseudo is Norm-conserving, Zval = 17.0
     Generated in analytical, separable form
     Using radial grid of 1261 points,  6 beta functions with:
                l(1) =   0
                l(2) =   0
                l(3) =   1
                l(4) =   1
                l(5) =   2
                l(6) =   3

     atomic species   valence    mass     pseudopotential
        Co            16.00    58.93320     Sm( 1.00)
        Si            17.00    28.08550     Eu( 1.00)

      8 Sym. Ops., with inversion, found ( 6 have fractional translation)

   Cartesian axes

     site n.     atom                  positions (alat units)
         1           Co  tau(   1) = (   0.7500000   1.0875135   0.8270358  )
         2           Co  tau(   2) = (   0.2500000   0.2284499   1.0709846  )
         3           Co  tau(   3) = (   0.7500000   0.4295318   0.1219744  )
         4           Co  tau(   4) = (   0.2500000   0.8864316   1.7760460  )
         5           Co  tau(   5) = (   0.2500000   0.7067855   0.5358966  )
         6           Co  tau(   6) = (   0.7500000   0.6091779   1.3621238  )
         7           Co  tau(   7) = (   0.2500000   0.0488038   0.4131136  )
         8           Co  tau(   8) = (   0.7500000   1.2671596   1.4849068  )
         9           Si  tau(   9) = (   0.2500000   0.2669484   1.6960710  )
        10           Si  tau(  10) = (   0.7500000   1.0490149   0.2019494  )
        11           Si  tau(  11) = (   0.2500000   0.9249301   1.1509596  )
        12           Si  tau(  12) = (   0.7500000   0.3910333   0.7470608  )

     number of k points=    12  gaussian smearing, width (Ry)=  0.1000
                       cart. coord. in units 2pi/alat
        k(    1) = (   0.0000000   0.0000000   0.0000000), wk =   0.0833333
        k(    2) = (   0.0000000   0.0000000   0.1317162), wk =   0.1666667
        k(    3) = (   0.0000000   0.0000000  -0.2634324), wk =   0.0833333
        k(    4) = (   0.0000000   0.2532999   0.0000000), wk =   0.1666667
        k(    5) = (   0.0000000   0.2532999   0.1317162), wk =   0.3333333
        k(    6) = (   0.0000000   0.2532999  -0.2634324), wk =   0.1666667
        k(    7) = (  -0.5000000   0.0000000   0.0000000), wk =   0.0833333
        k(    8) = (  -0.5000000   0.0000000   0.1317162), wk =   0.1666667
        k(    9) = (  -0.5000000   0.0000000  -0.2634324), wk =   0.0833333
        k(   10) = (  -0.5000000   0.2532999   0.0000000), wk =   0.1666667
        k(   11) = (  -0.5000000   0.2532999   0.1317162), wk =   0.3333333
        k(   12) = (  -0.5000000   0.2532999  -0.2634324), wk =   0.1666667

     Largest allocated arrays     est. size (Mb)     dimensions
     Largest temporary arrays     est. size (Mb)     dimensions

     Initial potential from superposition of free atoms

     Starting from uniform charge
     Starting wfc are    0 randomized atomic wfcs

     Self-consistent Calculation

     iteration #  1     ecut=    40.00 Ry     beta=0.70
     CG style diagonalization
     c_bands:  1 eigenvalues not converged
     c_bands:  1 eigenvalues not converged
     ethr =  1.00E-02,  avg # of iterations = 10.8

     total energy              =   -1836.57239642 Ry
     Harris-Foulkes estimate   =   -2018.92130521 Ry
     estimated scf accuracy    <     251.02077259 Ry

     iteration #  2     ecut=    40.00 Ry     beta=0.70
     CG style diagonalization
     ethr =  1.00E-02,  avg # of iterations =  5.8

[...]

     End of self-consistent calculation

          k = 0.0000 0.0000 0.0000 (  3675 PWs)   bands (ev):

   -18.2232 -17.9310 -17.8511 -17.7919 -11.9034 -11.8961 -11.5820 -11.2165
   -11.1208 -10.9959 -10.9596 -10.8846   6.1353   7.1406   7.1716   7.3336
     7.3548   7.4194   7.4293   7.6662   7.9116   8.0087   8.3836   8.7503
    10.6509  10.7725  10.8003  11.3632  12.2888  12.3180  12.5919  12.6759
    12.7299  13.3642  13.5420  13.5677  13.6425  13.6463  13.7775  14.0962
    14.2397  14.3201  14.3559  14.5614  15.5224  15.6263  15.7217  15.7470
    33.3616  33.5139  33.8007  34.6405  34.6504  34.7635  34.8815  35.2204
    35.3097  36.1951  36.7738  36.9175  37.3923  37.6039  37.8650  38.8915
    39.2359  39.6410  39.8270  39.8874  40.1256  41.0489  41.1081  41.1996
    41.4501  41.5946  41.8064  42.1366  42.6722  42.7517  42.8543  43.1588
    43.1786  43.6793  43.8651  44.1787  44.3387  44.9859  45.4361  45.4751
    45.4800  45.5832  46.2421  47.1199  47.7083  47.7465  48.3420  48.4955
    48.9644  49.6915  49.8669  50.0030  50.1729  50.4178  50.4458  50.5437
    51.5464  51.5920  51.8118  52.1652  52.3556  52.4720  53.3275  54.6730
    54.7501  55.2982  55.9809  56.1164  56.7806  56.8819

[...]

          k =-0.5000 0.0000 0.0000 (  3722 PWs)   bands (ev):

[...]

     the Fermi energy is    48.5833 ev

!    total energy              =   -1902.56461960 Ry
     Harris-Foulkes estimate   =   -1902.56465873 Ry
     estimated scf accuracy    <       0.00004378 Ry

     The total energy is the sum of the following terms:

     one-electron contribution =     445.43840165 Ry
     hartree contribution      =      91.21243782 Ry
     xc contribution           =    -220.05143375 Ry
     ewald contribution        =   -2218.72920244 Ry
     smearing contrib. (-TS)   =      -0.43482287 Ry

     convergence has been achieved in   9 iterations

     Forces acting on atoms (Ry/au):

     atom    1 type  1   force =     0.00000000   -0.04964992   -0.08459309
     atom    2 type  1   force =     0.00000000    0.04964992    0.08459309
     atom    3 type  1   force =     0.00000000   -0.04964992    0.08459309
     atom    4 type  1   force =     0.00000000    0.04964992   -0.08459309
     atom    5 type  1   force =     0.00000000    0.19381270   -0.23310803
     atom    6 type  1   force =     0.00000000   -0.19381270    0.23310803
     atom    7 type  1   force =     0.00000000    0.19381270    0.23310803
     atom    8 type  1   force =     0.00000000   -0.19381270   -0.23310803
     atom    9 type  2   force =     0.00000000   -0.14525578   -0.06054081
     atom   10 type  2   force =     0.00000000    0.14525578    0.06054081
     atom   11 type  2   force =     0.00000000   -0.14525578    0.06054081
     atom   12 type  2   force =     0.00000000    0.14525578   -0.06054081

     Total force =     0.710741     Total SCF correction =     0.000000

     entering subroutine stress ...

          total   stress  (Ry/bohr**3)                   (kbar)     P= 6509.87
   0.04723025   0.00000000   0.00000000       6947.81      0.00      0.00
   0.00000000   0.04144932   0.00000000          0.00   6097.40      0.00
   0.00000000   0.00000000   0.04407996          0.00      0.00   6484.39

     BFGS Geometry Optimization

     number of scf cycles    =   1
     number of bfgs steps    =   0

     enthalpy new            =   -1902.5646196044 Ry

     new trust radius        =       0.5000000000 bohr
     new conv_thr            =       0.0001000000 Ry

     new unit-cell volume =   1085.50315 a.u.^3 (   160.85497 Ang^3 )

CELL_PARAMETERS (alat=  7.01510508)
   1.085136619   0.000000000   0.000000000
   0.000000000   1.414286893   0.000000000
   0.000000000   0.000000000   2.048833228

ATOMIC_POSITIONS (crystal)
Co       0.750000000   0.826013210   0.435277905
Co       0.250000000   0.173986790   0.564722095
Co       0.750000000   0.326013210   0.064722095
Co       0.250000000   0.673986790   0.935277905
Co       0.250000000   0.538599772   0.281082654
Co       0.750000000   0.461400228   0.718917346
Co       0.250000000   0.038599772   0.218917346
Co       0.750000000   0.961400228   0.781082654
Si       0.250000000   0.201719481   0.893272154
Si       0.750000000   0.798280519   0.106727846
Si       0.250000000   0.701719481   0.606727846
Si       0.750000000   0.298280519   0.393272154

     Writing output data file Prototype-La-oP12-Co2Si.save
     NEW-OLD atomic charge density approx. for the potential
     NEW k-points:
        k(    1) = (   0.0000000   0.0000000   0.0000000), wk =   0.0833333
        k(    2) = (   0.0000000   0.0000000   0.1220207), wk =   0.1666667
        k(    3) = (   0.0000000   0.0000000  -0.2440413), wk =   0.0833333
        k(    4) = (   0.0000000   0.2356900   0.0000000), wk =   0.1666667
        k(    5) = (   0.0000000   0.2356900   0.1220207), wk =   0.3333333
        k(    6) = (   0.0000000   0.2356900  -0.2440413), wk =   0.1666667
        k(    7) = (  -0.4607715   0.0000000   0.0000000), wk =   0.0833333
        k(    8) = (  -0.4607715   0.0000000   0.1220207), wk =   0.1666667
        k(    9) = (  -0.4607715   0.0000000  -0.2440413), wk =   0.0833333
        k(   10) = (  -0.4607715   0.2356900   0.0000000), wk =   0.1666667
        k(   11) = (  -0.4607715   0.2356900   0.1220207), wk =   0.3333333
        k(   12) = (  -0.4607715   0.2356900  -0.2440413), wk =   0.1666667

[...]

     enthalpy old            =   -1902.5646196044 Ry
     enthalpy new            =   -1908.6452465785 Ry

     CASE: enthalpy_new < enthalpy_old

     small trust_radius: resetting bfgs history

     new trust radius        =       2.4424010689 bohr
     new conv_thr            =       0.0001000000 Ry

[...]

          total   stress  (Ry/bohr**3)                   (kbar)     P=-1269.90
  -0.00889884   0.00000000   0.00000000      -1309.06      0.00      0.00
   0.00000000  -0.00836086   0.00000000          0.00  -1229.92      0.00
   0.00000000   0.00000000  -0.00863818          0.00      0.00  -1270.72

     number of scf cycles    =   3
     number of bfgs steps    =   2

     enthalpy old            =   -1908.6452465786 Ry
     enthalpy new            =   -1899.6331463797 Ry

     CASE: enthalpy_new > enthalpy_old

     new trust radius        =       0.8997501724 bohr

     trust_radius < trust_radius_min

     resetting bfgs history

     Message from routine bfgs:
     history already reset at previous step: stopping
     new conv_thr            =       0.0001000000 Ry

     new unit-cell volume =   1296.61737 a.u.^3 (   192.13887 Ang^3 )

[...]

ATOMIC_POSITIONS (crystal)
Co       0.750000000   0.825339078   0.434946807
Co       0.250000000   0.174660922   0.565053193
Co       0.750000000   0.325339078   0.065053193
Co       0.250000000   0.674660922   0.934946807
Co       0.250000000   0.540245209   0.280130158
Co       0.750000000   0.459754791   0.719869842
Co       0.250000000   0.040245209   0.219869842
Co       0.750000000   0.959754791   0.780130158
Si       0.250000000   0.200689568   0.892871134
Si       0.750000000   0.799310432   0.107128866
Si       0.250000000   0.700689568   0.607128866
Si       0.750000000   0.299310432   0.392871134

     Writing output data file Prototype-La-oP12-Co2Si.save
     NEW-OLD atomic charge density approx. for the potential
     NEW k-points:
        k(    1) = (   0.0000000   0.0000000   0.0000000), wk =   0.0833333
        k(    2) = (   0.0000000   0.0000000   0.1148819), wk =   0.1666667
        k(    3) = (   0.0000000   0.0000000  -0.2297639), wk =   0.0833333
        k(    4) = (   0.0000000   0.2234588   0.0000000), wk =   0.1666667
        k(    5) = (   0.0000000   0.2234588   0.1148819), wk =   0.3333333
        k(    6) = (   0.0000000   0.2234588  -0.2297639), wk =   0.1666667
        k(    7) = (  -0.4321457   0.0000000   0.0000000), wk =   0.0833333
        k(    8) = (  -0.4321457   0.0000000   0.1148819), wk =   0.1666667
        k(    9) = (  -0.4321457   0.0000000  -0.2297639), wk =   0.0833333
        k(   10) = (  -0.4321457   0.2234588   0.0000000), wk =   0.1666667
        k(   11) = (  -0.4321457   0.2234588   0.1148819), wk =   0.3333333
        k(   12) = (  -0.4321457   0.2234588  -0.2297639), wk =   0.1666667

[...]

     The maximum number of steps has been reached.

     End of BFGS Geometry Optimization
Begin final coordinates
     new unit-cell volume =   1296.61737 a.u.^3 (   192.13887 Ang^3 )

CELL_PARAMETERS (alat=  7.01510508)
   1.157017138   0.000000000   0.000000000
   0.000000000   1.491699291   0.000000000
   0.000000000   0.000000000   2.176146945

ATOMIC_POSITIONS (crystal)
Co       0.750000000   0.825339078   0.434946807
Co       0.250000000   0.174660922   0.565053193
Co       0.750000000   0.325339078   0.065053193
Co       0.250000000   0.674660922   0.934946807
Co       0.250000000   0.540245209   0.280130158
Co       0.750000000   0.459754791   0.719869842
Co       0.250000000   0.040245209   0.219869842
Co       0.750000000   0.959754791   0.780130158
Si       0.250000000   0.200689568   0.892871134
Si       0.750000000   0.799310432   0.107128866
Si       0.250000000   0.700689568   0.607128866
Si       0.750000000   0.299310432   0.392871134
End final coordinates

     A final scf calculation at the relaxed structure.
     The G-vectors are recalculated for the final unit cell
     Results may differ from those at the preceding step.

     bravais-lattice index     =            0
     lattice parameter (alat)  =       7.0151  a.u.
     unit-cell volume          =    1296.6174 (a.u.)^3
     number of atoms/cell      =           12
     number of atomic types    =            2
     number of electrons       =       196.00
     number of Kohn-Sham states=          118
     kinetic-energy cutoff     =      40.0000  Ry
     charge density cutoff     =     160.0000  Ry
     convergence threshold     =      1.0E-04
     mixing beta               =       0.7000
     number of iterations used =            8  plain     mixing
     Exchange-correlation      = SLA-PZ-NOGX-NOGC ( 1 1 0 0 0)
     EXX-fraction              =        0.00

     celldm(1)=   7.015105  celldm(2)=   0.000000  celldm(3)=   0.000000
     celldm(4)=   0.000000  celldm(5)=   0.000000  celldm(6)=   0.000000

     crystal axes: (cart. coord. in units of alat)
               a(1) = (   1.157017   0.000000   0.000000 )
               a(2) = (   0.000000   1.491699   0.000000 )
               a(3) = (   0.000000   0.000000   2.176147 )

     reciprocal axes: (cart. coord. in units 2 pi/alat)
               b(1) = (  0.864291  0.000000  0.000000 )
               b(2) = (  0.000000  0.670376  0.000000 )
               b(3) = (  0.000000  0.000000  0.459528 )

     PseudoPot. # 1 for Sm read from file:
     /home/cwx6513/pp.La/Sm.UPF
     MD5 check sum: 5079e8b144a06bfcdbc14fb02b96ab09
     Pseudo is Norm-conserving, Zval = 16.0
     Generated in analytical, separable form
     Using radial grid of 1259 points,  6 beta functions with:
                l(1) =   0
                l(2) =   0
                l(3) =   1
                l(4) =   1
                l(5) =   2
                l(6) =   3

     PseudoPot. # 2 for Eu read from file:
     /home/cwx6513/pp.La/Eu.UPF
     MD5 check sum: 5efdbbfc50c6a10138933a6429836ad2
     Pseudo is Norm-conserving, Zval = 17.0
     Generated in analytical, separable form
     Using radial grid of 1261 points,  6 beta functions with:
                l(1) =   0
                l(2) =   0
                l(3) =   1
                l(4) =   1
                l(5) =   2
                l(6) =   3

     atomic species   valence    mass     pseudopotential
        Co            16.00    58.93320     Sm( 1.00)
        Si            17.00    28.08550     Eu( 1.00)

      8 Sym. Ops., with inversion, found ( 6 have fractional translation)

   Cartesian axes

     site n.     atom                  positions (alat units)
         1           Co  tau(   1) = (   0.8677629   1.2311577   0.9465082  )
         2           Co  tau(   2) = (   0.2892543   0.2605416   1.2296388  )
         3           Co  tau(   3) = (   0.8677629   0.4853081   0.1415653  )
         4           Co  tau(   4) = (   0.2892543   1.0063912   2.0345816  )
         5           Co  tau(   5) = (   0.2892543   0.8058834   0.6096044  )
         6           Co  tau(   6) = (   0.8677629   0.6858159   1.5665426  )
         7           Co  tau(   7) = (   0.2892543   0.0600338   0.4784691  )
         8           Co  tau(   8) = (   0.8677629   1.4316655   1.6976779  )
         9           Si  tau(   9) = (   0.2892543   0.2993685   1.9430188  )
        10           Si  tau(  10) = (   0.8677629   1.1923308   0.2331282  )
        11           Si  tau(  11) = (   0.2892543   1.0452181   1.3212016  )
        12           Si  tau(  12) = (   0.8677629   0.4464812   0.8549453  )

     number of k points=    12  gaussian smearing, width (Ry)=  0.1000
                       cart. coord. in units 2pi/alat
        k(    1) = (   0.0000000   0.0000000   0.0000000), wk =   0.0833333
        k(    2) = (   0.0000000   0.0000000   0.1148819), wk =   0.1666667
        k(    3) = (   0.0000000   0.0000000  -0.2297639), wk =   0.0833333
        k(    4) = (   0.0000000   0.2234588   0.0000000), wk =   0.1666667
        k(    5) = (   0.0000000   0.2234588   0.1148819), wk =   0.3333333
        k(    6) = (   0.0000000   0.2234588  -0.2297639), wk =   0.1666667
        k(    7) = (  -0.4321457   0.0000000   0.0000000), wk =   0.0833333
        k(    8) = (  -0.4321457   0.0000000   0.1148819), wk =   0.1666667
        k(    9) = (  -0.4321457   0.0000000  -0.2297639), wk =   0.0833333
        k(   10) = (  -0.4321457   0.2234588   0.0000000), wk =   0.1666667
        k(   11) = (  -0.4321457   0.2234588   0.1148819), wk =   0.3333333
        k(   12) = (  -0.4321457   0.2234588  -0.2297639), wk =   0.1666667

     Largest allocated arrays     est. size (Mb)     dimensions
     Largest temporary arrays     est. size (Mb)     dimensions

     Initial potential from superposition of free atoms

     Starting from uniform charge
     Starting wfc are    0 randomized atomic wfcs

     Writing output data file Prototype-La-oP12-Co2Si.save

     Self-consistent Calculation

[...]

     iteration #  9     ecut=    40.00 Ry     beta=0.70
     CG style diagonalization
     c_bands:  1 eigenvalues not converged
     ethr =  9.07E-07,  avg # of iterations =  4.0

     total energy              =   -1912.30414653 Ry
     Harris-Foulkes estimate   =   -1912.30425186 Ry
     estimated scf accuracy    <       0.00030324 Ry

     iteration # 10     ecut=    40.00 Ry     beta=0.70
     CG style diagonalization
     ethr =  1.55E-07,  avg # of iterations =  3.8

     End of self-consistent calculation

[...]

          k = 0.0000 0.2235-0.2298 (  5522 PWs)   bands (ev):

[...]

          k =-0.4321 0.2235-0.2298 (  5540 PWs)   bands (ev):

   -33.1442 -33.1442 -33.1388 -33.1388 -27.3822 -27.3822 -27.2993 -27.2993
   -27.2485 -27.2485 -27.2263 -27.2263  -6.4944  -6.4944  -6.4225  -6.4225
    -6.3287  -6.3287  -6.2430  -6.2430  -6.1001  -6.1001  -6.0058  -6.0058
    -3.2061  -3.2061  -2.9813  -2.9813  -2.8862  -2.8862  -2.7429  -2.7429
    -2.6637  -2.6637  -2.4725  -2.4725  -2.3442  -2.3442  -2.2558  -2.2558
    -2.1547  -2.1547  -2.1506  -2.1506  -2.0385  -2.0385  -1.9925  -1.9925
    22.6106  22.6106  23.1177  23.1177  23.2121  23.2121  23.6175  23.6175
    23.6465  23.6465  24.1013  24.1013  24.2114  24.2114  24.4243  24.4243
    24.8242  24.8242  25.2926  25.2926  25.3917  25.3917  25.5775  25.5775
    25.8078  25.8078  26.1182  26.1182  26.2817  26.2817  26.6618  26.6618
    26.8815  26.8815  27.7779  27.7779  27.8477  27.8477  28.5820  28.5820
    28.6272  28.6272  28.8955  28.8955  29.1841  29.1841  29.7572  29.7572
    29.8405  29.8405  30.0864  30.0864  31.0678  31.0678  31.3293  31.3293
    32.3262  32.3262  32.5108  32.5108  33.4231  33.4231  33.4387  33.4387
    34.5536  34.5536  35.1196  35.1197  36.3239  36.3239

     the Fermi energy is    30.7067 ev

!    total energy              =   -1912.30421337 Ry
     Harris-Foulkes estimate   =   -1912.30423546 Ry
     estimated scf accuracy    <       0.00002645 Ry

     The total energy is the sum of the following terms:

     one-electron contribution =      73.99293290 Ry
     hartree contribution      =     159.55834805 Ry
     xc contribution           =    -207.78024567 Ry
     ewald contribution        =   -1937.38585964 Ry
     smearing contrib. (-TS)   =      -0.68938901 Ry

     convergence has been achieved in  10 iterations

     Forces acting on atoms (Ry/au):

     atom    1 type  1   force =     0.00000000   -0.05001116   -0.02481962
     atom    2 type  1   force =     0.00000000    0.05001116    0.02481962
     atom    3 type  1   force =     0.00000000   -0.05001116    0.02481962
     atom    4 type  1   force =     0.00000000    0.05001116   -0.02481962
     atom    5 type  1   force =     0.00000000    0.07489332   -0.04109255
     atom    6 type  1   force =     0.00000000   -0.07489332    0.04109255
     atom    7 type  1   force =     0.00000000    0.07489332    0.04109255
     atom    8 type  1   force =     0.00000000   -0.07489332   -0.04109255
     atom    9 type  2   force =     0.00000000   -0.04743090   -0.03744925
     atom   10 type  2   force =     0.00000000    0.04743090    0.03744925
     atom   11 type  2   force =     0.00000000   -0.04743090    0.03744925
     atom   12 type  2   force =     0.00000000    0.04743090   -0.03744925

     Total force =     0.237208     Total SCF correction =     0.000000

     entering subroutine stress ...

          total   stress  (Ry/bohr**3)                   (kbar)     P=  790.81
   0.00556111   0.00000000   0.00000000        818.07      0.00      0.00
   0.00000000   0.00506764   0.00000000          0.00    745.48      0.00
   0.00000000   0.00000000   0.00549863          0.00      0.00    808.88

     Writing output data file Prototype-La-oP12-Co2Si.save

     General routines

     Parallel routines

   This run was terminated on:  18:58:22  22Mar2018

   JOB DONE.