     Program PWSCF v.5.0.2 starts on 22Mar2018 at 18:43:50

     Current dimensions of program PWSCF are:
     Max number of different atomic species (ntypx) = 10
     Max number of k-points (npk) =  40000
     Max angular momentum in pseudopotentials (lmaxx) =  3
     Waiting for input...
     Reading input from standard input

     Subspace diagonalization in iterative solution of the eigenvalue problem:
     a serial algorithm will be used

     bravais-lattice index     =            0
     lattice parameter (alat)  =      12.0168  a.u.
     unit-cell volume          =    1187.3413 (a.u.)^3
     number of atoms/cell      =            8
     number of atomic types    =            2
     number of electrons       =       130.00
     number of Kohn-Sham states=           78
     kinetic-energy cutoff     =      40.0000  Ry
     charge density cutoff     =     160.0000  Ry
     convergence threshold     =      1.0E-04
     mixing beta               =       0.7000
     number of iterations used =            8  plain     mixing
     Exchange-correlation      = SLA-PZ-NOGX-NOGC ( 1 1 0 0 0)
     EXX-fraction              =        0.00
     nstep                     =           50

     celldm(1)=  12.016801  celldm(2)=   0.000000  celldm(3)=   0.000000
     celldm(4)=   0.000000  celldm(5)=   0.000000  celldm(6)=   0.000000

     crystal axes: (cart. coord. in units of alat)
               a(1) = (   1.000000   0.000000   0.000000 )
               a(2) = (  -0.500000   0.866025   0.000000 )
               a(3) = (   0.000000   0.000000   0.790093 )

     reciprocal axes: (cart. coord. in units 2 pi/alat)
               b(1) = (  1.000000  0.577350  0.000000 )
               b(2) = (  0.000000  1.154701  0.000000 )
               b(3) = (  0.000000  0.000000  1.265674 )

     PseudoPot. # 1 for Sm read from file:
     /home/cwx6513/pp.La/Sm.UPF
     MD5 check sum: 5079e8b144a06bfcdbc14fb02b96ab09
     Pseudo is Norm-conserving, Zval = 16.0
     Generated in analytical, separable form
     Using radial grid of 1259 points,  6 beta functions with:
                l(1) =   0
                l(2) =   0
                l(3) =   1
                l(4) =   1
                l(5) =   2
                l(6) =   3

     PseudoPot. # 2 for Eu read from file:
     /home/cwx6513/pp.La/Eu.UPF
     MD5 check sum: 5efdbbfc50c6a10138933a6429836ad2
     Pseudo is Norm-conserving, Zval = 17.0
     Generated in analytical, separable form
     Using radial grid of 1261 points,  6 beta functions with:
                l(1) =   0
                l(2) =   0
                l(3) =   1
                l(4) =   1
                l(5) =   2
                l(6) =   3

     atomic species   valence    mass     pseudopotential
        Mg            16.00    24.30500     Sm( 1.00)
        Cd            17.00   112.41100     Eu( 1.00)

     24 Sym. Ops., with inversion, found (12 have fractional translation)

   Cartesian axes

     site n.     atom                  positions (alat units)
         1           Mg  tau(   1) = (   0.2478935   0.7204716   0.1975233  )
         2           Mg  tau(   2) = (   0.7478935   0.1455538   0.5925699  )
         3           Mg  tau(   3) = (   0.2521065   0.1455538   0.5925699  )
         4           Mg  tau(   4) = (  -0.2478935   0.7204716   0.1975233  )
         5           Mg  tau(   5) = (   0.0000000   0.2911075   0.1975233  )
         6           Mg  tau(   6) = (   0.5000000   0.5749179   0.5925699  )
         7           Cd  tau(   7) = (   0.5000005   0.2886748   0.1975233  )
         8           Cd  tau(   8) = (  -0.0000005   0.5773506   0.5925699  )

     number of k points=    64  gaussian smearing, width (Ry)=  0.1000
                       cart. coord. in units 2pi/alat
        k(    1) = (   0.0000000   0.0000000   0.0000000), wk =   0.0095238
        k(    2) = (   0.0000000   0.0000000   0.1808105), wk =   0.0190476
        k(    3) = (   0.0000000   0.0000000   0.3616210), wk =   0.0190476
        k(    4) = (   0.0000000   0.0000000   0.5424315), wk =   0.0190476
        k(    5) = (   0.0000000   0.1924501   0.0000000), wk =   0.0190476
        k(    6) = (   0.0000000   0.1924501   0.1808105), wk =   0.0380952
        k(    7) = (   0.0000000   0.1924501   0.3616210), wk =   0.0380952
        k(    8) = (   0.0000000   0.1924501   0.5424315), wk =   0.0380952
        k(    9) = (   0.0000000   0.3849002   0.0000000), wk =   0.0190476
        k(   10) = (   0.0000000   0.3849002   0.1808105), wk =   0.0380952
        k(   11) = (   0.0000000   0.3849002   0.3616210), wk =   0.0380952
        k(   12) = (   0.0000000   0.3849002   0.5424315), wk =   0.0380952
        k(   13) = (   0.0000000  -0.5773503   0.0000000), wk =   0.0095238
        k(   14) = (   0.0000000  -0.5773503   0.1808105), wk =   0.0190476
        k(   15) = (   0.0000000  -0.5773503   0.3616210), wk =   0.0190476
        k(   16) = (   0.0000000  -0.5773503   0.5424315), wk =   0.0190476
        k(   17) = (   0.2000000   0.1154701   0.0000000), wk =   0.0190476
        k(   18) = (   0.2000000   0.1154701   0.1808105), wk =   0.0380952
        k(   19) = (   0.2000000   0.1154701   0.3616210), wk =   0.0380952
        k(   20) = (   0.2000000   0.1154701   0.5424315), wk =   0.0380952
        k(   21) = (   0.2000000   0.3079201   0.0000000), wk =   0.0190476
        k(   22) = (   0.2000000   0.3079201   0.1808105), wk =   0.0380952
        k(   23) = (   0.2000000   0.3079201   0.3616210), wk =   0.0380952
        k(   24) = (   0.2000000   0.3079201   0.5424315), wk =   0.0380952
        k(   25) = (   0.2000000   0.5003702   0.0000000), wk =   0.0190476
        k(   26) = (   0.2000000   0.5003702   0.1808105), wk =   0.0380952
        k(   27) = (   0.2000000   0.5003702   0.3616210), wk =   0.0380952
        k(   28) = (   0.2000000   0.5003702   0.5424315), wk =   0.0380952
        k(   29) = (   0.2000000  -0.4618802   0.0000000), wk =   0.0190476
        k(   30) = (   0.2000000  -0.4618802   0.1808105), wk =   0.0380952
        k(   31) = (   0.2000000  -0.4618802   0.3616210), wk =   0.0380952
        k(   32) = (   0.2000000  -0.4618802   0.5424315), wk =   0.0380952
        k(   33) = (   0.2000000  -0.2694301   0.0000000), wk =   0.0190476
        k(   34) = (   0.2000000  -0.2694301   0.1808105), wk =   0.0380952
        k(   35) = (   0.2000000  -0.2694301   0.3616210), wk =   0.0380952
        k(   36) = (   0.2000000  -0.2694301   0.5424315), wk =   0.0380952
        k(   37) = (   0.2000000  -0.0769800   0.0000000), wk =   0.0190476
        k(   38) = (   0.2000000  -0.0769800   0.1808105), wk =   0.0380952
        k(   39) = (   0.2000000  -0.0769800   0.3616210), wk =   0.0380952
        k(   40) = (   0.2000000  -0.0769800   0.5424315), wk =   0.0380952
        k(   41) = (   0.4000000   0.2309401   0.0000000), wk =   0.0190476
        k(   42) = (   0.4000000   0.2309401   0.1808105), wk =   0.0380952
        k(   43) = (   0.4000000   0.2309401   0.3616210), wk =   0.0380952
        k(   44) = (   0.4000000   0.2309401   0.5424315), wk =   0.0380952
        k(   45) = (   0.4000000   0.4233902   0.0000000), wk =   0.0190476
        k(   46) = (   0.4000000   0.4233902   0.1808105), wk =   0.0380952
        k(   47) = (   0.4000000   0.4233902   0.3616210), wk =   0.0380952
        k(   48) = (   0.4000000   0.4233902   0.5424315), wk =   0.0380952
        k(   49) = (   0.4000000   0.6158403   0.0000000), wk =   0.0190476
        k(   50) = (   0.4000000   0.6158403   0.1808105), wk =   0.0380952
        k(   51) = (   0.4000000   0.6158403   0.3616210), wk =   0.0380952
        k(   52) = (   0.4000000   0.6158403   0.5424315), wk =   0.0380952
        k(   53) = (   0.4000000  -0.3464102   0.0000000), wk =   0.0190476
        k(   54) = (   0.4000000  -0.3464102   0.1808105), wk =   0.0380952
        k(   55) = (   0.4000000  -0.3464102   0.3616210), wk =   0.0380952
        k(   56) = (   0.4000000  -0.3464102   0.5424315), wk =   0.0380952
        k(   57) = (   0.4000000  -0.1539601   0.0000000), wk =   0.0190476
        k(   58) = (   0.4000000  -0.1539601   0.1808105), wk =   0.0380952
        k(   59) = (   0.4000000  -0.1539601   0.3616210), wk =   0.0380952
        k(   60) = (   0.4000000  -0.1539601   0.5424315), wk =   0.0380952
        k(   61) = (   0.4000000   0.0384900   0.0000000), wk =   0.0190476
        k(   62) = (   0.4000000   0.0384900   0.1808105), wk =   0.0380952
        k(   63) = (   0.4000000   0.0384900   0.3616210), wk =   0.0380952
        k(   64) = (   0.4000000   0.0384900   0.5424315), wk =   0.0380952

     Largest allocated arrays     est. size (Mb)     dimensions
     Largest temporary arrays     est. size (Mb)     dimensions

     Initial potential from superposition of free atoms

     Starting from uniform charge
     Starting wfc are    0 randomized atomic wfcs

     Self-consistent Calculation

     iteration #  1     ecut=    40.00 Ry     beta=0.70
     CG style diagonalization
     c_bands:  1 eigenvalues not converged
     c_bands:  1 eigenvalues not converged
     c_bands:  1 eigenvalues not converged
     ethr =  1.00E-02,  avg # of iterations = 10.1

     total energy              =   -1169.30711347 Ry
     Harris-Foulkes estimate   =   -1477.34559432 Ry
     estimated scf accuracy    <     408.88218745 Ry

     iteration #  2     ecut=    40.00 Ry     beta=0.70
     CG style diagonalization
     ethr =  1.00E-02,  avg # of iterations =  7.7

[...]

     End of self-consistent calculation

          k = 0.0000 0.0000 0.0000 (  5047 PWs)   bands (ev):

   -42.1515 -42.1502 -36.8197 -36.7277 -36.7276 -36.7110 -36.6736 -36.6736
   -14.8856 -14.8580 -14.8280 -14.8280 -14.8117 -14.8117 -12.2699 -12.1921
   -12.0895 -11.9735 -11.9734 -11.9419 -11.9418 -11.9299 -11.9299 -11.7591
   -11.6084 -11.6083 -11.5054 -11.5054 -11.4700 -11.4663 -11.4663 -11.4591
    14.2685  15.0696  15.0696  15.0732  15.1065  15.6623  15.6623  15.8309
    15.8396  15.8397  15.8435  17.4483  17.4483  17.8263  17.9918  17.9918
    18.0927  18.5810  18.5810  18.6696  18.6696  18.7430  18.7791  19.0409
    19.0410  19.2277  19.2438  19.2438  19.3387  19.3387  21.5852  21.5852
    21.6895  21.6895  22.0678  22.0981  22.0981  22.1232  22.2176  22.2176
    22.5713  22.6422  24.1213  24.4356  24.4356  25.5695

[...]

     the Fermi energy is    20.6903 ev

!    total energy              =   -1260.06859786 Ry
     Harris-Foulkes estimate   =   -1260.06860915 Ry
     estimated scf accuracy    <       0.00001315 Ry

     The total energy is the sum of the following terms:

     one-electron contribution =    -119.51000433 Ry
     hartree contribution      =     145.59746255 Ry
     xc contribution           =    -133.15497054 Ry
     ewald contribution        =   -1152.37199221 Ry
     smearing contrib. (-TS)   =      -0.62909333 Ry

     convergence has been achieved in  13 iterations

     Forces acting on atoms (Ry/au):

     atom    1 type  1   force =     0.01593114    0.00919785    0.00000000
     atom    2 type  1   force =     0.01593114   -0.00919785    0.00000000
     atom    3 type  1   force =    -0.01593114   -0.00919785    0.00000000
[...]
        k(   11) = (   0.0000000   0.4071517   0.3786793), wk =   0.0380952
        k(   12) = (   0.0000000   0.4071517   0.5680190), wk =   0.0380952
        k(   13) = (   0.0000000  -0.6107276   0.0000000), wk =   0.0095238
        k(   14) = (   0.0000000  -0.6107276   0.1893397), wk =   0.0190476
        k(   15) = (   0.0000000  -0.6107276   0.3786793), wk =   0.0190476
        k(   16) = (   0.0000000  -0.6107276   0.5680190), wk =   0.0190476
        k(   17) = (   0.2115623   0.1221455   0.0000000), wk =   0.0190476
        k(   18) = (   0.2115623   0.1221455   0.1893397), wk =   0.0380952
        k(   19) = (   0.2115623   0.1221455   0.3786793), wk =   0.0380952
        k(   20) = (   0.2115623   0.1221455   0.5680190), wk =   0.0380952
        k(   21) = (   0.2115623   0.3257214   0.0000000), wk =   0.0190476
        k(   22) = (   0.2115623   0.3257214   0.1893397), wk =   0.0380952
        k(   23) = (   0.2115623   0.3257214   0.3786793), wk =   0.0380952
        k(   24) = (   0.2115623   0.3257214   0.5680190), wk =   0.0380952
        k(   25) = (   0.2115623   0.5292973   0.0000000), wk =   0.0190476
        k(   26) = (   0.2115623   0.5292973   0.1893397), wk =   0.0380952
        k(   27) = (   0.2115623   0.5292973   0.3786793), wk =   0.0380952
        k(   28) = (   0.2115623   0.5292973   0.5680190), wk =   0.0380952
        k(   29) = (   0.2115623  -0.4885821   0.0000000), wk =   0.0190476
        k(   30) = (   0.2115623  -0.4885821   0.1893397), wk =   0.0380952
        k(   31) = (   0.2115623  -0.4885821   0.3786793), wk =   0.0380952
        k(   32) = (   0.2115623  -0.4885821   0.5680190), wk =   0.0380952
        k(   33) = (   0.2115623  -0.2850062   0.0000000), wk =   0.0190476
        k(   34) = (   0.2115623  -0.2850062   0.1893397), wk =   0.0380952
        k(   35) = (   0.2115623  -0.2850062   0.3786793), wk =   0.0380952
        k(   36) = (   0.2115623  -0.2850062   0.5680190), wk =   0.0380952
        k(   37) = (   0.2115623  -0.0814303   0.0000000), wk =   0.0190476
        k(   38) = (   0.2115623  -0.0814303   0.1893397), wk =   0.0380952
        k(   39) = (   0.2115623  -0.0814303   0.3786793), wk =   0.0380952
        k(   40) = (   0.2115623  -0.0814303   0.5680190), wk =   0.0380952
        k(   41) = (   0.4231245   0.2442910   0.0000000), wk =   0.0190476
        k(   42) = (   0.4231245   0.2442910   0.1893397), wk =   0.0380952
        k(   43) = (   0.4231245   0.2442910   0.3786793), wk =   0.0380952
        k(   44) = (   0.4231245   0.2442910   0.5680190), wk =   0.0380952
        k(   45) = (   0.4231245   0.4478669   0.0000000), wk =   0.0190476
        k(   46) = (   0.4231245   0.4478669   0.1893397), wk =   0.0380952
        k(   47) = (   0.4231245   0.4478669   0.3786793), wk =   0.0380952
        k(   48) = (   0.4231245   0.4478669   0.5680190), wk =   0.0380952
        k(   49) = (   0.4231245   0.6514428   0.0000000), wk =   0.0190476
        k(   50) = (   0.4231245   0.6514428   0.1893397), wk =   0.0380952
        k(   51) = (   0.4231245   0.6514428   0.3786793), wk =   0.0380952
        k(   52) = (   0.4231245   0.6514428   0.5680190), wk =   0.0380952
        k(   53) = (   0.4231245  -0.3664366   0.0000000), wk =   0.0190476
        k(   54) = (   0.4231245  -0.3664366   0.1893397), wk =   0.0380952
        k(   55) = (   0.4231245  -0.3664366   0.3786793), wk =   0.0380952
        k(   56) = (   0.4231245  -0.3664366   0.5680190), wk =   0.0380952
        k(   57) = (   0.4231245  -0.1628607   0.0000000), wk =   0.0190476
        k(   58) = (   0.4231245  -0.1628607   0.1893397), wk =   0.0380952
        k(   59) = (   0.4231245  -0.1628607   0.3786793), wk =   0.0380952
        k(   60) = (   0.4231245  -0.1628607   0.5680190), wk =   0.0380952
        k(   61) = (   0.4231245   0.0407152   0.0000000), wk =   0.0190476
        k(   62) = (   0.4231245   0.0407152   0.1893397), wk =   0.0380952
        k(   63) = (   0.4231245   0.0407152   0.3786793), wk =   0.0380952
        k(   64) = (   0.4231245   0.0407152   0.5680190), wk =   0.0380952

[...]

     The maximum number of steps has been reached.

     End of BFGS Geometry Optimization
Begin final coordinates
     new unit-cell volume =   1013.30744 a.u.^3 (   150.15667 Ang^3 )

CELL_PARAMETERS (alat= 12.01680127)
   0.945348218   0.000000000   0.000000000
  -0.472674109   0.818695572   0.000000000
   0.000000000   0.000000000   0.754501909

ATOMIC_POSITIONS (crystal)
Mg       0.667283846   0.833641923   0.250000000
Mg       0.833641923   0.166358077   0.750000000
Mg       0.332716154   0.166358077   0.750000000
Mg       0.166358077   0.833641923   0.250000000
Mg       0.166358077   0.332716154   0.250000000
Mg       0.833641923   0.667283846   0.750000000
Cd       0.666667000   0.333333000   0.250000000
Cd       0.333333000   0.666667000   0.750000000
End final coordinates

     A final scf calculation at the relaxed structure.
     The G-vectors are recalculated for the final unit cell
     Results may differ from those at the preceding step.

     bravais-lattice index     =            0
     lattice parameter (alat)  =      12.0168  a.u.
     unit-cell volume          =    1013.3074 (a.u.)^3
     number of atoms/cell      =            8
     number of atomic types    =            2
     number of electrons       =       130.00
     number of Kohn-Sham states=           78
     kinetic-energy cutoff     =      40.0000  Ry
     charge density cutoff     =     160.0000  Ry
     convergence threshold     =      5.5E-06
     mixing beta               =       0.7000
     number of iterations used =            8  plain     mixing
     Exchange-correlation      = SLA-PZ-NOGX-NOGC ( 1 1 0 0 0)
     EXX-fraction              =        0.00

     celldm(1)=  12.016801  celldm(2)=   0.000000  celldm(3)=   0.000000
     celldm(4)=   0.000000  celldm(5)=   0.000000  celldm(6)=   0.000000

     crystal axes: (cart. coord. in units of alat)
               a(1) = (   0.945348   0.000000   0.000000 )
               a(2) = (  -0.472674   0.818696   0.000000 )
               a(3) = (   0.000000   0.000000   0.754502 )

     reciprocal axes: (cart. coord. in units 2 pi/alat)
               b(1) = (  1.057811  0.610728  0.000000 )
               b(2) = (  0.000000  1.221455  0.000000 )
               b(3) = (  0.000000  0.000000  1.325378 )

     PseudoPot. # 1 for Sm read from file:
     /home/cwx6513/pp.La/Sm.UPF
     MD5 check sum: 5079e8b144a06bfcdbc14fb02b96ab09
     Pseudo is Norm-conserving, Zval = 16.0
     Generated in analytical, separable form
     Using radial grid of 1259 points,  6 beta functions with:
                l(1) =   0
                l(2) =   0
                l(3) =   1
                l(4) =   1
                l(5) =   2
                l(6) =   3

     PseudoPot. # 2 for Eu read from file:
     /home/cwx6513/pp.La/Eu.UPF
     MD5 check sum: 5efdbbfc50c6a10138933a6429836ad2
     Pseudo is Norm-conserving, Zval = 17.0
     Generated in analytical, separable form
     Using radial grid of 1261 points,  6 beta functions with:
                l(1) =   0
                l(2) =   0
                l(3) =   1
                l(4) =   1
                l(5) =   2
                l(6) =   3

     atomic species   valence    mass     pseudopotential
        Mg            16.00    24.30500     Sm( 1.00)
        Cd            17.00   112.41100     Eu( 1.00)

     24 Sym. Ops., with inversion, found (12 have fractional translation)

   Cartesian axes

     site n.     atom                  positions (alat units)
         1           Mg  tau(   1) = (   0.2367746   0.6824990   0.1886255  )
         2           Mg  tau(   2) = (   0.7094488   0.1361966   0.5658764  )
         3           Mg  tau(   3) = (   0.2358995   0.1361966   0.5658764  )
         4           Mg  tau(   4) = (  -0.2367746   0.6824990   0.1886255  )
         5           Mg  tau(   5) = (   0.0000000   0.2723932   0.1886255  )
         6           Mg  tau(   6) = (   0.4726741   0.5463023   0.5658764  )
         7           Cd  tau(   7) = (   0.4726746   0.2728983   0.1886255  )
         8           Cd  tau(   8) = (  -0.0000005   0.5457973   0.5658764  )

     number of k points=    64  gaussian smearing, width (Ry)=  0.1000
                       cart. coord. in units 2pi/alat
        k(    1) = (   0.0000000   0.0000000   0.0000000), wk =   0.0095238
        k(    2) = (   0.0000000   0.0000000   0.1893397), wk =   0.0190476
        k(    3) = (   0.0000000   0.0000000   0.3786793), wk =   0.0190476
        k(    4) = (   0.0000000   0.0000000   0.5680190), wk =   0.0190476
        k(    5) = (   0.0000000   0.2035759   0.0000000), wk =   0.0190476
        k(    6) = (   0.0000000   0.2035759   0.1893397), wk =   0.0380952
        k(    7) = (   0.0000000   0.2035759   0.3786793), wk =   0.0380952
        k(    8) = (   0.0000000   0.2035759   0.5680190), wk =   0.0380952
        k(    9) = (   0.0000000   0.4071517   0.0000000), wk =   0.0190476
        k(   10) = (   0.0000000   0.4071517   0.1893397), wk =   0.0380952
        k(   11) = (   0.0000000   0.4071517   0.3786793), wk =   0.0380952
        k(   12) = (   0.0000000   0.4071517   0.5680190), wk =   0.0380952
        k(   13) = (   0.0000000  -0.6107276   0.0000000), wk =   0.0095238
        k(   14) = (   0.0000000  -0.6107276   0.1893397), wk =   0.0190476
        k(   15) = (   0.0000000  -0.6107276   0.3786793), wk =   0.0190476
        k(   16) = (   0.0000000  -0.6107276   0.5680190), wk =   0.0190476
        k(   17) = (   0.2115623   0.1221455   0.0000000), wk =   0.0190476
        k(   18) = (   0.2115623   0.1221455   0.1893397), wk =   0.0380952
        k(   19) = (   0.2115623   0.1221455   0.3786793), wk =   0.0380952
        k(   20) = (   0.2115623   0.1221455   0.5680190), wk =   0.0380952
        k(   21) = (   0.2115623   0.3257214   0.0000000), wk =   0.0190476
        k(   22) = (   0.2115623   0.3257214   0.1893397), wk =   0.0380952
        k(   23) = (   0.2115623   0.3257214   0.3786793), wk =   0.0380952
        k(   24) = (   0.2115623   0.3257214   0.5680190), wk =   0.0380952
        k(   25) = (   0.2115623   0.5292973   0.0000000), wk =   0.0190476
        k(   26) = (   0.2115623   0.5292973   0.1893397), wk =   0.0380952
        k(   27) = (   0.2115623   0.5292973   0.3786793), wk =   0.0380952
        k(   28) = (   0.2115623   0.5292973   0.5680190), wk =   0.0380952
        k(   29) = (   0.2115623  -0.4885821   0.0000000), wk =   0.0190476
        k(   30) = (   0.2115623  -0.4885821   0.1893397), wk =   0.0380952
        k(   31) = (   0.2115623  -0.4885821   0.3786793), wk =   0.0380952
        k(   32) = (   0.2115623  -0.4885821   0.5680190), wk =   0.0380952
        k(   33) = (   0.2115623  -0.2850062   0.0000000), wk =   0.0190476
        k(   34) = (   0.2115623  -0.2850062   0.1893397), wk =   0.0380952
        k(   35) = (   0.2115623  -0.2850062   0.3786793), wk =   0.0380952
        k(   36) = (   0.2115623  -0.2850062   0.5680190), wk =   0.0380952
        k(   37) = (   0.2115623  -0.0814303   0.0000000), wk =   0.0190476
        k(   38) = (   0.2115623  -0.0814303   0.1893397), wk =   0.0380952
        k(   39) = (   0.2115623  -0.0814303   0.3786793), wk =   0.0380952
        k(   40) = (   0.2115623  -0.0814303   0.5680190), wk =   0.0380952
        k(   41) = (   0.4231245   0.2442910   0.0000000), wk =   0.0190476
        k(   42) = (   0.4231245   0.2442910   0.1893397), wk =   0.0380952
        k(   43) = (   0.4231245   0.2442910   0.3786793), wk =   0.0380952
        k(   44) = (   0.4231245   0.2442910   0.5680190), wk =   0.0380952
        k(   45) = (   0.4231245   0.4478669   0.0000000), wk =   0.0190476
        k(   46) = (   0.4231245   0.4478669   0.1893397), wk =   0.0380952
        k(   47) = (   0.4231245   0.4478669   0.3786793), wk =   0.0380952
        k(   48) = (   0.4231245   0.4478669   0.5680190), wk =   0.0380952
        k(   49) = (   0.4231245   0.6514428   0.0000000), wk =   0.0190476
        k(   50) = (   0.4231245   0.6514428   0.1893397), wk =   0.0380952
        k(   51) = (   0.4231245   0.6514428   0.3786793), wk =   0.0380952
        k(   52) = (   0.4231245   0.6514428   0.5680190), wk =   0.0380952
        k(   53) = (   0.4231245  -0.3664366   0.0000000), wk =   0.0190476
        k(   54) = (   0.4231245  -0.3664366   0.1893397), wk =   0.0380952
        k(   55) = (   0.4231245  -0.3664366   0.3786793), wk =   0.0380952
        k(   56) = (   0.4231245  -0.3664366   0.5680190), wk =   0.0380952
        k(   57) = (   0.4231245  -0.1628607   0.0000000), wk =   0.0190476
        k(   58) = (   0.4231245  -0.1628607   0.1893397), wk =   0.0380952
        k(   59) = (   0.4231245  -0.1628607   0.3786793), wk =   0.0380952
        k(   60) = (   0.4231245  -0.1628607   0.5680190), wk =   0.0380952
        k(   61) = (   0.4231245   0.0407152   0.0000000), wk =   0.0190476
        k(   62) = (   0.4231245   0.0407152   0.1893397), wk =   0.0380952
        k(   63) = (   0.4231245   0.0407152   0.3786793), wk =   0.0380952
        k(   64) = (   0.4231245   0.0407152   0.5680190), wk =   0.0380952

     Largest allocated arrays     est. size (Mb)     dimensions
     Largest temporary arrays     est. size (Mb)     dimensions

     Initial potential from superposition of free atoms

     Starting from uniform charge
     Starting wfc are    0 randomized atomic wfcs

     Writing output data file Prototype-La-hP8-Mg3Cd.save

     Self-consistent Calculation

[...]

     iteration # 10     ecut=    40.00 Ry     beta=0.70
     CG style diagonalization
     c_bands:  1 eigenvalues not converged
     c_bands:  1 eigenvalues not converged
     ethr =  2.99E-07,  avg # of iterations =  4.0

[...]

     total energy              =   -1260.06442490 Ry
     Harris-Foulkes estimate   =   -1260.06447303 Ry
     estimated scf accuracy    <       0.00018185 Ry

     iteration # 12     ecut=    40.00 Ry     beta=0.70
     CG style diagonalization
     ethr =  4.78E-08,  avg # of iterations =  3.4

     End of self-consistent calculation

[...]

          k = 0.4231 0.0407 0.5680 (  4339 PWs)   bands (ev):

   -37.9653 -37.9652 -32.4596 -32.4189 -32.3776 -32.3561 -32.3383 -32.3232
   -10.7829 -10.7769 -10.7693 -10.7598 -10.7407 -10.7323  -8.1409  -8.0991
    -8.0465  -8.0309  -7.9094  -7.8769  -7.5843  -7.5211  -7.4281  -7.4198
    -7.3309  -7.2700  -7.2164  -7.1886  -7.1653  -7.1042  -7.0682  -7.0558
    18.8954  18.9365  19.0598  19.2992  19.3388  19.5163  19.8929  20.0065
    20.0532  20.0936  20.2457  20.5391  20.6273  20.6667  20.7311  20.8247
    21.6189  21.7256  22.2459  22.4596  22.5695  22.6763  22.8066  22.9122
    23.1229  23.2264  23.7346  23.8278  23.9304  24.0097  24.1941  24.3604
    25.1255  25.6875  25.9665  26.1893  26.3888  26.6286  26.6738  26.8847
    27.0975  27.2827  27.3431  28.0088  28.7011  29.1226

     the Fermi energy is    25.2933 ev

!    total energy              =   -1260.06444283 Ry
     Harris-Foulkes estimate   =   -1260.06444459 Ry
     estimated scf accuracy    <       0.00000192 Ry

     The total energy is the sum of the following terms:

     one-electron contribution =     -31.60496636 Ry
     hartree contribution      =     122.14099709 Ry
     xc contribution           =    -134.89815942 Ry
     ewald contribution        =   -1215.22234552 Ry
     smearing contrib. (-TS)   =      -0.47996861 Ry

     convergence has been achieved in  12 iterations

     Forces acting on atoms (Ry/au):

     atom    1 type  1   force =     0.00251734    0.00145339    0.00000000
     atom    2 type  1   force =     0.00251734   -0.00145339    0.00000000
     atom    3 type  1   force =    -0.00251734   -0.00145339    0.00000000
     atom    4 type  1   force =    -0.00251734    0.00145339    0.00000000
     atom    5 type  1   force =     0.00000000   -0.00290678    0.00000000
     atom    6 type  1   force =     0.00000000    0.00290678    0.00000000
     atom    7 type  2   force =     0.00000000    0.00000000    0.00000000
     atom    8 type  2   force =     0.00000000    0.00000000    0.00000000

     Total force =     0.007120     Total SCF correction =     0.000000

     entering subroutine stress ...

          total   stress  (Ry/bohr**3)                   (kbar)     P=  -20.50
  -0.00017313   0.00000000   0.00000000        -25.47      0.00      0.00
   0.00000000  -0.00017313   0.00000000          0.00    -25.47      0.00
   0.00000000   0.00000000  -0.00007187          0.00      0.00    -10.57

     Writing output data file Prototype-La-hP8-Mg3Cd.save

     General routines

     Parallel routines

   This run was terminated on:  19:31:30  22Mar2018

   JOB DONE.