     Program PWSCF v.5.0.2 starts on 22Mar2018 at  0:40:57

     Current dimensions of program PWSCF are:
     Max number of different atomic species (ntypx) = 10
     Max number of k-points (npk) =  40000
     Max angular momentum in pseudopotentials (lmaxx) =  3
     Waiting for input...
     Reading input from standard input

     Subspace diagonalization in iterative solution of the eigenvalue problem:
     a serial algorithm will be used

     bravais-lattice index     =            0
     lattice parameter (alat)  =       9.9235  a.u.
     unit-cell volume          =    1361.0366 (a.u.)^3
     number of atoms/cell      =           12
     number of atomic types    =            2
     number of electrons       =       240.00
     number of Kohn-Sham states=          144
     kinetic-energy cutoff     =      40.0000  Ry
     charge density cutoff     =     160.0000  Ry
     convergence threshold     =      1.0E-04
     mixing beta               =       0.7000
     number of iterations used =            8  plain     mixing
     Exchange-correlation      = SLA-PZ-NOGX-NOGC ( 1 1 0 0 0)
     EXX-fraction              =        0.00
     nstep                     =           50

     celldm(1)=   9.923489  celldm(2)=   0.000000  celldm(3)=   0.000000
     celldm(4)=   0.000000  celldm(5)=   0.000000  celldm(6)=   0.000000

     crystal axes: (cart. coord. in units of alat)
               a(1) = (   1.000000   0.000000   0.000000 )
               a(2) = (  -0.500000   0.866025   0.000000 )
               a(3) = (   0.000000   0.000000   1.608222 )

     reciprocal axes: (cart. coord. in units 2 pi/alat)
               b(1) = (  1.000000  0.577350  0.000000 )
               b(2) = (  0.000000  1.154701  0.000000 )
               b(3) = (  0.000000  0.000000  0.621805 )

     PseudoPot. # 1 for Ce read from file:
     /home/jld5415/pp.La/Ce.UPF
     MD5 check sum: 44451aa79a44a00cf2bc029dc19922f6
     Pseudo is Norm-conserving, Zval = 12.0
     Generated in analytical, separable form
     Using radial grid of 1255 points,  6 beta functions with:
                l(1) =   0
                l(2) =   0
                l(3) =   1
                l(4) =   1
                l(5) =   2
                l(6) =   3

     PseudoPot. # 2 for Yb read from file:
     /home/jld5415/pp.La/Yb.UPF
     MD5 check sum: 3e859b81cc28c53ec6aa3a2e888efcdf
     Pseudo is Norm-conserving, Zval = 24.0
     Generated in analytical, separable form
     Using radial grid of 1269 points,  6 beta functions with:
                l(1) =   0
                l(2) =   0
                l(3) =   1
                l(4) =   1
                l(5) =   2
                l(6) =   3

     atomic species   valence    mass     pseudopotential
        Mg            12.00    24.30500     Ce( 1.00)
        Zn            24.00    65.39000     Yb( 1.00)

     24 Sym. Ops., with inversion, found (12 have fractional translation)

   Cartesian axes

     site n.     atom                  positions (alat units)
         1           Mg  tau(   1) = (  -0.0000005   0.5773506   0.1003820  )
         2           Mg  tau(   2) = (   0.5000005   0.2886748   0.9044931  )
         3           Mg  tau(   3) = (   0.5000005   0.2886748   1.5078402  )
         4           Mg  tau(   4) = (  -0.0000005   0.5773506   0.7037291  )
         5           Zn  tau(   5) = (   0.0000000   0.0000000   0.0000000  )
         6           Zn  tau(   6) = (   0.0000000   0.0000000   0.8041111  )
         7           Zn  tau(   7) = (   0.0000000   0.2950739   1.2061667  )
         8           Zn  tau(   8) = (   0.7444585   0.1475370   0.4020556  )
         9           Zn  tau(   9) = (   0.2555415   0.1475370   0.4020556  )
        10           Zn  tau(  10) = (   0.2444585   0.7184884   1.2061667  )
        11           Zn  tau(  11) = (  -0.2444585   0.7184884   1.2061667  )
        12           Zn  tau(  12) = (   0.5000000   0.5709515   0.4020556  )

     number of k points=    12  gaussian smearing, width (Ry)=  0.1000
                       cart. coord. in units 2pi/alat
        k(    1) = (   0.0000000   0.0000000   0.0000000), wk =   0.0833333
        k(    2) = (   0.0000000   0.0000000   0.1554512), wk =   0.1666667
        k(    3) = (   0.0000000   0.0000000  -0.3109023), wk =   0.0833333
        k(    4) = (   0.0000000   0.3849002   0.0000000), wk =   0.1666667
        k(    5) = (   0.0000000   0.3849002   0.1554512), wk =   0.3333333
        k(    6) = (   0.0000000   0.3849002  -0.3109023), wk =   0.1666667
        k(    7) = (  -0.5000000  -0.2886751   0.0000000), wk =   0.0833333
        k(    8) = (  -0.5000000  -0.2886751   0.1554512), wk =   0.1666667
        k(    9) = (  -0.5000000  -0.2886751  -0.3109023), wk =   0.0833333
        k(   10) = (  -0.5000000   0.0962250   0.0000000), wk =   0.1666667
        k(   11) = (  -0.5000000   0.0962250   0.1554512), wk =   0.3333333
        k(   12) = (  -0.5000000   0.0962250  -0.3109023), wk =   0.1666667

     Largest allocated arrays     est. size (Mb)     dimensions
     Largest temporary arrays     est. size (Mb)     dimensions

     Initial potential from superposition of free atoms

     Starting from uniform charge
     Starting wfc are    0 randomized atomic wfcs

     Self-consistent Calculation

     iteration #  1     ecut=    40.00 Ry     beta=0.70
     CG style diagonalization
     c_bands:  2 eigenvalues not converged
     c_bands:  1 eigenvalues not converged
     c_bands:  3 eigenvalues not converged
     c_bands:  2 eigenvalues not converged
     c_bands:  2 eigenvalues not converged
     c_bands:  3 eigenvalues not converged
     c_bands:  4 eigenvalues not converged
     c_bands:  5 eigenvalues not converged
     c_bands:  3 eigenvalues not converged
     c_bands:  5 eigenvalues not converged
     c_bands:  2 eigenvalues not converged
     c_bands:  1 eigenvalues not converged
     ethr =  1.00E-02,  avg # of iterations = 22.8

     total energy              =   -2578.16901614 Ry
     Harris-Foulkes estimate   =   -5152.85163947 Ry
     estimated scf accuracy    <    3085.58671686 Ry

[...]

     iteration #  3     ecut=    40.00 Ry     beta=0.70
     CG style diagonalization
     ethr =  1.00E-02,  avg # of iterations = 17.8

[...]

     End of self-consistent calculation

          k = 0.0000 0.0000 0.0000 (  5769 PWs)   bands (ev):

   -90.9389 -90.9389 -90.9344 -90.9149 -90.9149 -90.8638 -90.8583 -90.8148
   -50.2409 -50.1864 -50.0039 -49.9348 -49.9348 -49.9300 -49.9300 -49.8977
   -49.7921 -49.7921 -49.7750 -49.7481 -49.7481 -49.7200 -49.7200 -49.7051
   -49.7051 -49.6878 -49.6499 -49.6499 -49.6446 -49.6369 -49.6032 -49.6032
    -3.6354  -3.4754  -3.2373  -3.0731   4.9645   5.2875   5.5528   6.0202
     6.0202   6.0970   6.0970   6.3382   6.3382   6.4598   6.6995   6.6995
     7.0783   7.4452   7.4452   7.4804   7.4804   7.4920   7.8243   8.0527
     8.0527   8.2549   8.2550   8.3471   8.3471   8.4204   8.4799   8.4903
     8.5497   8.5497   8.5762   8.5763   8.6924   8.6924   9.1335   9.1335
     9.3533   9.3534   9.6256   9.6264  12.2988  13.6408  13.6409  14.0038
    14.1515  14.1516  14.4658  14.4658  14.4994  14.6275  14.7112  14.8940
    14.8940  17.3066  19.0715  20.4580  21.3624  22.8023  22.8023  24.1702
    24.6617  24.6617  25.1034  25.1034  25.4185  25.4185  26.3029  26.3030
    27.2434  29.7137  29.7137  31.0609  31.9919  31.9919  32.5124  33.5367
    33.5367  34.0003  34.0003  34.1938  34.3786  34.8331  35.5941  35.7495
    35.7495  35.8649  35.8649  36.0008  36.0035  36.1527  36.1528  36.8705
    37.1009  37.3083  37.3083  37.6931  37.6931  37.7504  37.9200  37.9200
    38.1987  38.3886  38.3888  38.6259  39.1542  39.3583  39.3581  39.5134

[...]

          k =-0.5000-0.2887 0.0000 (  5800 PWs)   bands (ev):

[...]

     the Fermi energy is    34.7914 ev

!    total energy              =   -3580.39186307 Ry
     Harris-Foulkes estimate   =   -3580.39189537 Ry
     estimated scf accuracy    <       0.00006376 Ry

     The total energy is the sum of the following terms:

     one-electron contribution =   -1135.15754452 Ry
     hartree contribution      =     723.94424560 Ry
     xc contribution           =    -302.07708906 Ry
     ewald contribution        =   -2866.55793049 Ry
     smearing contrib. (-TS)   =      -0.54354460 Ry

     convergence has been achieved in  11 iterations

     Forces acting on atoms (Ry/au):

     atom    1 type  1   force =     0.00000000    0.00000000    0.00313785
     atom    2 type  1   force =     0.00000000    0.00000000    0.00313785
     atom    3 type  1   force =     0.00000000    0.00000000   -0.00313785
     atom    4 type  1   force =     0.00000000    0.00000000   -0.00313785
     atom    5 type  2   force =     0.00000000    0.00000000    0.00000000
     atom    6 type  2   force =     0.00000000    0.00000000    0.00000000
     atom    7 type  2   force =     0.00000000    0.18006751    0.00000000
     atom    8 type  2   force =    -0.15594304    0.09003375    0.00000000
     atom    9 type  2   force =     0.15594304    0.09003375    0.00000000
     atom   10 type  2   force =    -0.15594304   -0.09003375    0.00000000
     atom   11 type  2   force =     0.15594304   -0.09003375    0.00000000
     atom   12 type  2   force =     0.00000000   -0.18006751    0.00000000

     Total force =     0.441118     Total SCF correction =     0.000000

     entering subroutine stress ...

          total   stress  (Ry/bohr**3)                   (kbar)     P= 1417.44
   0.00966421   0.00000000   0.00000000       1421.65      0.00      0.00
   0.00000000   0.00966421   0.00000000          0.00   1421.65      0.00
   0.00000000   0.00000000   0.00957826          0.00      0.00   1409.01

     BFGS Geometry Optimization

     number of scf cycles    =   1
     number of bfgs steps    =   0

     enthalpy new            =   -3580.3918630666 Ry

     new trust radius        =       0.5000000000 bohr
     new conv_thr            =       0.0001000000 Ry

     new unit-cell volume =   1655.96669 a.u.^3 (   245.38894 Ang^3 )

CELL_PARAMETERS (alat=  9.92348860)
   1.067764947   0.000000000   0.000000000
  -0.533882474   0.924711570   0.000000000
   0.000000000   0.000000000   1.716234071

ATOMIC_POSITIONS (crystal)
Mg       0.333333000   0.666667000   0.062473147
Mg       0.666667000   0.333333000   0.562473147
Mg       0.666667000   0.333333000   0.937526853
Mg       0.333333000   0.666667000   0.437526853
Zn       0.000000000   0.000000000   0.000000000
Zn       0.000000000   0.000000000   0.500000000
Zn       0.173299389   0.346598778   0.750000000
Zn       0.826700611   0.173299389   0.250000000
Zn       0.346598778   0.173299389   0.250000000
Zn       0.653401222   0.826700611   0.750000000
Zn       0.173299389   0.826700611   0.750000000
Zn       0.826700611   0.653401222   0.250000000

     Writing output data file Prototype-La-hP12-MgZn2.save
     NEW-OLD atomic charge density approx. for the potential
     NEW k-points:
        k(    1) = (   0.0000000   0.0000000   0.0000000), wk =   0.0833333
        k(    2) = (   0.0000000   0.0000000   0.1456678), wk =   0.1666667
        k(    3) = (   0.0000000   0.0000000  -0.2913356), wk =   0.0833333
        k(    4) = (   0.0000000   0.3604728   0.0000000), wk =   0.1666667
        k(    5) = (   0.0000000   0.3604728   0.1456678), wk =   0.3333333
        k(    6) = (   0.0000000   0.3604728  -0.2913356), wk =   0.1666667
        k(    7) = (  -0.4682679  -0.2703546   0.0000000), wk =   0.0833333
        k(    8) = (  -0.4682679  -0.2703546   0.1456678), wk =   0.1666667
        k(    9) = (  -0.4682679  -0.2703546  -0.2913356), wk =   0.0833333
        k(   10) = (  -0.4682679   0.0901182   0.0000000), wk =   0.1666667
        k(   11) = (  -0.4682679   0.0901182   0.1456678), wk =   0.3333333
        k(   12) = (  -0.4682679   0.0901182  -0.2913356), wk =   0.1666667

[...]

     enthalpy old            =   -3580.3918630666 Ry
     enthalpy new            =   -3581.7516233059 Ry

     CASE: enthalpy_new < enthalpy_old

     small trust_radius: resetting bfgs history

     new trust radius        =       0.0969330382 bohr
     new conv_thr            =       0.0000233653 Ry

[...]

     number of scf cycles    =   3
     number of bfgs steps    =   2

     enthalpy old            =   -3581.7516233059 Ry
     enthalpy new            =   -3581.7441666888 Ry

     CASE: enthalpy_new > enthalpy_old

     new trust radius        =       0.0362705430 bohr

     trust_radius < trust_radius_min

     resetting bfgs history

     Message from routine bfgs:
     history already reset at previous step: stopping
     new conv_thr            =       0.0000233653 Ry

     new unit-cell volume =   1697.24299 a.u.^3 (   251.50546 Ang^3 )

[...]

ATOMIC_POSITIONS (crystal)
Mg       0.333333000   0.666667000   0.062456906
Mg       0.666667000   0.333333000   0.562456906
Mg       0.666667000   0.333333000   0.937543094
Mg       0.333333000   0.666667000   0.437543094
Zn       0.000000000   0.000000000   0.000000000
Zn       0.000000000   0.000000000   0.500000000
Zn       0.172056057   0.344112114   0.750000000
Zn       0.827943943   0.172056057   0.250000000
Zn       0.344112114   0.172056057   0.250000000
Zn       0.655887886   0.827943943   0.750000000
Zn       0.172056057   0.827943943   0.750000000
Zn       0.827943943   0.655887886   0.250000000

     Writing output data file Prototype-La-hP12-MgZn2.save
     NEW-OLD atomic charge density approx. for the potential
     NEW k-points:
        k(    1) = (   0.0000000   0.0000000   0.0000000), wk =   0.0833333
        k(    2) = (   0.0000000   0.0000000   0.1455274), wk =   0.1666667
        k(    3) = (   0.0000000   0.0000000  -0.2910549), wk =   0.0833333
        k(    4) = (   0.0000000   0.3562342   0.0000000), wk =   0.1666667
        k(    5) = (   0.0000000   0.3562342   0.1455274), wk =   0.3333333
        k(    6) = (   0.0000000   0.3562342  -0.2910549), wk =   0.1666667
        k(    7) = (  -0.4627617  -0.2671756   0.0000000), wk =   0.0833333
        k(    8) = (  -0.4627617  -0.2671756   0.1455274), wk =   0.1666667
        k(    9) = (  -0.4627617  -0.2671756  -0.2910549), wk =   0.0833333
        k(   10) = (  -0.4627617   0.0890585   0.0000000), wk =   0.1666667
        k(   11) = (  -0.4627617   0.0890585   0.1455274), wk =   0.3333333
        k(   12) = (  -0.4627617   0.0890585  -0.2910549), wk =   0.1666667

[...]

     The maximum number of steps has been reached.

     End of BFGS Geometry Optimization
Begin final coordinates
     new unit-cell volume =   1697.24299 a.u.^3 (   251.50546 Ang^3 )

CELL_PARAMETERS (alat=  9.92348860)
   1.080469620   0.000000000   0.000000000
  -0.540234810   0.935714139   0.000000000
   0.000000000   0.000000000   1.717889188

ATOMIC_POSITIONS (crystal)
Mg       0.333333000   0.666667000   0.062456906
Mg       0.666667000   0.333333000   0.562456906
Mg       0.666667000   0.333333000   0.937543094
Mg       0.333333000   0.666667000   0.437543094
Zn       0.000000000   0.000000000   0.000000000
Zn       0.000000000   0.000000000   0.500000000
Zn       0.172056057   0.344112114   0.750000000
Zn       0.827943943   0.172056057   0.250000000
Zn       0.344112114   0.172056057   0.250000000
Zn       0.655887886   0.827943943   0.750000000
Zn       0.172056057   0.827943943   0.750000000
Zn       0.827943943   0.655887886   0.250000000
End final coordinates

     A final scf calculation at the relaxed structure.
     The G-vectors are recalculated for the final unit cell
     Results may differ from those at the preceding step.

     bravais-lattice index     =            0
     lattice parameter (alat)  =       9.9235  a.u.
     unit-cell volume          =    1697.2430 (a.u.)^3
     number of atoms/cell      =           12
     number of atomic types    =            2
     number of electrons       =       240.00
     number of Kohn-Sham states=          144
     kinetic-energy cutoff     =      40.0000  Ry
     charge density cutoff     =     160.0000  Ry
     convergence threshold     =      2.3E-05
     mixing beta               =       0.7000
     number of iterations used =            8  plain     mixing
     Exchange-correlation      = SLA-PZ-NOGX-NOGC ( 1 1 0 0 0)
     EXX-fraction              =        0.00

     celldm(1)=   9.923489  celldm(2)=   0.000000  celldm(3)=   0.000000
     celldm(4)=   0.000000  celldm(5)=   0.000000  celldm(6)=   0.000000

     crystal axes: (cart. coord. in units of alat)
               a(1) = (   1.080470   0.000000   0.000000 )
               a(2) = (  -0.540235   0.935714   0.000000 )
               a(3) = (   0.000000   0.000000   1.717889 )

     reciprocal axes: (cart. coord. in units 2 pi/alat)
               b(1) = (  0.925523  0.534351  0.000000 )
               b(2) = (  0.000000  1.068702  0.000000 )
               b(3) = (  0.000000  0.000000  0.582110 )

     PseudoPot. # 1 for Ce read from file:
     /home/jld5415/pp.La/Ce.UPF
     MD5 check sum: 44451aa79a44a00cf2bc029dc19922f6
     Pseudo is Norm-conserving, Zval = 12.0
     Generated in analytical, separable form
     Using radial grid of 1255 points,  6 beta functions with:
                l(1) =   0
                l(2) =   0
                l(3) =   1
                l(4) =   1
                l(5) =   2
                l(6) =   3

     PseudoPot. # 2 for Yb read from file:
     /home/jld5415/pp.La/Yb.UPF
     MD5 check sum: 3e859b81cc28c53ec6aa3a2e888efcdf
     Pseudo is Norm-conserving, Zval = 24.0
     Generated in analytical, separable form
     Using radial grid of 1269 points,  6 beta functions with:
                l(1) =   0
                l(2) =   0
                l(3) =   1
                l(4) =   1
                l(5) =   2
                l(6) =   3

     atomic species   valence    mass     pseudopotential
        Mg            12.00    24.30500     Ce( 1.00)
        Zn            24.00    65.39000     Yb( 1.00)

     24 Sym. Ops., with inversion, found (12 have fractional translation)

   Cartesian axes

     site n.     atom                  positions (alat units)
         1           Mg  tau(   1) = (  -0.0000005   0.6238097   0.1072940  )
         2           Mg  tau(   2) = (   0.5402354   0.3119044   0.9662386  )
         3           Mg  tau(   3) = (   0.5402354   0.3119044   1.6105951  )
         4           Mg  tau(   4) = (  -0.0000005   0.6238097   0.7516505  )
         5           Zn  tau(   5) = (   0.0000000   0.0000000   0.0000000  )
         6           Zn  tau(   6) = (   0.0000000   0.0000000   0.8589446  )
         7           Zn  tau(   7) = (   0.0000000   0.3219906   1.2884169  )
         8           Zn  tau(   8) = (   0.8016176   0.1609953   0.4294723  )
         9           Zn  tau(   9) = (   0.2788520   0.1609953   0.4294723  )
        10           Zn  tau(  10) = (   0.2613828   0.7747189   1.2884169  )
        11           Zn  tau(  11) = (  -0.2613828   0.7747189   1.2884169  )
        12           Zn  tau(  12) = (   0.5402348   0.6137236   0.4294723  )

     number of k points=    12  gaussian smearing, width (Ry)=  0.1000
                       cart. coord. in units 2pi/alat
        k(    1) = (   0.0000000   0.0000000   0.0000000), wk =   0.0833333
        k(    2) = (   0.0000000   0.0000000   0.1455274), wk =   0.1666667
        k(    3) = (   0.0000000   0.0000000  -0.2910549), wk =   0.0833333
        k(    4) = (   0.0000000   0.3562342   0.0000000), wk =   0.1666667
        k(    5) = (   0.0000000   0.3562342   0.1455274), wk =   0.3333333
        k(    6) = (   0.0000000   0.3562342  -0.2910549), wk =   0.1666667
        k(    7) = (  -0.4627617  -0.2671756   0.0000000), wk =   0.0833333
        k(    8) = (  -0.4627617  -0.2671756   0.1455274), wk =   0.1666667
        k(    9) = (  -0.4627617  -0.2671756  -0.2910549), wk =   0.0833333
        k(   10) = (  -0.4627617   0.0890585   0.0000000), wk =   0.1666667
        k(   11) = (  -0.4627617   0.0890585   0.1455274), wk =   0.3333333
        k(   12) = (  -0.4627617   0.0890585  -0.2910549), wk =   0.1666667

     Largest allocated arrays     est. size (Mb)     dimensions
     Largest temporary arrays     est. size (Mb)     dimensions

     Initial potential from superposition of free atoms

     Starting from uniform charge
     Starting wfc are    0 randomized atomic wfcs

     Writing output data file Prototype-La-hP12-MgZn2.save

     Self-consistent Calculation

[...]

     iteration # 13     ecut=    40.00 Ry     beta=0.70
     CG style diagonalization
     c_bands:  1 eigenvalues not converged
     ethr =  8.12E-07,  avg # of iterations =  4.4

[...]

     total energy              =   -3584.08995727 Ry
     Harris-Foulkes estimate   =   -3584.09000066 Ry
     estimated scf accuracy    <       0.00011277 Ry

     iteration # 16     ecut=    40.00 Ry     beta=0.70
     CG style diagonalization
     ethr =  4.70E-08,  avg # of iterations =  3.8

     End of self-consistent calculation

[...]

          k = 0.0000 0.3562-0.2911 (  7248 PWs)   bands (ev):

[...]

          k =-0.4628 0.0891-0.2911 (  7262 PWs)   bands (ev):

   -97.6164 -97.6164 -97.5806 -97.5806 -97.5773 -97.5772 -97.5044 -97.5044
   -56.5504 -56.5504 -56.4995 -56.4994 -56.4758 -56.4757 -56.4346 -56.4346
   -56.3742 -56.3741 -56.3649 -56.3649 -56.3618 -56.3618 -56.3571 -56.3570
   -56.3539 -56.3539 -56.3356 -56.3356 -56.2676 -56.2676 -56.2655 -56.2655
   -10.7406 -10.7404 -10.6547 -10.6544   0.4089   0.4089   0.5963   0.5963
     0.7062   0.7062   0.7914   0.7915   0.8408   0.8408   1.0800   1.0800
     1.2749   1.2749   1.3887   1.3887   1.4527   1.4527   1.4889   1.4890
     1.5787   1.5787   1.6177   1.6177   1.7175   1.7175   1.8002   1.8002
     1.8809   1.8809   1.9543   1.9543   1.9739   1.9739   2.0031   2.0031
     2.1061   2.1061   2.2970   2.2970   6.6158   6.6158   6.7474   6.7475
     6.8821   6.8823   7.2924   7.2926   7.6066   7.6068   7.6303   7.6304
    11.0740  11.0740  12.6518  12.6519  15.4382  15.4382  15.6825  15.6825
    19.0372  19.0372  20.2973  20.2973  20.7656  20.7656  22.0555  22.0555
    22.8992  22.8992  23.5598  23.5598  24.1573  24.1573  24.8114  24.8115
    25.3576  25.3576  26.1446  26.1447  26.4975  26.4975  27.2587  27.2588
    27.5703  27.5704  27.7514  27.7514  28.4558  28.4558  28.8696  28.8696
    29.4106  29.4106  29.8647  29.8648  30.1282  30.1283  30.6069  30.6071
    30.9412  30.9413  31.2290  31.2290  32.0677  32.0680  32.8199  32.8206

     the Fermi energy is    27.4691 ev

!    total energy              =   -3584.08998248 Ry
     Harris-Foulkes estimate   =   -3584.08998530 Ry
     estimated scf accuracy    <       0.00000328 Ry

     The total energy is the sum of the following terms:

     one-electron contribution =   -1431.64642569 Ry
     hartree contribution      =     811.34590990 Ry
     xc contribution           =    -297.47598840 Ry
     ewald contribution        =   -2665.72397073 Ry
     smearing contrib. (-TS)   =      -0.58950756 Ry

     convergence has been achieved in  16 iterations

     Forces acting on atoms (Ry/au):

     atom    1 type  1   force =     0.00000000    0.00000000   -0.00428955
     atom    2 type  1   force =     0.00000000    0.00000000   -0.00428955
     atom    3 type  1   force =     0.00000000    0.00000000    0.00428955
     atom    4 type  1   force =     0.00000000    0.00000000    0.00428955
     atom    5 type  2   force =     0.00000000    0.00000000    0.00000000
     atom    6 type  2   force =     0.00000000    0.00000000    0.00000000
     atom    7 type  2   force =     0.00000000    0.04173783    0.00000000
     atom    8 type  2   force =    -0.03614602    0.02086891    0.00000000
     atom    9 type  2   force =     0.03614602    0.02086891    0.00000000
     atom   10 type  2   force =    -0.03614602   -0.02086891    0.00000000
     atom   11 type  2   force =     0.03614602   -0.02086891    0.00000000
     atom   12 type  2   force =     0.00000000   -0.04173783    0.00000000

     Total force =     0.102596     Total SCF correction =     0.000000

     entering subroutine stress ...

          total   stress  (Ry/bohr**3)                   (kbar)     P=  316.09
   0.00218703   0.00000000   0.00000000        321.72      0.00      0.00
   0.00000000   0.00218703   0.00000000          0.00    321.72      0.00
   0.00000000   0.00000000   0.00207209          0.00      0.00    304.81

     Writing output data file Prototype-La-hP12-MgZn2.save

     General routines

     Parallel routines

   This run was terminated on:   1:20:19  22Mar2018

   JOB DONE.