     Program PWSCF v.5.0.2 starts on 22Mar2018 at  0:40:57

     Current dimensions of program PWSCF are:
     Max number of different atomic species (ntypx) = 10
     Max number of k-points (npk) =  40000
     Max angular momentum in pseudopotentials (lmaxx) =  3
     Waiting for input...
     Reading input from standard input

     Subspace diagonalization in iterative solution of the eigenvalue problem:
     a serial algorithm will be used

     bravais-lattice index     =            0
     lattice parameter (alat)  =      12.0168  a.u.
     unit-cell volume          =    1187.3413 (a.u.)^3
     number of atoms/cell      =            8
     number of atomic types    =            2
     number of electrons       =       120.00
     number of Kohn-Sham states=           72
     kinetic-energy cutoff     =      40.0000  Ry
     charge density cutoff     =     160.0000  Ry
     convergence threshold     =      1.0E-04
     mixing beta               =       0.7000
     number of iterations used =            8  plain     mixing
     Exchange-correlation      = SLA-PZ-NOGX-NOGC ( 1 1 0 0 0)
     EXX-fraction              =        0.00
     nstep                     =           50

     celldm(1)=  12.016801  celldm(2)=   0.000000  celldm(3)=   0.000000
     celldm(4)=   0.000000  celldm(5)=   0.000000  celldm(6)=   0.000000

     crystal axes: (cart. coord. in units of alat)
               a(1) = (   1.000000   0.000000   0.000000 )
               a(2) = (  -0.500000   0.866025   0.000000 )
               a(3) = (   0.000000   0.000000   0.790093 )

     reciprocal axes: (cart. coord. in units 2 pi/alat)
               b(1) = (  1.000000  0.577350  0.000000 )
               b(2) = (  0.000000  1.154701  0.000000 )
               b(3) = (  0.000000  0.000000  1.265674 )

     PseudoPot. # 1 for Ce read from file:
     /home/jld5415/pp.La/Ce.UPF
     MD5 check sum: 44451aa79a44a00cf2bc029dc19922f6
     Pseudo is Norm-conserving, Zval = 12.0
     Generated in analytical, separable form
     Using radial grid of 1255 points,  6 beta functions with:
                l(1) =   0
                l(2) =   0
                l(3) =   1
                l(4) =   1
                l(5) =   2
                l(6) =   3

     PseudoPot. # 2 for Yb read from file:
     /home/jld5415/pp.La/Yb.UPF
     MD5 check sum: 3e859b81cc28c53ec6aa3a2e888efcdf
     Pseudo is Norm-conserving, Zval = 24.0
     Generated in analytical, separable form
     Using radial grid of 1269 points,  6 beta functions with:
                l(1) =   0
                l(2) =   0
                l(3) =   1
                l(4) =   1
                l(5) =   2
                l(6) =   3

     atomic species   valence    mass     pseudopotential
        Mg            12.00    24.30500     Ce( 1.00)
        Cd            24.00   112.41100     Yb( 1.00)

     24 Sym. Ops., with inversion, found (12 have fractional translation)

   Cartesian axes

     site n.     atom                  positions (alat units)
         1           Mg  tau(   1) = (   0.2478935   0.7204716   0.1975233  )
         2           Mg  tau(   2) = (   0.7478935   0.1455538   0.5925699  )
         3           Mg  tau(   3) = (   0.2521065   0.1455538   0.5925699  )
         4           Mg  tau(   4) = (  -0.2478935   0.7204716   0.1975233  )
         5           Mg  tau(   5) = (   0.0000000   0.2911075   0.1975233  )
         6           Mg  tau(   6) = (   0.5000000   0.5749179   0.5925699  )
         7           Cd  tau(   7) = (   0.5000005   0.2886748   0.1975233  )
         8           Cd  tau(   8) = (  -0.0000005   0.5773506   0.5925699  )

     number of k points=    64  gaussian smearing, width (Ry)=  0.1000
                       cart. coord. in units 2pi/alat
        k(    1) = (   0.0000000   0.0000000   0.0000000), wk =   0.0095238
        k(    2) = (   0.0000000   0.0000000   0.1808105), wk =   0.0190476
        k(    3) = (   0.0000000   0.0000000   0.3616210), wk =   0.0190476
        k(    4) = (   0.0000000   0.0000000   0.5424315), wk =   0.0190476
        k(    5) = (   0.0000000   0.1924501   0.0000000), wk =   0.0190476
        k(    6) = (   0.0000000   0.1924501   0.1808105), wk =   0.0380952
        k(    7) = (   0.0000000   0.1924501   0.3616210), wk =   0.0380952
        k(    8) = (   0.0000000   0.1924501   0.5424315), wk =   0.0380952
        k(    9) = (   0.0000000   0.3849002   0.0000000), wk =   0.0190476
        k(   10) = (   0.0000000   0.3849002   0.1808105), wk =   0.0380952
        k(   11) = (   0.0000000   0.3849002   0.3616210), wk =   0.0380952
        k(   12) = (   0.0000000   0.3849002   0.5424315), wk =   0.0380952
        k(   13) = (   0.0000000  -0.5773503   0.0000000), wk =   0.0095238
        k(   14) = (   0.0000000  -0.5773503   0.1808105), wk =   0.0190476
        k(   15) = (   0.0000000  -0.5773503   0.3616210), wk =   0.0190476
        k(   16) = (   0.0000000  -0.5773503   0.5424315), wk =   0.0190476
        k(   17) = (   0.2000000   0.1154701   0.0000000), wk =   0.0190476
        k(   18) = (   0.2000000   0.1154701   0.1808105), wk =   0.0380952
        k(   19) = (   0.2000000   0.1154701   0.3616210), wk =   0.0380952
        k(   20) = (   0.2000000   0.1154701   0.5424315), wk =   0.0380952
        k(   21) = (   0.2000000   0.3079201   0.0000000), wk =   0.0190476
        k(   22) = (   0.2000000   0.3079201   0.1808105), wk =   0.0380952
        k(   23) = (   0.2000000   0.3079201   0.3616210), wk =   0.0380952
        k(   24) = (   0.2000000   0.3079201   0.5424315), wk =   0.0380952
        k(   25) = (   0.2000000   0.5003702   0.0000000), wk =   0.0190476
        k(   26) = (   0.2000000   0.5003702   0.1808105), wk =   0.0380952
        k(   27) = (   0.2000000   0.5003702   0.3616210), wk =   0.0380952
        k(   28) = (   0.2000000   0.5003702   0.5424315), wk =   0.0380952
        k(   29) = (   0.2000000  -0.4618802   0.0000000), wk =   0.0190476
        k(   30) = (   0.2000000  -0.4618802   0.1808105), wk =   0.0380952
        k(   31) = (   0.2000000  -0.4618802   0.3616210), wk =   0.0380952
        k(   32) = (   0.2000000  -0.4618802   0.5424315), wk =   0.0380952
        k(   33) = (   0.2000000  -0.2694301   0.0000000), wk =   0.0190476
        k(   34) = (   0.2000000  -0.2694301   0.1808105), wk =   0.0380952
        k(   35) = (   0.2000000  -0.2694301   0.3616210), wk =   0.0380952
        k(   36) = (   0.2000000  -0.2694301   0.5424315), wk =   0.0380952
        k(   37) = (   0.2000000  -0.0769800   0.0000000), wk =   0.0190476
        k(   38) = (   0.2000000  -0.0769800   0.1808105), wk =   0.0380952
        k(   39) = (   0.2000000  -0.0769800   0.3616210), wk =   0.0380952
        k(   40) = (   0.2000000  -0.0769800   0.5424315), wk =   0.0380952
        k(   41) = (   0.4000000   0.2309401   0.0000000), wk =   0.0190476
        k(   42) = (   0.4000000   0.2309401   0.1808105), wk =   0.0380952
        k(   43) = (   0.4000000   0.2309401   0.3616210), wk =   0.0380952
        k(   44) = (   0.4000000   0.2309401   0.5424315), wk =   0.0380952
        k(   45) = (   0.4000000   0.4233902   0.0000000), wk =   0.0190476
        k(   46) = (   0.4000000   0.4233902   0.1808105), wk =   0.0380952
        k(   47) = (   0.4000000   0.4233902   0.3616210), wk =   0.0380952
        k(   48) = (   0.4000000   0.4233902   0.5424315), wk =   0.0380952
        k(   49) = (   0.4000000   0.6158403   0.0000000), wk =   0.0190476
        k(   50) = (   0.4000000   0.6158403   0.1808105), wk =   0.0380952
        k(   51) = (   0.4000000   0.6158403   0.3616210), wk =   0.0380952
        k(   52) = (   0.4000000   0.6158403   0.5424315), wk =   0.0380952
        k(   53) = (   0.4000000  -0.3464102   0.0000000), wk =   0.0190476
        k(   54) = (   0.4000000  -0.3464102   0.1808105), wk =   0.0380952
        k(   55) = (   0.4000000  -0.3464102   0.3616210), wk =   0.0380952
        k(   56) = (   0.4000000  -0.3464102   0.5424315), wk =   0.0380952
        k(   57) = (   0.4000000  -0.1539601   0.0000000), wk =   0.0190476
        k(   58) = (   0.4000000  -0.1539601   0.1808105), wk =   0.0380952
        k(   59) = (   0.4000000  -0.1539601   0.3616210), wk =   0.0380952
        k(   60) = (   0.4000000  -0.1539601   0.5424315), wk =   0.0380952
        k(   61) = (   0.4000000   0.0384900   0.0000000), wk =   0.0190476
        k(   62) = (   0.4000000   0.0384900   0.1808105), wk =   0.0380952
        k(   63) = (   0.4000000   0.0384900   0.3616210), wk =   0.0380952
        k(   64) = (   0.4000000   0.0384900   0.5424315), wk =   0.0380952

     Largest allocated arrays     est. size (Mb)     dimensions
     Largest temporary arrays     est. size (Mb)     dimensions

     Initial potential from superposition of free atoms

     Starting from uniform charge
     Starting wfc are    0 randomized atomic wfcs

     Self-consistent Calculation

     iteration #  1     ecut=    40.00 Ry     beta=0.70
     CG style diagonalization
     ethr =  1.00E-02,  avg # of iterations = 20.1

     total energy              =     -58.01343299 Ry
     Harris-Foulkes estimate   =   -1987.27853758 Ry
     estimated scf accuracy    <    2252.45916973 Ry

[...]

     iteration #  3     ecut=    40.00 Ry     beta=0.70
     CG style diagonalization
     c_bands:  1 eigenvalues not converged
     c_bands:  1 eigenvalues not converged
     c_bands:  1 eigenvalues not converged
     c_bands:  2 eigenvalues not converged
     c_bands:  1 eigenvalues not converged
     c_bands:  1 eigenvalues not converged
     c_bands:  1 eigenvalues not converged
     c_bands:  1 eigenvalues not converged
     c_bands:  1 eigenvalues not converged
     c_bands:  1 eigenvalues not converged
     c_bands:  1 eigenvalues not converged
     c_bands:  1 eigenvalues not converged
     c_bands:  2 eigenvalues not converged
     c_bands:  1 eigenvalues not converged
     c_bands:  1 eigenvalues not converged
     c_bands:  1 eigenvalues not converged
     c_bands:  1 eigenvalues not converged
     ethr =  1.00E-02,  avg # of iterations = 11.7

[...]

     End of self-consistent calculation

          k = 0.0000 0.0000 0.0000 (  5047 PWs)   bands (ev):

  -101.8197-101.8087 -60.6173 -60.6145 -60.6071 -60.6071 -60.6023 -60.6023
   -15.7359 -15.2018 -15.2017 -15.1293 -14.9054 -14.9053  -2.5852  -2.5733
    -2.5733  -2.5559  -2.5543  -2.5543  -2.5225  -2.5225  -2.4981  -2.4981
     1.0021   1.0891   1.6698   1.7727   1.7727   2.1428   2.1429   2.2317
     2.2318   2.8708   3.4998   3.4999   3.7627   3.8819   3.8819   3.9158
     3.9159   3.9163  10.2798  10.4707  16.3180  18.1557  18.6001  18.6001
    18.6762  18.6763  18.8258  19.2211  19.2212  19.7776  20.4399  20.4401
    21.7205  21.7206  22.0613  22.9882  23.0801  23.0801  23.3257  24.2969
    24.2969  24.4794  24.6142  25.3132  25.3130  26.1891  26.2046  26.2042

[...]

     the Fermi energy is    22.5973 ev

!    total energy              =   -1282.80928055 Ry
     Harris-Foulkes estimate   =   -1282.80929702 Ry
     estimated scf accuracy    <       0.00002193 Ry

     The total energy is the sum of the following terms:

[...]
        k(   10) = (   0.0000000   0.3820386   0.1735743), wk =   0.0380952
        k(   11) = (   0.0000000   0.3820386   0.3471487), wk =   0.0380952
        k(   12) = (   0.0000000   0.3820386   0.5207230), wk =   0.0380952
        k(   13) = (   0.0000000  -0.5730580   0.0000000), wk =   0.0095238
        k(   14) = (   0.0000000  -0.5730580   0.1735743), wk =   0.0190476
        k(   15) = (   0.0000000  -0.5730580   0.3471487), wk =   0.0190476
        k(   16) = (   0.0000000  -0.5730580   0.5207230), wk =   0.0190476
        k(   17) = (   0.1985131   0.1146116   0.0000000), wk =   0.0190476
        k(   18) = (   0.1985131   0.1146116   0.1735743), wk =   0.0380952
        k(   19) = (   0.1985131   0.1146116   0.3471487), wk =   0.0380952
        k(   20) = (   0.1985131   0.1146116   0.5207230), wk =   0.0380952
        k(   21) = (   0.1985131   0.3056309   0.0000000), wk =   0.0190476
        k(   22) = (   0.1985131   0.3056309   0.1735743), wk =   0.0380952
        k(   23) = (   0.1985131   0.3056309   0.3471487), wk =   0.0380952
        k(   24) = (   0.1985131   0.3056309   0.5207230), wk =   0.0380952
        k(   25) = (   0.1985131   0.4966502   0.0000000), wk =   0.0190476
        k(   26) = (   0.1985131   0.4966502   0.1735743), wk =   0.0380952
        k(   27) = (   0.1985131   0.4966502   0.3471487), wk =   0.0380952
        k(   28) = (   0.1985131   0.4966502   0.5207230), wk =   0.0380952
        k(   29) = (   0.1985131  -0.4584464   0.0000000), wk =   0.0190476
        k(   30) = (   0.1985131  -0.4584464   0.1735743), wk =   0.0380952
        k(   31) = (   0.1985131  -0.4584464   0.3471487), wk =   0.0380952
        k(   32) = (   0.1985131  -0.4584464   0.5207230), wk =   0.0380952
        k(   33) = (   0.1985131  -0.2674270   0.0000000), wk =   0.0190476
        k(   34) = (   0.1985131  -0.2674270   0.1735743), wk =   0.0380952
        k(   35) = (   0.1985131  -0.2674270   0.3471487), wk =   0.0380952
        k(   36) = (   0.1985131  -0.2674270   0.5207230), wk =   0.0380952
        k(   37) = (   0.1985131  -0.0764077   0.0000000), wk =   0.0190476
        k(   38) = (   0.1985131  -0.0764077   0.1735743), wk =   0.0380952
        k(   39) = (   0.1985131  -0.0764077   0.3471487), wk =   0.0380952
        k(   40) = (   0.1985131  -0.0764077   0.5207230), wk =   0.0380952
        k(   41) = (   0.3970262   0.2292232   0.0000000), wk =   0.0190476
        k(   42) = (   0.3970262   0.2292232   0.1735743), wk =   0.0380952
        k(   43) = (   0.3970262   0.2292232   0.3471487), wk =   0.0380952
        k(   44) = (   0.3970262   0.2292232   0.5207230), wk =   0.0380952
        k(   45) = (   0.3970262   0.4202425   0.0000000), wk =   0.0190476
        k(   46) = (   0.3970262   0.4202425   0.1735743), wk =   0.0380952
        k(   47) = (   0.3970262   0.4202425   0.3471487), wk =   0.0380952
        k(   48) = (   0.3970262   0.4202425   0.5207230), wk =   0.0380952
        k(   49) = (   0.3970262   0.6112618   0.0000000), wk =   0.0190476
        k(   50) = (   0.3970262   0.6112618   0.1735743), wk =   0.0380952
        k(   51) = (   0.3970262   0.6112618   0.3471487), wk =   0.0380952
        k(   52) = (   0.3970262   0.6112618   0.5207230), wk =   0.0380952
        k(   53) = (   0.3970262  -0.3438348   0.0000000), wk =   0.0190476
        k(   54) = (   0.3970262  -0.3438348   0.1735743), wk =   0.0380952
        k(   55) = (   0.3970262  -0.3438348   0.3471487), wk =   0.0380952
        k(   56) = (   0.3970262  -0.3438348   0.5207230), wk =   0.0380952
        k(   57) = (   0.3970262  -0.1528155   0.0000000), wk =   0.0190476
        k(   58) = (   0.3970262  -0.1528155   0.1735743), wk =   0.0380952
        k(   59) = (   0.3970262  -0.1528155   0.3471487), wk =   0.0380952
        k(   60) = (   0.3970262  -0.1528155   0.5207230), wk =   0.0380952
        k(   61) = (   0.3970262   0.0382039   0.0000000), wk =   0.0190476
        k(   62) = (   0.3970262   0.0382039   0.1735743), wk =   0.0380952
        k(   63) = (   0.3970262   0.0382039   0.3471487), wk =   0.0380952
        k(   64) = (   0.3970262   0.0382039   0.5207230), wk =   0.0380952

[...]

     The maximum number of steps has been reached.

     End of BFGS Geometry Optimization
Begin final coordinates
     new unit-cell volume =   1255.43822 a.u.^3 (   186.03675 Ang^3 )

CELL_PARAMETERS (alat= 12.01680127)
   1.007490198   0.000000000   0.000000000
  -0.503745099   0.872512105   0.000000000
   0.000000000   0.000000000   0.823031424

ATOMIC_POSITIONS (crystal)
Mg       0.669699091   0.834849546   0.250000000
Mg       0.834849546   0.165150454   0.750000000
Mg       0.330300909   0.165150454   0.750000000
Mg       0.165150454   0.834849546   0.250000000
Mg       0.165150454   0.330300909   0.250000000
Mg       0.834849546   0.669699091   0.750000000
Cd       0.666667000   0.333333000   0.250000000
Cd       0.333333000   0.666667000   0.750000000
End final coordinates

     A final scf calculation at the relaxed structure.
     The G-vectors are recalculated for the final unit cell
     Results may differ from those at the preceding step.

     bravais-lattice index     =            0
     lattice parameter (alat)  =      12.0168  a.u.
     unit-cell volume          =    1255.4382 (a.u.)^3
     number of atoms/cell      =            8
     number of atomic types    =            2
     number of electrons       =       120.00
     number of Kohn-Sham states=           72
     kinetic-energy cutoff     =      40.0000  Ry
     charge density cutoff     =     160.0000  Ry
     convergence threshold     =      1.0E-06
     mixing beta               =       0.7000
     number of iterations used =            8  plain     mixing
     Exchange-correlation      = SLA-PZ-NOGX-NOGC ( 1 1 0 0 0)
     EXX-fraction              =        0.00

     celldm(1)=  12.016801  celldm(2)=   0.000000  celldm(3)=   0.000000
     celldm(4)=   0.000000  celldm(5)=   0.000000  celldm(6)=   0.000000

     crystal axes: (cart. coord. in units of alat)
               a(1) = (   1.007490   0.000000   0.000000 )
               a(2) = (  -0.503745   0.872512   0.000000 )
               a(3) = (   0.000000   0.000000   0.823031 )

     reciprocal axes: (cart. coord. in units 2 pi/alat)
               b(1) = (  0.992565  0.573058  0.000000 )
               b(2) = (  0.000000  1.146116  0.000000 )
               b(3) = (  0.000000  0.000000  1.215020 )

     PseudoPot. # 1 for Ce read from file:
     /home/jld5415/pp.La/Ce.UPF
     MD5 check sum: 44451aa79a44a00cf2bc029dc19922f6
     Pseudo is Norm-conserving, Zval = 12.0
     Generated in analytical, separable form
     Using radial grid of 1255 points,  6 beta functions with:
                l(1) =   0
                l(2) =   0
                l(3) =   1
                l(4) =   1
                l(5) =   2
                l(6) =   3

     PseudoPot. # 2 for Yb read from file:
     /home/jld5415/pp.La/Yb.UPF
     MD5 check sum: 3e859b81cc28c53ec6aa3a2e888efcdf
     Pseudo is Norm-conserving, Zval = 24.0
     Generated in analytical, separable form
     Using radial grid of 1269 points,  6 beta functions with:
                l(1) =   0
                l(2) =   0
                l(3) =   1
                l(4) =   1
                l(5) =   2
                l(6) =   3

     atomic species   valence    mass     pseudopotential
        Mg            12.00    24.30500     Ce( 1.00)
        Cd            24.00   112.41100     Yb( 1.00)

     24 Sym. Ops., with inversion, found (12 have fractional translation)

   Cartesian axes

     site n.     atom                  positions (alat units)
         1           Mg  tau(   1) = (   0.2541639   0.7284163   0.2057579  )
         2           Mg  tau(   2) = (   0.7579090   0.1440958   0.6172736  )
         3           Mg  tau(   3) = (   0.2495812   0.1440958   0.6172736  )
         4           Mg  tau(   4) = (  -0.2541639   0.7284163   0.2057579  )
         5           Mg  tau(   5) = (   0.0000000   0.2881915   0.2057579  )
         6           Mg  tau(   6) = (   0.5037451   0.5843206   0.6172736  )
         7           Cd  tau(   7) = (   0.5037456   0.2908371   0.2057579  )
         8           Cd  tau(   8) = (  -0.0000005   0.5816750   0.6172736  )

     number of k points=    64  gaussian smearing, width (Ry)=  0.1000
                       cart. coord. in units 2pi/alat
        k(    1) = (   0.0000000   0.0000000   0.0000000), wk =   0.0095238
        k(    2) = (   0.0000000   0.0000000   0.1735743), wk =   0.0190476
        k(    3) = (   0.0000000   0.0000000   0.3471487), wk =   0.0190476
        k(    4) = (   0.0000000   0.0000000   0.5207230), wk =   0.0190476
        k(    5) = (   0.0000000   0.1910193   0.0000000), wk =   0.0190476
        k(    6) = (   0.0000000   0.1910193   0.1735743), wk =   0.0380952
        k(    7) = (   0.0000000   0.1910193   0.3471487), wk =   0.0380952
        k(    8) = (   0.0000000   0.1910193   0.5207230), wk =   0.0380952
        k(    9) = (   0.0000000   0.3820386   0.0000000), wk =   0.0190476
        k(   10) = (   0.0000000   0.3820386   0.1735743), wk =   0.0380952
        k(   11) = (   0.0000000   0.3820386   0.3471487), wk =   0.0380952
        k(   12) = (   0.0000000   0.3820386   0.5207230), wk =   0.0380952
        k(   13) = (   0.0000000  -0.5730580   0.0000000), wk =   0.0095238
        k(   14) = (   0.0000000  -0.5730580   0.1735743), wk =   0.0190476
        k(   15) = (   0.0000000  -0.5730580   0.3471487), wk =   0.0190476
        k(   16) = (   0.0000000  -0.5730580   0.5207230), wk =   0.0190476
        k(   17) = (   0.1985131   0.1146116   0.0000000), wk =   0.0190476
        k(   18) = (   0.1985131   0.1146116   0.1735743), wk =   0.0380952
        k(   19) = (   0.1985131   0.1146116   0.3471487), wk =   0.0380952
        k(   20) = (   0.1985131   0.1146116   0.5207230), wk =   0.0380952
        k(   21) = (   0.1985131   0.3056309   0.0000000), wk =   0.0190476
        k(   22) = (   0.1985131   0.3056309   0.1735743), wk =   0.0380952
        k(   23) = (   0.1985131   0.3056309   0.3471487), wk =   0.0380952
        k(   24) = (   0.1985131   0.3056309   0.5207230), wk =   0.0380952
        k(   25) = (   0.1985131   0.4966502   0.0000000), wk =   0.0190476
        k(   26) = (   0.1985131   0.4966502   0.1735743), wk =   0.0380952
        k(   27) = (   0.1985131   0.4966502   0.3471487), wk =   0.0380952
        k(   28) = (   0.1985131   0.4966502   0.5207230), wk =   0.0380952
        k(   29) = (   0.1985131  -0.4584464   0.0000000), wk =   0.0190476
        k(   30) = (   0.1985131  -0.4584464   0.1735743), wk =   0.0380952
        k(   31) = (   0.1985131  -0.4584464   0.3471487), wk =   0.0380952
        k(   32) = (   0.1985131  -0.4584464   0.5207230), wk =   0.0380952
        k(   33) = (   0.1985131  -0.2674270   0.0000000), wk =   0.0190476
        k(   34) = (   0.1985131  -0.2674270   0.1735743), wk =   0.0380952
        k(   35) = (   0.1985131  -0.2674270   0.3471487), wk =   0.0380952
        k(   36) = (   0.1985131  -0.2674270   0.5207230), wk =   0.0380952
        k(   37) = (   0.1985131  -0.0764077   0.0000000), wk =   0.0190476
        k(   38) = (   0.1985131  -0.0764077   0.1735743), wk =   0.0380952
        k(   39) = (   0.1985131  -0.0764077   0.3471487), wk =   0.0380952
        k(   40) = (   0.1985131  -0.0764077   0.5207230), wk =   0.0380952
        k(   41) = (   0.3970262   0.2292232   0.0000000), wk =   0.0190476
        k(   42) = (   0.3970262   0.2292232   0.1735743), wk =   0.0380952
        k(   43) = (   0.3970262   0.2292232   0.3471487), wk =   0.0380952
        k(   44) = (   0.3970262   0.2292232   0.5207230), wk =   0.0380952
        k(   45) = (   0.3970262   0.4202425   0.0000000), wk =   0.0190476
        k(   46) = (   0.3970262   0.4202425   0.1735743), wk =   0.0380952
        k(   47) = (   0.3970262   0.4202425   0.3471487), wk =   0.0380952
        k(   48) = (   0.3970262   0.4202425   0.5207230), wk =   0.0380952
        k(   49) = (   0.3970262   0.6112618   0.0000000), wk =   0.0190476
        k(   50) = (   0.3970262   0.6112618   0.1735743), wk =   0.0380952
        k(   51) = (   0.3970262   0.6112618   0.3471487), wk =   0.0380952
        k(   52) = (   0.3970262   0.6112618   0.5207230), wk =   0.0380952
        k(   53) = (   0.3970262  -0.3438348   0.0000000), wk =   0.0190476
        k(   54) = (   0.3970262  -0.3438348   0.1735743), wk =   0.0380952
        k(   55) = (   0.3970262  -0.3438348   0.3471487), wk =   0.0380952
        k(   56) = (   0.3970262  -0.3438348   0.5207230), wk =   0.0380952
        k(   57) = (   0.3970262  -0.1528155   0.0000000), wk =   0.0190476
        k(   58) = (   0.3970262  -0.1528155   0.1735743), wk =   0.0380952
        k(   59) = (   0.3970262  -0.1528155   0.3471487), wk =   0.0380952
        k(   60) = (   0.3970262  -0.1528155   0.5207230), wk =   0.0380952
        k(   61) = (   0.3970262   0.0382039   0.0000000), wk =   0.0190476
        k(   62) = (   0.3970262   0.0382039   0.1735743), wk =   0.0380952
        k(   63) = (   0.3970262   0.0382039   0.3471487), wk =   0.0380952
        k(   64) = (   0.3970262   0.0382039   0.5207230), wk =   0.0380952

     Largest allocated arrays     est. size (Mb)     dimensions
     Largest temporary arrays     est. size (Mb)     dimensions

     Initial potential from superposition of free atoms

     Starting from uniform charge
     Starting wfc are    0 randomized atomic wfcs

     Writing output data file Prototype-La-hP8-Mg3Cd.save

     Self-consistent Calculation

[...]

     iteration # 12     ecut=    40.00 Ry     beta=0.70
     CG style diagonalization
     c_bands:  1 eigenvalues not converged
     c_bands:  1 eigenvalues not converged
     ethr =  3.42E-09,  avg # of iterations =  4.8

     total energy              =   -1283.00149785 Ry
     Harris-Foulkes estimate   =   -1283.00150027 Ry
     estimated scf accuracy    <       0.00000562 Ry

     iteration # 13     ecut=    40.00 Ry     beta=0.70
     CG style diagonalization
     ethr =  3.42E-09,  avg # of iterations =  3.5

     End of self-consistent calculation

[...]

          k = 0.3970 0.0382 0.5207 (  5366 PWs)   bands (ev):

  -103.1093-103.1008 -61.8754 -61.8746 -61.8729 -61.8710 -61.8688 -61.8677
   -16.7392 -16.6455 -16.5284 -16.4828 -16.4323 -16.3979  -3.7799  -3.7766
    -3.7640  -3.7613  -3.7575  -3.7547  -3.7295  -3.7277  -3.7240  -3.7185
     0.1461   0.2511   0.3106   0.3602   0.5884   0.6398   1.2004   1.4090
     1.5670   1.6350   1.8275   1.9669   2.0805   2.1047   2.1724   2.2941
     2.3975   2.4272   9.7979   9.8399  15.8605  15.9367  16.3355  16.5044
    16.8290  16.8651  18.8297  19.0275  19.2611  19.6047  19.7169  19.8777
    19.9507  20.1613  20.6794  20.9084  21.0328  21.0528  21.8064  22.5719
    22.7150  23.0373  23.3628  23.4168  23.6375  23.8495  24.1230  24.3105

     the Fermi energy is    21.2330 ev

!    total energy              =   -1283.00149834 Ry
     Harris-Foulkes estimate   =   -1283.00149870 Ry
     estimated scf accuracy    <       0.00000040 Ry

     The total energy is the sum of the following terms:

     one-electron contribution =    -383.25895850 Ry
     hartree contribution      =     246.21888806 Ry
     xc contribution           =    -124.99754009 Ry
     ewald contribution        =   -1020.51550976 Ry
     smearing contrib. (-TS)   =      -0.44837805 Ry

     convergence has been achieved in  13 iterations

     Forces acting on atoms (Ry/au):

     atom    1 type  1   force =     0.00543931    0.00314039    0.00000000
     atom    2 type  1   force =     0.00543931   -0.00314039    0.00000000
     atom    3 type  1   force =    -0.00543931   -0.00314039    0.00000000
     atom    4 type  1   force =    -0.00543931    0.00314039    0.00000000
     atom    5 type  1   force =     0.00000000   -0.00628077    0.00000000
     atom    6 type  1   force =     0.00000000    0.00628077    0.00000000
     atom    7 type  2   force =     0.00000000    0.00000000    0.00000000
     atom    8 type  2   force =     0.00000000    0.00000000    0.00000000

     Total force =     0.015385     Total SCF correction =     0.000000

     entering subroutine stress ...

          total   stress  (Ry/bohr**3)                   (kbar)     P=   37.93
   0.00014268   0.00000000   0.00000000         20.99      0.00      0.00
   0.00000000   0.00014268   0.00000000          0.00     20.99      0.00
   0.00000000   0.00000000   0.00048824          0.00      0.00     71.82

     Writing output data file Prototype-La-hP8-Mg3Cd.save

     General routines

     Parallel routines

   This run was terminated on:   1:24:57  22Mar2018

   JOB DONE.