     Program PWSCF v.5.0.2 starts on 22Mar2018 at  0:40:58

     Current dimensions of program PWSCF are:
     Max number of different atomic species (ntypx) = 10
     Max number of k-points (npk) =  40000
     Max angular momentum in pseudopotentials (lmaxx) =  3
     Waiting for input...
     Reading input from standard input

     Subspace diagonalization in iterative solution of the eigenvalue problem:
     a serial algorithm will be used

     bravais-lattice index     =            0
     lattice parameter (alat)  =       8.8008  a.u.
     unit-cell volume          =    1116.9454 (a.u.)^3
     number of atoms/cell      =           16
     number of atomic types    =            2
     number of electrons       =       240.00
     number of Kohn-Sham states=          144
     kinetic-energy cutoff     =      40.0000  Ry
     charge density cutoff     =     160.0000  Ry
     convergence threshold     =      1.0E-04
     mixing beta               =       0.7000
     number of iterations used =            8  plain     mixing
     Exchange-correlation      = SLA-PZ-NOGX-NOGC ( 1 1 0 0 0)
     EXX-fraction              =        0.00
     nstep                     =           50

     celldm(1)=   8.800765  celldm(2)=   0.000000  celldm(3)=   0.000000
     celldm(4)=   0.000000  celldm(5)=   0.000000  celldm(6)=   0.000000

     crystal axes: (cart. coord. in units of alat)
               a(1) = (   1.000000   0.000000   0.000000 )
               a(2) = (   0.000000   1.083771   0.000000 )
               a(3) = (   0.000000   0.000000   1.511935 )

     reciprocal axes: (cart. coord. in units 2 pi/alat)
               b(1) = (  1.000000  0.000000  0.000000 )
               b(2) = (  0.000000  0.922704  0.000000 )
               b(3) = (  0.000000  0.000000  0.661404 )

     PseudoPot. # 1 for Ce read from file:
     /home/jld5415/pp.La/Ce.UPF
     MD5 check sum: 44451aa79a44a00cf2bc029dc19922f6
     Pseudo is Norm-conserving, Zval = 12.0
     Generated in analytical, separable form
     Using radial grid of 1255 points,  6 beta functions with:
                l(1) =   0
                l(2) =   0
                l(3) =   1
                l(4) =   1
                l(5) =   2
                l(6) =   3

     PseudoPot. # 2 for Yb read from file:
     /home/jld5415/pp.La/Yb.UPF
     MD5 check sum: 3e859b81cc28c53ec6aa3a2e888efcdf
     Pseudo is Norm-conserving, Zval = 24.0
     Generated in analytical, separable form
     Using radial grid of 1269 points,  6 beta functions with:
                l(1) =   0
                l(2) =   0
                l(3) =   1
                l(4) =   1
                l(5) =   2
                l(6) =   3

     atomic species   valence    mass     pseudopotential
        Fe            12.00    55.84500     Ce( 1.00)
        C             24.00    12.01070     Yb( 1.00)

      8 Sym. Ops., with inversion, found ( 6 have fractional translation)

   Cartesian axes

     site n.     atom                  positions (alat units)
         1           Fe  tau(   1) = (   0.3472940   0.1827628   1.3947267  )
         2           Fe  tau(   2) = (   0.1527060   0.7246484   0.8731757  )
         3           Fe  tau(   3) = (   0.8472940   0.3591227   0.6387592  )
         4           Fe  tau(   4) = (   0.3396640   0.4879235   0.3779837  )
         5           Fe  tau(   5) = (   0.1527060   0.7246484   1.3947267  )
         6           Fe  tau(   6) = (   0.3472940   0.1827628   0.8731757  )
         7           Fe  tau(   7) = (   0.1603360   1.0298091   0.3779837  )
         8           Fe  tau(   8) = (   0.6527060   0.9010083   0.6387592  )
         9           Fe  tau(   9) = (   0.8472940   0.3591227   0.1172082  )
        10           Fe  tau(  10) = (   0.6603360   0.5958476   1.1339512  )
        11           Fe  tau(  11) = (   0.6527060   0.9010083   0.1172082  )
        12           Fe  tau(  12) = (   0.8396640   0.0539620   1.1339512  )
        13           C   tau(  13) = (   0.0000000   0.0000000   0.0000000  )
        14           C   tau(  14) = (   0.5000000   0.5418856   0.0000000  )
        15           C   tau(  15) = (   0.5000000   0.5418856   0.7559674  )
        16           C   tau(  16) = (   0.0000000   0.0000000   0.7559674  )

     number of k points=    12  gaussian smearing, width (Ry)=  0.1000
                       cart. coord. in units 2pi/alat
        k(    1) = (   0.0000000   0.0000000   0.0000000), wk =   0.0833333
        k(    2) = (   0.0000000   0.0000000   0.1653510), wk =   0.1666667
        k(    3) = (   0.0000000   0.0000000  -0.3307021), wk =   0.0833333
        k(    4) = (   0.0000000   0.3075680   0.0000000), wk =   0.1666667
        k(    5) = (   0.0000000   0.3075680   0.1653510), wk =   0.3333333
        k(    6) = (   0.0000000   0.3075680  -0.3307021), wk =   0.1666667
        k(    7) = (  -0.5000000   0.0000000   0.0000000), wk =   0.0833333
        k(    8) = (  -0.5000000   0.0000000   0.1653510), wk =   0.1666667
        k(    9) = (  -0.5000000   0.0000000  -0.3307021), wk =   0.0833333
        k(   10) = (  -0.5000000   0.3075680   0.0000000), wk =   0.1666667
        k(   11) = (  -0.5000000   0.3075680   0.1653510), wk =   0.3333333
        k(   12) = (  -0.5000000   0.3075680  -0.3307021), wk =   0.1666667

     Largest allocated arrays     est. size (Mb)     dimensions
     Largest temporary arrays     est. size (Mb)     dimensions

     Initial potential from superposition of free atoms

     Starting from uniform charge
     Starting wfc are    0 randomized atomic wfcs

     Self-consistent Calculation

     iteration #  1     ecut=    40.00 Ry     beta=0.70
     CG style diagonalization
     ethr =  1.00E-02,  avg # of iterations = 20.7

     total energy              =    -850.96065594 Ry
     Harris-Foulkes estimate   =   -3815.26516247 Ry
     estimated scf accuracy    <    3471.28983269 Ry

     iteration #  2     ecut=    40.00 Ry     beta=0.70
     CG style diagonalization
     c_bands:  2 eigenvalues not converged
     c_bands:  1 eigenvalues not converged
     c_bands:  4 eigenvalues not converged
     c_bands:  4 eigenvalues not converged
     c_bands:  2 eigenvalues not converged
     c_bands:  5 eigenvalues not converged
     ethr =  1.00E-02,  avg # of iterations = 17.1

[...]

     End of self-consistent calculation

          k = 0.0000 0.0000 0.0000 (  4785 PWs)   bands (ev):

   -79.7860 -79.7840 -79.7323 -79.6699 -39.4603 -39.4553 -39.4535 -39.4532
   -39.3791 -39.3716 -39.3716 -39.3663 -39.2465 -39.2403 -39.2166 -39.2130
     2.5738   3.0884   3.3935   3.6101   3.9245   4.5018   5.9462   6.4291
     6.8042   7.5143   7.5893   7.6279  10.2155  10.3177  10.6301  11.6095
    13.0050  13.4191  13.6512  14.0898  14.1822  15.3517  15.4658  15.5063
    15.5116  16.1071  16.1857  16.2083  16.2602  16.7062  18.4569  19.4979
    19.7614  19.7654  19.9088  20.1795  21.1910  21.2961  22.0559  22.4381
    22.5984  22.6663  22.6969  23.1889  24.1226  24.2585  24.2865  24.4328
    24.8778  25.7606  25.8896  26.8327  27.4639  27.6711  28.1261  28.1624
    28.1868  28.2958  28.3622  28.8898  29.8062  30.6480  30.8057  31.5035
    32.8255  34.0198  34.8004  35.9463  37.2155  38.9253  38.9405  39.6704
    39.9711  40.1493  40.2204  40.2821  40.8451  41.1048  41.3688  41.5600
    41.6390  42.1780  42.7288  42.8890  43.1303  43.2398  43.8801  43.9740
    44.0984  44.5450  44.6856  44.8533  45.0735  45.2970  45.3678  45.5429
    45.9543  46.2976  46.3178  46.6989  46.7240  47.2666  47.8750  48.0099
    48.4010  48.4888  48.7117  48.7260  48.9907  49.1386  49.2701  49.8637
    50.1246  50.5597  50.7582  51.1219  51.3482  51.5373  51.6178  51.6954
    51.7151  52.0268  52.1432  52.5990  52.7256  53.0541  53.4471  53.8390

[...]

          k =-0.5000 0.0000 0.0000 (  4798 PWs)   bands (ev):

[...]

     the Fermi energy is    47.9383 ev

!    total energy              =   -2523.17827796 Ry
     Harris-Foulkes estimate   =   -2523.17833141 Ry
     estimated scf accuracy    <       0.00006604 Ry

     The total energy is the sum of the following terms:

     one-electron contribution =    -248.89006526 Ry
     hartree contribution      =     460.89456718 Ry
     xc contribution           =    -281.79140531 Ry
     ewald contribution        =   -2452.86298194 Ry
     smearing contrib. (-TS)   =      -0.52839262 Ry

     convergence has been achieved in  10 iterations

     Forces acting on atoms (Ry/au):

     atom    1 type  1   force =     1.02347722   -1.09802642   -1.38244650
     atom    2 type  1   force =    -1.02347722   -1.09802642    1.38244650
     atom    3 type  1   force =     1.02347722    1.09802642   -1.38244650
     atom    4 type  1   force =    -1.72366946   -0.64518562    0.00000000
     atom    5 type  1   force =    -1.02347722   -1.09802642   -1.38244650
     atom    6 type  1   force =     1.02347722   -1.09802642    1.38244650
     atom    7 type  1   force =     1.72366946   -0.64518562    0.00000000
     atom    8 type  1   force =    -1.02347722    1.09802642   -1.38244650
     atom    9 type  1   force =     1.02347722    1.09802642    1.38244650
     atom   10 type  1   force =     1.72366946    0.64518562    0.00000000
     atom   11 type  1   force =    -1.02347722    1.09802642    1.38244650
     atom   12 type  1   force =    -1.72366946    0.64518562    0.00000000
     atom   13 type  2   force =     0.00000000    0.00000000    0.00000000
     atom   14 type  2   force =     0.00000000    0.00000000    0.00000000
     atom   15 type  2   force =     0.00000000    0.00000000    0.00000000
     atom   16 type  2   force =     0.00000000    0.00000000    0.00000000

     Total force =     6.845715     Total SCF correction =     0.000000

     entering subroutine stress ...

          total   stress  (Ry/bohr**3)                   (kbar)     P=11267.99
   0.07831902   0.00000000   0.00000000      11521.12      0.00      0.00
   0.00000000   0.07682112   0.00000000          0.00  11300.78      0.00
   0.00000000   0.00000000   0.07465460          0.00      0.00  10982.07

     BFGS Geometry Optimization

     number of scf cycles    =   1
     number of bfgs steps    =   0

     enthalpy new            =   -2523.1782779647 Ry

     new trust radius        =       0.5000000000 bohr
     new conv_thr            =       0.0001000000 Ry

     new unit-cell volume =   1380.46245 a.u.^3 (   204.56343 Ang^3 )

CELL_PARAMETERS (alat=  8.80076499)
   1.074803866   0.000000000   0.000000000
   0.000000000   1.163290896   0.000000000
   0.000000000   0.000000000   1.619741747

ATOMIC_POSITIONS (crystal)
Fe       0.351736982   0.164237834   0.918508721
Fe       0.148263018   0.664237834   0.581491279
Fe       0.851736982   0.335762166   0.418508721
Fe       0.332181437   0.447624697   0.250000000
Fe       0.148263018   0.664237834   0.918508721
Fe       0.351736982   0.164237834   0.581491279
Fe       0.167818563   0.947624697   0.250000000
Fe       0.648263018   0.835762166   0.418508721
Fe       0.851736982   0.335762166   0.081491279
Fe       0.667818563   0.552375303   0.750000000
Fe       0.648263018   0.835762166   0.081491279
Fe       0.832181437   0.052375303   0.750000000
C        0.000000000   0.000000000   0.000000000
C        0.500000000   0.500000000   0.000000000
C        0.500000000   0.500000000   0.500000000
C        0.000000000   0.000000000   0.500000000

     Writing output data file Prototype-La-oP16-Fe3C.save
     NEW-OLD atomic charge density approx. for the potential
     NEW k-points:
        k(    1) = (   0.0000000   0.0000000   0.0000000), wk =   0.0833333
        k(    2) = (   0.0000000   0.0000000   0.1543456), wk =   0.1666667
        k(    3) = (   0.0000000   0.0000000  -0.3086912), wk =   0.0833333
        k(    4) = (   0.0000000   0.2865434   0.0000000), wk =   0.1666667
        k(    5) = (   0.0000000   0.2865434   0.1543456), wk =   0.3333333
        k(    6) = (   0.0000000   0.2865434  -0.3086912), wk =   0.1666667
        k(    7) = (  -0.4652012   0.0000000   0.0000000), wk =   0.0833333
        k(    8) = (  -0.4652012   0.0000000   0.1543456), wk =   0.1666667
        k(    9) = (  -0.4652012   0.0000000  -0.3086912), wk =   0.0833333
        k(   10) = (  -0.4652012   0.2865434   0.0000000), wk =   0.1666667
        k(   11) = (  -0.4652012   0.2865434   0.1543456), wk =   0.3333333
        k(   12) = (  -0.4652012   0.2865434  -0.3086912), wk =   0.1666667

[...]

          total   stress  (Ry/bohr**3)                   (kbar)     P= 5646.96
   0.03935295   0.00000000   0.00000000       5789.02      0.00      0.00
   0.00000000   0.03789692   0.00000000          0.00   5574.83      0.00
   0.00000000   0.00000000   0.03791187          0.00      0.00   5577.03

[...]

     enthalpy old            =   -2523.1782779647 Ry
     enthalpy new            =   -2539.2373716056 Ry

     CASE: enthalpy_new < enthalpy_old

     small trust_radius: resetting bfgs history

     new trust radius        =       7.3107110292 bohr
     new conv_thr            =       0.0001000000 Ry

[...]

          total   stress  (Ry/bohr**3)                   (kbar)     P=-2650.03
  -0.01833994   0.00000000   0.00000000      -2697.90      0.00      0.00
   0.00000000  -0.01777312   0.00000000          0.00  -2614.52      0.00
   0.00000000   0.00000000  -0.01793061          0.00      0.00  -2637.68

     number of scf cycles    =   3
     number of bfgs steps    =   2

     enthalpy old            =   -2539.2373716056 Ry
     enthalpy new            =   -2403.3343192559 Ry

     CASE: enthalpy_new > enthalpy_old

     new trust radius        =       2.8238724503 bohr

     trust_radius < trust_radius_min

     resetting bfgs history

     Message from routine bfgs:
     history already reset at previous step: stopping
     new conv_thr            =       0.0001000000 Ry

     new unit-cell volume =   1581.38141 a.u.^3 (   234.33654 Ang^3 )

[...]

ATOMIC_POSITIONS (crystal)
Fe       0.353422735   0.162538055   0.916958625
Fe       0.146577265   0.662538055   0.583041375
Fe       0.853422735   0.337461945   0.416958625
Fe       0.329332554   0.446609245   0.250000000
Fe       0.146577265   0.662538055   0.916958625
Fe       0.353422735   0.162538055   0.583041375
Fe       0.170667446   0.946609245   0.250000000
Fe       0.646577265   0.837461945   0.416958625
Fe       0.853422735   0.337461945   0.083041375
Fe       0.670667446   0.553390755   0.750000000
Fe       0.646577265   0.837461945   0.083041375
Fe       0.829332554   0.053390755   0.750000000
C        0.000000000   0.000000000   0.000000000
C        0.500000000   0.500000000   0.000000000
C        0.500000000   0.500000000   0.500000000
C        0.000000000   0.000000000   0.500000000

     Writing output data file Prototype-La-oP16-Fe3C.save
     NEW-OLD atomic charge density approx. for the potential
     NEW k-points:
        k(    1) = (   0.0000000   0.0000000   0.0000000), wk =   0.0833333
        k(    2) = (   0.0000000   0.0000000   0.1476721), wk =   0.1666667
        k(    3) = (   0.0000000   0.0000000  -0.2953442), wk =   0.0833333
        k(    4) = (   0.0000000   0.2741632   0.0000000), wk =   0.1666667
        k(    5) = (   0.0000000   0.2741632   0.1476721), wk =   0.3333333
        k(    6) = (   0.0000000   0.2741632  -0.2953442), wk =   0.1666667
        k(    7) = (  -0.4436146   0.0000000   0.0000000), wk =   0.0833333
        k(    8) = (  -0.4436146   0.0000000   0.1476721), wk =   0.1666667
        k(    9) = (  -0.4436146   0.0000000  -0.2953442), wk =   0.0833333
        k(   10) = (  -0.4436146   0.2741632   0.0000000), wk =   0.1666667
        k(   11) = (  -0.4436146   0.2741632   0.1476721), wk =   0.3333333
        k(   12) = (  -0.4436146   0.2741632  -0.2953442), wk =   0.1666667

[...]

     The maximum number of steps has been reached.

     End of BFGS Geometry Optimization
Begin final coordinates
     new unit-cell volume =   1581.38141 a.u.^3 (   234.33654 Ang^3 )

CELL_PARAMETERS (alat=  8.80076499)
   1.127104448   0.000000000   0.000000000
   0.000000000   1.215820808   0.000000000
   0.000000000   0.000000000   1.692940212

ATOMIC_POSITIONS (crystal)
Fe       0.353422735   0.162538055   0.916958625
Fe       0.146577265   0.662538055   0.583041375
Fe       0.853422735   0.337461945   0.416958625
Fe       0.329332554   0.446609245   0.250000000
Fe       0.146577265   0.662538055   0.916958625
Fe       0.353422735   0.162538055   0.583041375
Fe       0.170667446   0.946609245   0.250000000
Fe       0.646577265   0.837461945   0.416958625
Fe       0.853422735   0.337461945   0.083041375
Fe       0.670667446   0.553390755   0.750000000
Fe       0.646577265   0.837461945   0.083041375
Fe       0.829332554   0.053390755   0.750000000
C        0.000000000   0.000000000   0.000000000
C        0.500000000   0.500000000   0.000000000
C        0.500000000   0.500000000   0.500000000
C        0.000000000   0.000000000   0.500000000
End final coordinates

     A final scf calculation at the relaxed structure.
     The G-vectors are recalculated for the final unit cell
     Results may differ from those at the preceding step.

     bravais-lattice index     =            0
     lattice parameter (alat)  =       8.8008  a.u.
     unit-cell volume          =    1581.3814 (a.u.)^3
     number of atoms/cell      =           16
     number of atomic types    =            2
     number of electrons       =       240.00
     number of Kohn-Sham states=          144
     kinetic-energy cutoff     =      40.0000  Ry
     charge density cutoff     =     160.0000  Ry
     convergence threshold     =      1.0E-04
     mixing beta               =       0.7000
     number of iterations used =            8  plain     mixing
     Exchange-correlation      = SLA-PZ-NOGX-NOGC ( 1 1 0 0 0)
     EXX-fraction              =        0.00

     celldm(1)=   8.800765  celldm(2)=   0.000000  celldm(3)=   0.000000
     celldm(4)=   0.000000  celldm(5)=   0.000000  celldm(6)=   0.000000

     crystal axes: (cart. coord. in units of alat)
               a(1) = (   1.127104   0.000000   0.000000 )
               a(2) = (   0.000000   1.215821   0.000000 )
               a(3) = (   0.000000   0.000000   1.692940 )

     reciprocal axes: (cart. coord. in units 2 pi/alat)
               b(1) = (  0.887229  0.000000  0.000000 )
               b(2) = (  0.000000  0.822490  0.000000 )
               b(3) = (  0.000000  0.000000  0.590688 )

     PseudoPot. # 1 for Ce read from file:
     /home/jld5415/pp.La/Ce.UPF
     MD5 check sum: 44451aa79a44a00cf2bc029dc19922f6
     Pseudo is Norm-conserving, Zval = 12.0
     Generated in analytical, separable form
     Using radial grid of 1255 points,  6 beta functions with:
                l(1) =   0
                l(2) =   0
                l(3) =   1
                l(4) =   1
                l(5) =   2
                l(6) =   3

     PseudoPot. # 2 for Yb read from file:
     /home/jld5415/pp.La/Yb.UPF
     MD5 check sum: 3e859b81cc28c53ec6aa3a2e888efcdf
     Pseudo is Norm-conserving, Zval = 24.0
     Generated in analytical, separable form
     Using radial grid of 1269 points,  6 beta functions with:
                l(1) =   0
                l(2) =   0
                l(3) =   1
                l(4) =   1
                l(5) =   2
                l(6) =   3

     atomic species   valence    mass     pseudopotential
        Fe            12.00    55.84500     Ce( 1.00)
        C             24.00    12.01070     Yb( 1.00)

      8 Sym. Ops., with inversion, found ( 6 have fractional translation)

   Cartesian axes

     site n.     atom                  positions (alat units)
         1           Fe  tau(   1) = (   0.3983443   0.1976171   1.5523561  )
         2           Fe  tau(   2) = (   0.1652079   0.8055276   0.9870542  )
         3           Fe  tau(   3) = (   0.9618966   0.4102933   0.7058860  )
         4           Fe  tau(   4) = (   0.3711922   0.5429968   0.4232351  )
         5           Fe  tau(   5) = (   0.1652079   0.8055276   1.5523561  )
         6           Fe  tau(   6) = (   0.3983443   0.1976171   0.9870542  )
         7           Fe  tau(   7) = (   0.1923600   1.1509072   0.4232351  )
         8           Fe  tau(   8) = (   0.7287601   1.0182037   0.7058860  )
         9           Fe  tau(   9) = (   0.9618966   0.4102933   0.1405841  )
        10           Fe  tau(  10) = (   0.7559123   0.6728240   1.2697052  )
        11           Fe  tau(  11) = (   0.7287601   1.0182037   0.1405841  )
        12           Fe  tau(  12) = (   0.9347444   0.0649136   1.2697052  )
        13           C   tau(  13) = (   0.0000000   0.0000000   0.0000000  )
        14           C   tau(  14) = (   0.5635522   0.6079104   0.0000000  )
        15           C   tau(  15) = (   0.5635522   0.6079104   0.8464701  )
        16           C   tau(  16) = (   0.0000000   0.0000000   0.8464701  )

     number of k points=    12  gaussian smearing, width (Ry)=  0.1000
                       cart. coord. in units 2pi/alat
        k(    1) = (   0.0000000   0.0000000   0.0000000), wk =   0.0833333
        k(    2) = (   0.0000000   0.0000000   0.1476721), wk =   0.1666667
        k(    3) = (   0.0000000   0.0000000  -0.2953442), wk =   0.0833333
        k(    4) = (   0.0000000   0.2741632   0.0000000), wk =   0.1666667
        k(    5) = (   0.0000000   0.2741632   0.1476721), wk =   0.3333333
        k(    6) = (   0.0000000   0.2741632  -0.2953442), wk =   0.1666667
        k(    7) = (  -0.4436146   0.0000000   0.0000000), wk =   0.0833333
        k(    8) = (  -0.4436146   0.0000000   0.1476721), wk =   0.1666667
        k(    9) = (  -0.4436146   0.0000000  -0.2953442), wk =   0.0833333
        k(   10) = (  -0.4436146   0.2741632   0.0000000), wk =   0.1666667
        k(   11) = (  -0.4436146   0.2741632   0.1476721), wk =   0.3333333
        k(   12) = (  -0.4436146   0.2741632  -0.2953442), wk =   0.1666667

     Largest allocated arrays     est. size (Mb)     dimensions
     Largest temporary arrays     est. size (Mb)     dimensions

     Initial potential from superposition of free atoms

     Starting from uniform charge
     Starting wfc are    0 randomized atomic wfcs

     Writing output data file Prototype-La-oP16-Fe3C.save

     Self-consistent Calculation

[...]

     iteration # 10     ecut=    40.00 Ry     beta=0.70
     CG style diagonalization
     c_bands:  1 eigenvalues not converged
     ethr =  2.50E-06,  avg # of iterations =  3.3

     total energy              =   -2548.43959810 Ry
     Harris-Foulkes estimate   =   -2548.44013685 Ry
     estimated scf accuracy    <       0.00083209 Ry

     iteration # 11     ecut=    40.00 Ry     beta=0.70
     CG style diagonalization
     ethr =  3.47E-07,  avg # of iterations =  4.3

     End of self-consistent calculation

[...]

          k = 0.0000 0.2742-0.2953 (  6738 PWs)   bands (ev):

[...]

          k =-0.4436 0.2742-0.2953 (  6768 PWs)   bands (ev):

   -92.0130 -92.0130 -92.0118 -92.0118 -51.1613 -51.1613 -51.1602 -51.1602
   -51.1230 -51.1230 -51.1223 -51.1223 -51.0746 -51.0746 -51.0741 -51.0741
    -5.9568  -5.9568  -5.9198  -5.9198  -5.4221  -5.4221  -5.2805  -5.2805
    -5.1778  -5.1778  -5.0847  -5.0847   2.8882   2.8882   2.8922   2.8922
     4.6746   4.6746   4.6821   4.6821   5.2156   5.2156   5.2619   5.2619
     5.4460   5.4460   5.4491   5.4491   5.6236   5.6236   5.6337   5.6337
     8.8520   8.8520   8.9842   8.9842  10.6473  10.6473  10.9289  10.9289
    11.6249  11.6249  11.8223  11.8223  12.2283  12.2283  12.7852  12.7852
    13.0858  13.0858  13.1706  13.1706  13.7999  13.7999  14.4228  14.4228
    15.4068  15.4068  15.4671  15.4671  15.6152  15.6152  15.7400  15.7400
    16.5732  16.5732  16.5877  16.5877  25.1262  25.1262  25.3706  25.3706
    28.0919  28.0919  28.1485  28.1485  28.7055  28.7055  28.9958  28.9958
    29.3044  29.3044  29.4756  29.4756  29.8335  29.8335  30.2009  30.2009
    30.4537  30.4537  30.7961  30.7961  31.4832  31.4832  31.4956  31.4956
    32.4503  32.4503  32.8778  32.8778  33.0949  33.0949  34.2279  34.2279
    34.4754  34.4754  34.5998  34.5998  35.0264  35.0264  35.3228  35.3228
    35.6688  35.6688  36.3971  36.3973  36.8418  36.8419  37.1168  37.1170
    37.6688  37.6688  37.8534  37.8536  38.6908  38.6909  38.7956  38.7959

     the Fermi energy is    33.8223 ev

!    total energy              =   -2548.43995633 Ry
     Harris-Foulkes estimate   =   -2548.44002721 Ry
     estimated scf accuracy    <       0.00007542 Ry

     The total energy is the sum of the following terms:

     one-electron contribution =    -586.76239899 Ry
     hartree contribution      =     512.86690916 Ry
     xc contribution           =    -266.41360538 Ry
     ewald contribution        =   -2207.44703619 Ry
     smearing contrib. (-TS)   =      -0.68382493 Ry

     convergence has been achieved in  11 iterations

     Forces acting on atoms (Ry/au):

     atom    1 type  1   force =     0.48691552   -0.52556559   -0.65336375
     atom    2 type  1   force =    -0.48691552   -0.52556559    0.65336375
     atom    3 type  1   force =     0.48691552    0.52556559   -0.65336375
     atom    4 type  1   force =    -0.83530541   -0.30812147    0.00000000
     atom    5 type  1   force =    -0.48691552   -0.52556559   -0.65336375
     atom    6 type  1   force =     0.48691552   -0.52556559    0.65336375
     atom    7 type  1   force =     0.83530541   -0.30812147    0.00000000
     atom    8 type  1   force =    -0.48691552    0.52556559   -0.65336375
     atom    9 type  1   force =     0.48691552    0.52556559    0.65336375
     atom   10 type  1   force =     0.83530541    0.30812147    0.00000000
     atom   11 type  1   force =    -0.48691552    0.52556559    0.65336375
     atom   12 type  1   force =    -0.83530541    0.30812147    0.00000000
     atom   13 type  2   force =     0.00000000    0.00000000    0.00000000
     atom   14 type  2   force =     0.00000000    0.00000000    0.00000000
     atom   15 type  2   force =     0.00000000    0.00000000    0.00000000
     atom   16 type  2   force =     0.00000000    0.00000000    0.00000000

     Total force =     3.269896     Total SCF correction =     0.000000

     entering subroutine stress ...

          total   stress  (Ry/bohr**3)                   (kbar)     P= 3772.79
   0.02632167   0.00000000   0.00000000       3872.05      0.00      0.00
   0.00000000   0.02522449   0.00000000          0.00   3710.65      0.00
   0.00000000   0.00000000   0.02539460          0.00      0.00   3735.67

     Writing output data file Prototype-La-oP16-Fe3C.save

     General routines

     Parallel routines

   This run was terminated on:   1:26:29  22Mar2018

   JOB DONE.