     Program PWSCF v.5.0.2 starts on 22Mar2018 at 22:47:18

     Current dimensions of program PWSCF are:
     Max number of different atomic species (ntypx) = 10
     Max number of k-points (npk) =  40000
     Max angular momentum in pseudopotentials (lmaxx) =  3
     Waiting for input...
     Reading input from standard input

     Subspace diagonalization in iterative solution of the eigenvalue problem:
     a serial algorithm will be used

     bravais-lattice index     =            0
     lattice parameter (alat)  =      12.0168  a.u.
     unit-cell volume          =    1187.3413 (a.u.)^3
     number of atoms/cell      =            8
     number of atomic types    =            2
     number of electrons       =       178.00
     number of Kohn-Sham states=          107
     kinetic-energy cutoff     =      40.0000  Ry
     charge density cutoff     =     160.0000  Ry
     convergence threshold     =      1.0E-04
     mixing beta               =       0.7000
     number of iterations used =            8  plain     mixing
     Exchange-correlation      = SLA-PZ-NOGX-NOGC ( 1 1 0 0 0)
     EXX-fraction              =        0.00
     nstep                     =           50

     celldm(1)=  12.016801  celldm(2)=   0.000000  celldm(3)=   0.000000
     celldm(4)=   0.000000  celldm(5)=   0.000000  celldm(6)=   0.000000

     crystal axes: (cart. coord. in units of alat)
               a(1) = (   1.000000   0.000000   0.000000 )
               a(2) = (  -0.500000   0.866025   0.000000 )
               a(3) = (   0.000000   0.000000   0.790093 )

     reciprocal axes: (cart. coord. in units 2 pi/alat)
               b(1) = (  1.000000  0.577350  0.000000 )
               b(2) = (  0.000000  1.154701  0.000000 )
               b(3) = (  0.000000  0.000000  1.265674 )

     PseudoPot. # 1 for Er read from file:
     /home/cwx6513/pp.La/Er.UPF
     MD5 check sum: e152ae21b84514339d8526f066caf99b
     Pseudo is Norm-conserving, Zval = 22.0
     Generated in analytical, separable form
     Using radial grid of 1267 points,  6 beta functions with:
                l(1) =   0
                l(2) =   0
                l(3) =   1
                l(4) =   1
                l(5) =   2
                l(6) =   3

     PseudoPot. # 2 for Tm read from file:
     /home/cwx6513/pp.La/Tm.UPF
     MD5 check sum: 245516e0878b5372ceeb9443ded2c4e1
     Pseudo is Norm-conserving, Zval = 23.0
     Generated in analytical, separable form
     Using radial grid of 1269 points,  6 beta functions with:
                l(1) =   0
                l(2) =   0
                l(3) =   1
                l(4) =   1
                l(5) =   2
                l(6) =   3

     atomic species   valence    mass     pseudopotential
        Mg            22.00    24.30500     Er( 1.00)
        Cd            23.00   112.41100     Tm( 1.00)

     24 Sym. Ops., with inversion, found (12 have fractional translation)

   Cartesian axes

     site n.     atom                  positions (alat units)
         1           Mg  tau(   1) = (   0.2478935   0.7204716   0.1975233  )
         2           Mg  tau(   2) = (   0.7478935   0.1455538   0.5925699  )
         3           Mg  tau(   3) = (   0.2521065   0.1455538   0.5925699  )
         4           Mg  tau(   4) = (  -0.2478935   0.7204716   0.1975233  )
         5           Mg  tau(   5) = (   0.0000000   0.2911075   0.1975233  )
         6           Mg  tau(   6) = (   0.5000000   0.5749179   0.5925699  )
         7           Cd  tau(   7) = (   0.5000005   0.2886748   0.1975233  )
         8           Cd  tau(   8) = (  -0.0000005   0.5773506   0.5925699  )

     number of k points=    64  gaussian smearing, width (Ry)=  0.1000
                       cart. coord. in units 2pi/alat
        k(    1) = (   0.0000000   0.0000000   0.0000000), wk =   0.0095238
        k(    2) = (   0.0000000   0.0000000   0.1808105), wk =   0.0190476
        k(    3) = (   0.0000000   0.0000000   0.3616210), wk =   0.0190476
        k(    4) = (   0.0000000   0.0000000   0.5424315), wk =   0.0190476
        k(    5) = (   0.0000000   0.1924501   0.0000000), wk =   0.0190476
        k(    6) = (   0.0000000   0.1924501   0.1808105), wk =   0.0380952
        k(    7) = (   0.0000000   0.1924501   0.3616210), wk =   0.0380952
        k(    8) = (   0.0000000   0.1924501   0.5424315), wk =   0.0380952
        k(    9) = (   0.0000000   0.3849002   0.0000000), wk =   0.0190476
        k(   10) = (   0.0000000   0.3849002   0.1808105), wk =   0.0380952
        k(   11) = (   0.0000000   0.3849002   0.3616210), wk =   0.0380952
        k(   12) = (   0.0000000   0.3849002   0.5424315), wk =   0.0380952
        k(   13) = (   0.0000000  -0.5773503   0.0000000), wk =   0.0095238
        k(   14) = (   0.0000000  -0.5773503   0.1808105), wk =   0.0190476
        k(   15) = (   0.0000000  -0.5773503   0.3616210), wk =   0.0190476
        k(   16) = (   0.0000000  -0.5773503   0.5424315), wk =   0.0190476
        k(   17) = (   0.2000000   0.1154701   0.0000000), wk =   0.0190476
        k(   18) = (   0.2000000   0.1154701   0.1808105), wk =   0.0380952
        k(   19) = (   0.2000000   0.1154701   0.3616210), wk =   0.0380952
        k(   20) = (   0.2000000   0.1154701   0.5424315), wk =   0.0380952
        k(   21) = (   0.2000000   0.3079201   0.0000000), wk =   0.0190476
        k(   22) = (   0.2000000   0.3079201   0.1808105), wk =   0.0380952
        k(   23) = (   0.2000000   0.3079201   0.3616210), wk =   0.0380952
        k(   24) = (   0.2000000   0.3079201   0.5424315), wk =   0.0380952
        k(   25) = (   0.2000000   0.5003702   0.0000000), wk =   0.0190476
        k(   26) = (   0.2000000   0.5003702   0.1808105), wk =   0.0380952
        k(   27) = (   0.2000000   0.5003702   0.3616210), wk =   0.0380952
        k(   28) = (   0.2000000   0.5003702   0.5424315), wk =   0.0380952
        k(   29) = (   0.2000000  -0.4618802   0.0000000), wk =   0.0190476
        k(   30) = (   0.2000000  -0.4618802   0.1808105), wk =   0.0380952
        k(   31) = (   0.2000000  -0.4618802   0.3616210), wk =   0.0380952
        k(   32) = (   0.2000000  -0.4618802   0.5424315), wk =   0.0380952
        k(   33) = (   0.2000000  -0.2694301   0.0000000), wk =   0.0190476
        k(   34) = (   0.2000000  -0.2694301   0.1808105), wk =   0.0380952
        k(   35) = (   0.2000000  -0.2694301   0.3616210), wk =   0.0380952
        k(   36) = (   0.2000000  -0.2694301   0.5424315), wk =   0.0380952
        k(   37) = (   0.2000000  -0.0769800   0.0000000), wk =   0.0190476
        k(   38) = (   0.2000000  -0.0769800   0.1808105), wk =   0.0380952
        k(   39) = (   0.2000000  -0.0769800   0.3616210), wk =   0.0380952
        k(   40) = (   0.2000000  -0.0769800   0.5424315), wk =   0.0380952
        k(   41) = (   0.4000000   0.2309401   0.0000000), wk =   0.0190476
        k(   42) = (   0.4000000   0.2309401   0.1808105), wk =   0.0380952
        k(   43) = (   0.4000000   0.2309401   0.3616210), wk =   0.0380952
        k(   44) = (   0.4000000   0.2309401   0.5424315), wk =   0.0380952
        k(   45) = (   0.4000000   0.4233902   0.0000000), wk =   0.0190476
        k(   46) = (   0.4000000   0.4233902   0.1808105), wk =   0.0380952
        k(   47) = (   0.4000000   0.4233902   0.3616210), wk =   0.0380952
        k(   48) = (   0.4000000   0.4233902   0.5424315), wk =   0.0380952
        k(   49) = (   0.4000000   0.6158403   0.0000000), wk =   0.0190476
        k(   50) = (   0.4000000   0.6158403   0.1808105), wk =   0.0380952
        k(   51) = (   0.4000000   0.6158403   0.3616210), wk =   0.0380952
        k(   52) = (   0.4000000   0.6158403   0.5424315), wk =   0.0380952
        k(   53) = (   0.4000000  -0.3464102   0.0000000), wk =   0.0190476
        k(   54) = (   0.4000000  -0.3464102   0.1808105), wk =   0.0380952
        k(   55) = (   0.4000000  -0.3464102   0.3616210), wk =   0.0380952
        k(   56) = (   0.4000000  -0.3464102   0.5424315), wk =   0.0380952
        k(   57) = (   0.4000000  -0.1539601   0.0000000), wk =   0.0190476
        k(   58) = (   0.4000000  -0.1539601   0.1808105), wk =   0.0380952
        k(   59) = (   0.4000000  -0.1539601   0.3616210), wk =   0.0380952
        k(   60) = (   0.4000000  -0.1539601   0.5424315), wk =   0.0380952
        k(   61) = (   0.4000000   0.0384900   0.0000000), wk =   0.0190476
        k(   62) = (   0.4000000   0.0384900   0.1808105), wk =   0.0380952
        k(   63) = (   0.4000000   0.0384900   0.3616210), wk =   0.0380952
        k(   64) = (   0.4000000   0.0384900   0.5424315), wk =   0.0380952

     Largest allocated arrays     est. size (Mb)     dimensions
     Largest temporary arrays     est. size (Mb)     dimensions

     Initial potential from superposition of free atoms

     Starting from uniform charge
     Starting wfc are    0 randomized atomic wfcs

     Self-consistent Calculation

     iteration #  1     ecut=    40.00 Ry     beta=0.70
     CG style diagonalization
     ethr =  1.00E-02,  avg # of iterations = 18.2

     total energy              =   -2249.68326394 Ry
     Harris-Foulkes estimate   =   -3481.11510869 Ry
     estimated scf accuracy    <    1526.86054968 Ry

     iteration #  2     ecut=    40.00 Ry     beta=0.70
     CG style diagonalization
     c_bands:  1 eigenvalues not converged
     c_bands:  2 eigenvalues not converged
     c_bands:  1 eigenvalues not converged
     c_bands:  1 eigenvalues not converged
     c_bands:  1 eigenvalues not converged
     c_bands:  2 eigenvalues not converged
     c_bands:  1 eigenvalues not converged
     c_bands:  2 eigenvalues not converged
     c_bands:  1 eigenvalues not converged
     c_bands:  1 eigenvalues not converged
     c_bands:  2 eigenvalues not converged
     c_bands:  2 eigenvalues not converged
     c_bands:  2 eigenvalues not converged
     c_bands:  1 eigenvalues not converged
     c_bands:  2 eigenvalues not converged
     c_bands:  1 eigenvalues not converged
     c_bands:  1 eigenvalues not converged
     c_bands:  1 eigenvalues not converged
     ethr =  1.00E-02,  avg # of iterations =  9.6

[...]

     End of self-consistent calculation

          k = 0.0000 0.0000 0.0000 (  5047 PWs)   bands (ev):

   -85.0739 -85.0663 -74.8894 -74.8893 -74.8880 -74.8589 -74.8588 -74.8433
   -43.7672 -43.7613 -43.7304 -43.7304 -43.7214 -43.7214 -36.9399 -36.8873
   -36.8849 -36.8848 -36.8775 -36.8555 -36.8555 -36.8505 -36.8504 -36.8311
   -36.8143 -36.8142 -36.7799 -36.7775 -36.7774 -36.7709 -36.7709 -36.7639
     5.1691   5.1697   5.1880   5.1881   5.2033   5.2033   5.2471   5.2472
     5.2617   5.2617   9.0722   9.0745   9.1255   9.2052   9.2052   9.3764
     9.4900   9.5152   9.5152   9.5366   9.5367   9.7723   9.7724  10.0185
    10.0688  10.0798  10.0799  10.2623  10.2624  10.3551  10.3552  10.4892
    10.4893  10.5896  10.5896  10.7381  10.7382  10.8084  10.9396  10.9512
    11.2622  16.9274  18.2046  18.3081  18.3082  18.3086  18.3087  19.1836
    19.7064  23.8147  24.0417  24.0418  24.1305  24.3777  25.0277  25.0278
    25.1010  25.1012  27.1680  27.1680  27.5482  28.0614  28.0615  28.2237
[...]
        k(   16) = (   0.0000000  -0.5940695   0.5530697), wk =   0.0190476
        k(   17) = (   0.2057917   0.1188139   0.0000000), wk =   0.0190476
        k(   18) = (   0.2057917   0.1188139   0.1843566), wk =   0.0380952
        k(   19) = (   0.2057917   0.1188139   0.3687131), wk =   0.0380952
        k(   20) = (   0.2057917   0.1188139   0.5530697), wk =   0.0380952
        k(   21) = (   0.2057917   0.3168371   0.0000000), wk =   0.0190476
        k(   22) = (   0.2057917   0.3168371   0.1843566), wk =   0.0380952
        k(   23) = (   0.2057917   0.3168371   0.3687131), wk =   0.0380952
        k(   24) = (   0.2057917   0.3168371   0.5530697), wk =   0.0380952
        k(   25) = (   0.2057917   0.5148602   0.0000000), wk =   0.0190476
        k(   26) = (   0.2057917   0.5148602   0.1843566), wk =   0.0380952
        k(   27) = (   0.2057917   0.5148602   0.3687131), wk =   0.0380952
        k(   28) = (   0.2057917   0.5148602   0.5530697), wk =   0.0380952
        k(   29) = (   0.2057917  -0.4752556   0.0000000), wk =   0.0190476
        k(   30) = (   0.2057917  -0.4752556   0.1843566), wk =   0.0380952
        k(   31) = (   0.2057917  -0.4752556   0.3687131), wk =   0.0380952
        k(   32) = (   0.2057917  -0.4752556   0.5530697), wk =   0.0380952
        k(   33) = (   0.2057917  -0.2772324   0.0000000), wk =   0.0190476
        k(   34) = (   0.2057917  -0.2772324   0.1843566), wk =   0.0380952
        k(   35) = (   0.2057917  -0.2772324   0.3687131), wk =   0.0380952
        k(   36) = (   0.2057917  -0.2772324   0.5530697), wk =   0.0380952
        k(   37) = (   0.2057917  -0.0792093   0.0000000), wk =   0.0190476
        k(   38) = (   0.2057917  -0.0792093   0.1843566), wk =   0.0380952
        k(   39) = (   0.2057917  -0.0792093   0.3687131), wk =   0.0380952
        k(   40) = (   0.2057917  -0.0792093   0.5530697), wk =   0.0380952
        k(   41) = (   0.4115834   0.2376278   0.0000000), wk =   0.0190476
        k(   42) = (   0.4115834   0.2376278   0.1843566), wk =   0.0380952
        k(   43) = (   0.4115834   0.2376278   0.3687131), wk =   0.0380952
        k(   44) = (   0.4115834   0.2376278   0.5530697), wk =   0.0380952
        k(   45) = (   0.4115834   0.4356510   0.0000000), wk =   0.0190476
        k(   46) = (   0.4115834   0.4356510   0.1843566), wk =   0.0380952
        k(   47) = (   0.4115834   0.4356510   0.3687131), wk =   0.0380952
        k(   48) = (   0.4115834   0.4356510   0.5530697), wk =   0.0380952
        k(   49) = (   0.4115834   0.6336741   0.0000000), wk =   0.0190476
        k(   50) = (   0.4115834   0.6336741   0.1843566), wk =   0.0380952
        k(   51) = (   0.4115834   0.6336741   0.3687131), wk =   0.0380952
        k(   52) = (   0.4115834   0.6336741   0.5530697), wk =   0.0380952
        k(   53) = (   0.4115834  -0.3564417   0.0000000), wk =   0.0190476
        k(   54) = (   0.4115834  -0.3564417   0.1843566), wk =   0.0380952
        k(   55) = (   0.4115834  -0.3564417   0.3687131), wk =   0.0380952
        k(   56) = (   0.4115834  -0.3564417   0.5530697), wk =   0.0380952
        k(   57) = (   0.4115834  -0.1584185   0.0000000), wk =   0.0190476
        k(   58) = (   0.4115834  -0.1584185   0.1843566), wk =   0.0380952
        k(   59) = (   0.4115834  -0.1584185   0.3687131), wk =   0.0380952
        k(   60) = (   0.4115834  -0.1584185   0.5530697), wk =   0.0380952
        k(   61) = (   0.4115834   0.0396046   0.0000000), wk =   0.0190476
        k(   62) = (   0.4115834   0.0396046   0.1843566), wk =   0.0380952
        k(   63) = (   0.4115834   0.0396046   0.3687131), wk =   0.0380952
        k(   64) = (   0.4115834   0.0396046   0.5530697), wk =   0.0380952

[...]

     Threshold (ethr) on eigenvalues was too large:
     Diagonalizing with lowered threshold

     CG style diagonalization
     ethr =  4.08E-09,  avg # of iterations =  3.3

[...]

     The maximum number of steps has been reached.

     End of BFGS Geometry Optimization
Begin final coordinates
     new unit-cell volume =   1099.87893 a.u.^3 (   162.98524 Ang^3 )

CELL_PARAMETERS (alat= 12.01680127)
   0.971856449   0.000000000   0.000000000
  -0.485928225   0.841652374   0.000000000
   0.000000000   0.000000000   0.774895916

ATOMIC_POSITIONS (crystal)
Mg       0.662960545   0.831480273   0.250000000
Mg       0.831480273   0.168519727   0.750000000
Mg       0.337039455   0.168519727   0.750000000
Mg       0.168519727   0.831480273   0.250000000
Mg       0.168519727   0.337039455   0.250000000
Mg       0.831480273   0.662960545   0.750000000
Cd       0.666667000   0.333333000   0.250000000
Cd       0.333333000   0.666667000   0.750000000
End final coordinates

     A final scf calculation at the relaxed structure.
     The G-vectors are recalculated for the final unit cell
     Results may differ from those at the preceding step.

     bravais-lattice index     =            0
     lattice parameter (alat)  =      12.0168  a.u.
     unit-cell volume          =    1099.8789 (a.u.)^3
     number of atoms/cell      =            8
     number of atomic types    =            2
     number of electrons       =       178.00
     number of Kohn-Sham states=          107
     kinetic-energy cutoff     =      40.0000  Ry
     charge density cutoff     =     160.0000  Ry
     convergence threshold     =      1.0E-04
     mixing beta               =       0.7000
     number of iterations used =            8  plain     mixing
     Exchange-correlation      = SLA-PZ-NOGX-NOGC ( 1 1 0 0 0)
     EXX-fraction              =        0.00

     celldm(1)=  12.016801  celldm(2)=   0.000000  celldm(3)=   0.000000
     celldm(4)=   0.000000  celldm(5)=   0.000000  celldm(6)=   0.000000

     crystal axes: (cart. coord. in units of alat)
               a(1) = (   0.971856   0.000000   0.000000 )
               a(2) = (  -0.485928   0.841652   0.000000 )
               a(3) = (   0.000000   0.000000   0.774896 )

     reciprocal axes: (cart. coord. in units 2 pi/alat)
               b(1) = (  1.028959  0.594069  0.000000 )
               b(2) = (  0.000000  1.188139  0.000000 )
               b(3) = (  0.000000  0.000000  1.290496 )

     PseudoPot. # 1 for Er read from file:
     /home/cwx6513/pp.La/Er.UPF
     MD5 check sum: e152ae21b84514339d8526f066caf99b
     Pseudo is Norm-conserving, Zval = 22.0
     Generated in analytical, separable form
     Using radial grid of 1267 points,  6 beta functions with:
                l(1) =   0
                l(2) =   0
                l(3) =   1
                l(4) =   1
                l(5) =   2
                l(6) =   3

     PseudoPot. # 2 for Tm read from file:
     /home/cwx6513/pp.La/Tm.UPF
     MD5 check sum: 245516e0878b5372ceeb9443ded2c4e1
     Pseudo is Norm-conserving, Zval = 23.0
     Generated in analytical, separable form
     Using radial grid of 1269 points,  6 beta functions with:
                l(1) =   0
                l(2) =   0
                l(3) =   1
                l(4) =   1
                l(5) =   2
                l(6) =   3

     atomic species   valence    mass     pseudopotential
        Mg            22.00    24.30500     Er( 1.00)
        Cd            23.00   112.41100     Tm( 1.00)

     24 Sym. Ops., with inversion, found (12 have fractional translation)

   Cartesian axes

     site n.     atom                  positions (alat units)
         1           Mg  tau(   1) = (   0.2402627   0.6998173   0.1937240  )
         2           Mg  tau(   2) = (   0.7261910   0.1418350   0.5811719  )
         3           Mg  tau(   3) = (   0.2456655   0.1418350   0.5811719  )
         4           Mg  tau(   4) = (  -0.2402627   0.6998173   0.1937240  )
         5           Mg  tau(   5) = (   0.0000000   0.2836701   0.1937240  )
         6           Mg  tau(   6) = (   0.4859282   0.5579823   0.5811719  )
         7           Cd  tau(   7) = (   0.4859287   0.2805505   0.1937240  )
         8           Cd  tau(   8) = (  -0.0000005   0.5611019   0.5811719  )

     number of k points=    64  gaussian smearing, width (Ry)=  0.1000
                       cart. coord. in units 2pi/alat
        k(    1) = (   0.0000000   0.0000000   0.0000000), wk =   0.0095238
        k(    2) = (   0.0000000   0.0000000   0.1843566), wk =   0.0190476
        k(    3) = (   0.0000000   0.0000000   0.3687131), wk =   0.0190476
        k(    4) = (   0.0000000   0.0000000   0.5530697), wk =   0.0190476
        k(    5) = (   0.0000000   0.1980232   0.0000000), wk =   0.0190476
        k(    6) = (   0.0000000   0.1980232   0.1843566), wk =   0.0380952
        k(    7) = (   0.0000000   0.1980232   0.3687131), wk =   0.0380952
        k(    8) = (   0.0000000   0.1980232   0.5530697), wk =   0.0380952
        k(    9) = (   0.0000000   0.3960463   0.0000000), wk =   0.0190476
        k(   10) = (   0.0000000   0.3960463   0.1843566), wk =   0.0380952
        k(   11) = (   0.0000000   0.3960463   0.3687131), wk =   0.0380952
        k(   12) = (   0.0000000   0.3960463   0.5530697), wk =   0.0380952
        k(   13) = (   0.0000000  -0.5940695   0.0000000), wk =   0.0095238
        k(   14) = (   0.0000000  -0.5940695   0.1843566), wk =   0.0190476
        k(   15) = (   0.0000000  -0.5940695   0.3687131), wk =   0.0190476
        k(   16) = (   0.0000000  -0.5940695   0.5530697), wk =   0.0190476
        k(   17) = (   0.2057917   0.1188139   0.0000000), wk =   0.0190476
        k(   18) = (   0.2057917   0.1188139   0.1843566), wk =   0.0380952
        k(   19) = (   0.2057917   0.1188139   0.3687131), wk =   0.0380952
        k(   20) = (   0.2057917   0.1188139   0.5530697), wk =   0.0380952
        k(   21) = (   0.2057917   0.3168371   0.0000000), wk =   0.0190476
        k(   22) = (   0.2057917   0.3168371   0.1843566), wk =   0.0380952
        k(   23) = (   0.2057917   0.3168371   0.3687131), wk =   0.0380952
        k(   24) = (   0.2057917   0.3168371   0.5530697), wk =   0.0380952
        k(   25) = (   0.2057917   0.5148602   0.0000000), wk =   0.0190476
        k(   26) = (   0.2057917   0.5148602   0.1843566), wk =   0.0380952
        k(   27) = (   0.2057917   0.5148602   0.3687131), wk =   0.0380952
        k(   28) = (   0.2057917   0.5148602   0.5530697), wk =   0.0380952
        k(   29) = (   0.2057917  -0.4752556   0.0000000), wk =   0.0190476
        k(   30) = (   0.2057917  -0.4752556   0.1843566), wk =   0.0380952
        k(   31) = (   0.2057917  -0.4752556   0.3687131), wk =   0.0380952
        k(   32) = (   0.2057917  -0.4752556   0.5530697), wk =   0.0380952
        k(   33) = (   0.2057917  -0.2772324   0.0000000), wk =   0.0190476
        k(   34) = (   0.2057917  -0.2772324   0.1843566), wk =   0.0380952
        k(   35) = (   0.2057917  -0.2772324   0.3687131), wk =   0.0380952
        k(   36) = (   0.2057917  -0.2772324   0.5530697), wk =   0.0380952
        k(   37) = (   0.2057917  -0.0792093   0.0000000), wk =   0.0190476
        k(   38) = (   0.2057917  -0.0792093   0.1843566), wk =   0.0380952
        k(   39) = (   0.2057917  -0.0792093   0.3687131), wk =   0.0380952
        k(   40) = (   0.2057917  -0.0792093   0.5530697), wk =   0.0380952
        k(   41) = (   0.4115834   0.2376278   0.0000000), wk =   0.0190476
        k(   42) = (   0.4115834   0.2376278   0.1843566), wk =   0.0380952
        k(   43) = (   0.4115834   0.2376278   0.3687131), wk =   0.0380952
        k(   44) = (   0.4115834   0.2376278   0.5530697), wk =   0.0380952
        k(   45) = (   0.4115834   0.4356510   0.0000000), wk =   0.0190476
        k(   46) = (   0.4115834   0.4356510   0.1843566), wk =   0.0380952
        k(   47) = (   0.4115834   0.4356510   0.3687131), wk =   0.0380952
        k(   48) = (   0.4115834   0.4356510   0.5530697), wk =   0.0380952
        k(   49) = (   0.4115834   0.6336741   0.0000000), wk =   0.0190476
        k(   50) = (   0.4115834   0.6336741   0.1843566), wk =   0.0380952
        k(   51) = (   0.4115834   0.6336741   0.3687131), wk =   0.0380952
        k(   52) = (   0.4115834   0.6336741   0.5530697), wk =   0.0380952
        k(   53) = (   0.4115834  -0.3564417   0.0000000), wk =   0.0190476
        k(   54) = (   0.4115834  -0.3564417   0.1843566), wk =   0.0380952
        k(   55) = (   0.4115834  -0.3564417   0.3687131), wk =   0.0380952
        k(   56) = (   0.4115834  -0.3564417   0.5530697), wk =   0.0380952
        k(   57) = (   0.4115834  -0.1584185   0.0000000), wk =   0.0190476
        k(   58) = (   0.4115834  -0.1584185   0.1843566), wk =   0.0380952
        k(   59) = (   0.4115834  -0.1584185   0.3687131), wk =   0.0380952
        k(   60) = (   0.4115834  -0.1584185   0.5530697), wk =   0.0380952
        k(   61) = (   0.4115834   0.0396046   0.0000000), wk =   0.0190476
        k(   62) = (   0.4115834   0.0396046   0.1843566), wk =   0.0380952
        k(   63) = (   0.4115834   0.0396046   0.3687131), wk =   0.0380952
        k(   64) = (   0.4115834   0.0396046   0.5530697), wk =   0.0380952

     Largest allocated arrays     est. size (Mb)     dimensions
     Largest temporary arrays     est. size (Mb)     dimensions

     Initial potential from superposition of free atoms

     Starting from uniform charge
     Starting wfc are    0 randomized atomic wfcs

     Writing output data file Prototype-La-hP8-Mg3Cd.save

     Self-consistent Calculation

[...]

     iteration #  9     ecut=    40.00 Ry     beta=0.70
     CG style diagonalization
     ethr =  5.50E-06,  avg # of iterations =  3.6

     total energy              =   -2709.35622842 Ry
     Harris-Foulkes estimate   =   -2709.35629585 Ry
     estimated scf accuracy    <       0.00013315 Ry

     iteration # 10     ecut=    40.00 Ry     beta=0.70
     CG style diagonalization
     c_bands:  1 eigenvalues not converged
     ethr =  7.48E-08,  avg # of iterations =  4.3

     End of self-consistent calculation

[...]

          k = 0.4116 0.0396 0.5531 (  4682 PWs)   bands (ev):

   -82.8047 -82.7949 -72.6387 -72.6349 -72.6279 -72.6236 -72.6219 -72.6160
   -41.4988 -41.4952 -41.4815 -41.4757 -41.4745 -41.4712 -34.6760 -34.6672
   -34.6628 -34.6588 -34.6497 -34.6457 -34.6239 -34.6144 -34.6007 -34.5948
   -34.5918 -34.5838 -34.5661 -34.5644 -34.5619 -34.5589 -34.5552 -34.5443
     7.3304   7.3311   7.3500   7.3639   7.3719   7.3817   7.4107   7.4203
     7.4408   7.4519  11.1180  11.2107  11.2486  11.2831  11.4519  11.4853
    11.5147  11.5482  11.6065  11.6666  11.8486  11.8855  11.9739  12.0684
    12.1197  12.1551  12.2004  12.3733  12.3862  12.4411  12.4557  12.5259
    12.5790  12.5995  12.6408  12.6707  12.9084  12.9492  13.0651  13.1698
    15.2796  16.4990  17.9333  18.5419  19.1324  19.7774  21.8353  22.7606
    23.1937  24.1974  26.0674  26.6127  27.1515  27.6706  27.7636  28.7475
    29.8284  30.3423  31.0908  31.3476  31.8188  32.0558  32.3095  32.3361
    32.6720  33.1471  33.3133  33.3770  33.5717  33.6682  33.7735  33.9147
    35.9068  36.1976  36.3987

     the Fermi energy is    29.2964 ev

!    total energy              =   -2709.35629753 Ry
     Harris-Foulkes estimate   =   -2709.35630865 Ry
     estimated scf accuracy    <       0.00001390 Ry

     The total energy is the sum of the following terms:

     one-electron contribution =    -735.04435816 Ry
     hartree contribution      =     469.93309428 Ry
     xc contribution           =    -228.04421793 Ry
     ewald contribution        =   -2215.95893525 Ry
     smearing contrib. (-TS)   =      -0.24188048 Ry

     convergence has been achieved in  10 iterations

     Forces acting on atoms (Ry/au):

     atom    1 type  1   force =     0.02777216    0.01603426    0.00000000
     atom    2 type  1   force =     0.02777216   -0.01603426    0.00000000
     atom    3 type  1   force =    -0.02777216   -0.01603426    0.00000000
     atom    4 type  1   force =    -0.02777216    0.01603426    0.00000000
     atom    5 type  1   force =     0.00000000   -0.03206853    0.00000000
     atom    6 type  1   force =     0.00000000    0.03206853    0.00000000
     atom    7 type  2   force =     0.00000000    0.00000000    0.00000000
     atom    8 type  2   force =     0.00000000    0.00000000    0.00000000

     Total force =     0.078552     Total SCF correction =     0.000000

     entering subroutine stress ...

          total   stress  (Ry/bohr**3)                   (kbar)     P=   93.65
   0.00054450   0.00000000   0.00000000         80.10      0.00      0.00
   0.00000000   0.00054450   0.00000000          0.00     80.10      0.00
   0.00000000   0.00000000   0.00082086          0.00      0.00    120.75

     Writing output data file Prototype-La-hP8-Mg3Cd.save

     General routines

     Parallel routines

   This run was terminated on:  23:43:55  22Mar2018

   JOB DONE.