     Program PWSCF v.5.0.2 starts on 22Mar2018 at 22:47:18

     Current dimensions of program PWSCF are:
     Max number of different atomic species (ntypx) = 10
     Max number of k-points (npk) =  40000
     Max angular momentum in pseudopotentials (lmaxx) =  3
     Waiting for input...
     Reading input from standard input

     Subspace diagonalization in iterative solution of the eigenvalue problem:
     a serial algorithm will be used

     bravais-lattice index     =            0
     lattice parameter (alat)  =       7.0151  a.u.
     unit-cell volume          =     862.2778 (a.u.)^3
     number of atoms/cell      =           12
     number of atomic types    =            2
     number of electrons       =       268.00
     number of Kohn-Sham states=          161
     kinetic-energy cutoff     =      40.0000  Ry
     charge density cutoff     =     160.0000  Ry
     convergence threshold     =      1.0E-04
     mixing beta               =       0.7000
     number of iterations used =            8  plain     mixing
     Exchange-correlation      = SLA-PZ-NOGX-NOGC ( 1 1 0 0 0)
     EXX-fraction              =        0.00
     nstep                     =           50

     celldm(1)=   7.015105  celldm(2)=   0.000000  celldm(3)=   0.000000
     celldm(4)=   0.000000  celldm(5)=   0.000000  celldm(6)=   0.000000

     crystal axes: (cart. coord. in units of alat)
               a(1) = (   1.000000   0.000000   0.000000 )
               a(2) = (   0.000000   1.315963   0.000000 )
               a(3) = (   0.000000   0.000000   1.898020 )

     reciprocal axes: (cart. coord. in units 2 pi/alat)
               b(1) = (  1.000000  0.000000  0.000000 )
               b(2) = (  0.000000  0.759900  0.000000 )
               b(3) = (  0.000000  0.000000  0.526865 )

     PseudoPot. # 1 for Er read from file:
     /home/cwx6513/pp.La/Er.UPF
     MD5 check sum: e152ae21b84514339d8526f066caf99b
     Pseudo is Norm-conserving, Zval = 22.0
     Generated in analytical, separable form
     Using radial grid of 1267 points,  6 beta functions with:
                l(1) =   0
                l(2) =   0
                l(3) =   1
                l(4) =   1
                l(5) =   2
                l(6) =   3

     PseudoPot. # 2 for Tm read from file:
     /home/cwx6513/pp.La/Tm.UPF
     MD5 check sum: 245516e0878b5372ceeb9443ded2c4e1
     Pseudo is Norm-conserving, Zval = 23.0
     Generated in analytical, separable form
     Using radial grid of 1269 points,  6 beta functions with:
                l(1) =   0
                l(2) =   0
                l(3) =   1
                l(4) =   1
                l(5) =   2
                l(6) =   3

     atomic species   valence    mass     pseudopotential
        Co            22.00    58.93320     Er( 1.00)
        Si            23.00    28.08550     Tm( 1.00)

      8 Sym. Ops., with inversion, found ( 6 have fractional translation)

   Cartesian axes

     site n.     atom                  positions (alat units)
         1           Co  tau(   1) = (   0.7500000   1.0875135   0.8270358  )
         2           Co  tau(   2) = (   0.2500000   0.2284499   1.0709846  )
         3           Co  tau(   3) = (   0.7500000   0.4295318   0.1219744  )
         4           Co  tau(   4) = (   0.2500000   0.8864316   1.7760460  )
         5           Co  tau(   5) = (   0.2500000   0.7067855   0.5358966  )
         6           Co  tau(   6) = (   0.7500000   0.6091779   1.3621238  )
         7           Co  tau(   7) = (   0.2500000   0.0488038   0.4131136  )
         8           Co  tau(   8) = (   0.7500000   1.2671596   1.4849068  )
         9           Si  tau(   9) = (   0.2500000   0.2669484   1.6960710  )
        10           Si  tau(  10) = (   0.7500000   1.0490149   0.2019494  )
        11           Si  tau(  11) = (   0.2500000   0.9249301   1.1509596  )
        12           Si  tau(  12) = (   0.7500000   0.3910333   0.7470608  )

     number of k points=    12  gaussian smearing, width (Ry)=  0.1000
                       cart. coord. in units 2pi/alat
        k(    1) = (   0.0000000   0.0000000   0.0000000), wk =   0.0833333
        k(    2) = (   0.0000000   0.0000000   0.1317162), wk =   0.1666667
        k(    3) = (   0.0000000   0.0000000  -0.2634324), wk =   0.0833333
        k(    4) = (   0.0000000   0.2532999   0.0000000), wk =   0.1666667
        k(    5) = (   0.0000000   0.2532999   0.1317162), wk =   0.3333333
        k(    6) = (   0.0000000   0.2532999  -0.2634324), wk =   0.1666667
        k(    7) = (  -0.5000000   0.0000000   0.0000000), wk =   0.0833333
        k(    8) = (  -0.5000000   0.0000000   0.1317162), wk =   0.1666667
        k(    9) = (  -0.5000000   0.0000000  -0.2634324), wk =   0.0833333
        k(   10) = (  -0.5000000   0.2532999   0.0000000), wk =   0.1666667
        k(   11) = (  -0.5000000   0.2532999   0.1317162), wk =   0.3333333
        k(   12) = (  -0.5000000   0.2532999  -0.2634324), wk =   0.1666667

     Largest allocated arrays     est. size (Mb)     dimensions
     Largest temporary arrays     est. size (Mb)     dimensions

     Initial potential from superposition of free atoms

     Starting from uniform charge
     Starting wfc are    0 randomized atomic wfcs

     Self-consistent Calculation

     iteration #  1     ecut=    40.00 Ry     beta=0.70
     CG style diagonalization
     ethr =  1.00E-02,  avg # of iterations = 16.5

     total energy              =   -3589.49588602 Ry
     Harris-Foulkes estimate   =   -4688.63742900 Ry
     estimated scf accuracy    <    1388.65077248 Ry

[...]

     iteration #  7     ecut=    40.00 Ry     beta=0.70
     CG style diagonalization
     c_bands:  1 eigenvalues not converged
     c_bands:  1 eigenvalues not converged
     ethr =  6.02E-05,  avg # of iterations =  3.8

[...]

     End of self-consistent calculation

          k = 0.0000 0.0000 0.0000 (  3675 PWs)   bands (ev):

   -56.8491 -56.8348 -56.8297 -56.8097 -47.1678 -47.1358 -47.1327 -47.1281
   -46.8637 -46.8140 -46.7245 -46.7209 -16.2475 -16.1847 -16.1637 -16.1558
   -16.1447 -16.1201 -16.0876 -16.0773 -15.8145 -15.8043 -15.7387 -15.6988
   -10.0385  -9.8786  -9.7637  -9.7305  -9.7297  -9.6987  -9.6743  -9.6407
    -9.5760  -9.4885  -9.4046  -9.3736  -9.3197  -9.2377  -9.1443  -9.1224
    -9.0974  -9.0438  -9.0032  -8.9329  -8.9161  -8.8098  -8.6600  -8.6139
    28.8527  28.9746  29.1391  29.2112  29.4586  29.4806  29.6122  29.6231
    29.8138  29.8168  29.9094  29.9133  30.2677  30.3118  30.6781  31.1972
    31.2184  31.5596  31.6012  31.9837  31.9868  33.0190  33.3975  33.5329
    33.9401  34.0048  34.1538  34.2137  34.6462  34.7312  34.8088  34.8681
    34.9592  35.3433  35.4967  36.0114  36.0637  36.3101  36.4592  36.4794
    36.5014  36.6201  36.6280  37.0907  37.4821  37.6425  37.8539  37.9008
    38.5411  38.5622  38.7880  38.9234  38.9801  39.0330  39.3200  39.4554
    39.7318  39.8084  39.8262  40.0732  40.2165  40.3075  40.3232  45.4463
    45.5959  46.1657  46.5893  46.7438  49.9599  49.9946  51.9486  52.0927
    54.4865  54.5352  54.7339  54.8039  54.9830  55.2721  55.8627  55.8721
    56.0828  56.3260  56.5043  57.1933  57.2791  57.2960  57.4884  57.4940
    58.1745  58.4502  58.5796  58.6468  58.7975  58.9859  59.1086  59.1167
    59.3818  59.7183  60.3893  60.6587  60.9670  61.5719  61.6497  62.1932
    62.4735  62.6269  62.6413  63.1216  63.1790  63.3676  64.4260  64.7046
    64.8127

[...]

          k =-0.5000 0.0000 0.0000 (  3722 PWs)   bands (ev):

[...]

     the Fermi energy is    57.7984 ev

!    total energy              =   -4080.17641268 Ry
     Harris-Foulkes estimate   =   -4080.17641916 Ry
     estimated scf accuracy    <       0.00000819 Ry

     The total energy is the sum of the following terms:

     one-electron contribution =      35.00775680 Ry
     hartree contribution      =     394.22078120 Ry
     xc contribution           =    -361.17033531 Ry
     ewald contribution        =   -4147.72304260 Ry
     smearing contrib. (-TS)   =      -0.51157277 Ry

     convergence has been achieved in  10 iterations

     Forces acting on atoms (Ry/au):

     atom    1 type  1   force =     0.00000000   -0.03119273   -0.06639332
     atom    2 type  1   force =     0.00000000    0.03119273    0.06639332
     atom    3 type  1   force =     0.00000000   -0.03119273    0.06639332
     atom    4 type  1   force =     0.00000000    0.03119273   -0.06639332
     atom    5 type  1   force =     0.00000000    0.13299372   -0.27966596
     atom    6 type  1   force =     0.00000000   -0.13299372    0.27966596
     atom    7 type  1   force =     0.00000000    0.13299372    0.27966596
     atom    8 type  1   force =     0.00000000   -0.13299372   -0.27966596
     atom    9 type  2   force =     0.00000000   -0.22071895    0.02921577
     atom   10 type  2   force =     0.00000000    0.22071895   -0.02921577
     atom   11 type  2   force =     0.00000000   -0.22071895   -0.02921577
     atom   12 type  2   force =     0.00000000    0.22071895    0.02921577

     Total force =     0.776793     Total SCF correction =     0.000000

     entering subroutine stress ...

          total   stress  (Ry/bohr**3)                   (kbar)     P= 7966.86
   0.05946572   0.00000000   0.00000000       8747.71      0.00      0.00
   0.00000000   0.05016604   0.00000000          0.00   7379.68      0.00
   0.00000000   0.00000000   0.05284115          0.00      0.00   7773.20

     BFGS Geometry Optimization

     number of scf cycles    =   1
     number of bfgs steps    =   0

     enthalpy new            =   -4080.1764126824 Ry

     new trust radius        =       0.5000000000 bohr
     new conv_thr            =       0.0001000000 Ry

     new unit-cell volume =   1078.76375 a.u.^3 (   159.85629 Ang^3 )

CELL_PARAMETERS (alat=  7.01510508)
   1.085136619   0.000000000   0.000000000
   0.000000000   1.410478949   0.000000000
   0.000000000   0.000000000   2.041609955

ATOMIC_POSITIONS (crystal)
Co       0.750000000   0.826207498   0.435450439
Co       0.250000000   0.173792502   0.564549561
Co       0.750000000   0.326207498   0.064549561
Co       0.250000000   0.673792502   0.935450439
Co       0.250000000   0.537911017   0.281142142
Co       0.750000000   0.462088983   0.718857858
Co       0.250000000   0.037911017   0.218857858
Co       0.750000000   0.962088983   0.781142142
Si       0.250000000   0.201484786   0.893725659
Si       0.750000000   0.798515214   0.106274341
Si       0.250000000   0.701484786   0.606274341
Si       0.750000000   0.298515214   0.393725659

     Writing output data file Prototype-La-oP12-Co2Si.save
     NEW-OLD atomic charge density approx. for the potential
     NEW k-points:
        k(    1) = (   0.0000000   0.0000000   0.0000000), wk =   0.0833333
        k(    2) = (   0.0000000   0.0000000   0.1224524), wk =   0.1666667
        k(    3) = (   0.0000000   0.0000000  -0.2449048), wk =   0.0833333
        k(    4) = (   0.0000000   0.2363263   0.0000000), wk =   0.1666667
        k(    5) = (   0.0000000   0.2363263   0.1224524), wk =   0.3333333
        k(    6) = (   0.0000000   0.2363263  -0.2449048), wk =   0.1666667
        k(    7) = (  -0.4607715   0.0000000   0.0000000), wk =   0.0833333
        k(    8) = (  -0.4607715   0.0000000   0.1224524), wk =   0.1666667
        k(    9) = (  -0.4607715   0.0000000  -0.2449048), wk =   0.0833333
        k(   10) = (  -0.4607715   0.2363263   0.0000000), wk =   0.1666667
        k(   11) = (  -0.4607715   0.2363263   0.1224524), wk =   0.3333333
        k(   12) = (  -0.4607715   0.2363263  -0.2449048), wk =   0.1666667

[...]

     enthalpy old            =   -4080.1764126824 Ry
     enthalpy new            =   -4087.8434827546 Ry

     CASE: enthalpy_new < enthalpy_old

     small trust_radius: resetting bfgs history

     new trust radius        =       3.5529142123 bohr
     new conv_thr            =       0.0001000000 Ry

[...]

          total   stress  (Ry/bohr**3)                   (kbar)     P=-5593.88
  -0.04265480   0.00000000   0.00000000      -6274.74      0.00      0.00
   0.00000000  -0.03438872   0.00000000          0.00  -5058.75      0.00
   0.00000000   0.00000000  -0.03703580          0.00      0.00  -5448.15

     number of scf cycles    =   3
     number of bfgs steps    =   2

     enthalpy old            =   -4087.8434827546 Ry
     enthalpy new            =   -4030.9307818504 Ry

     CASE: enthalpy_new > enthalpy_old

     new trust radius        =       0.7513846740 bohr

     trust_radius < trust_radius_min

     resetting bfgs history

     Message from routine bfgs:
     history already reset at previous step: stopping
     new conv_thr            =       0.0001000000 Ry

     new unit-cell volume =   1267.04757 a.u.^3 (   187.75708 Ang^3 )

[...]

ATOMIC_POSITIONS (crystal)
Co       0.750000000   0.825614076   0.435318999
Co       0.250000000   0.174385924   0.564681001
Co       0.750000000   0.325614076   0.064681001
Co       0.250000000   0.674385924   0.935318999
Co       0.250000000   0.538458704   0.280388541
Co       0.750000000   0.461541296   0.719611459
Co       0.250000000   0.038458704   0.219611459
Co       0.750000000   0.961541296   0.780388541
Si       0.250000000   0.200090517   0.893939777
Si       0.750000000   0.799909483   0.106060223
Si       0.250000000   0.700090517   0.606060223
Si       0.750000000   0.299909483   0.393939777

     Writing output data file Prototype-La-oP12-Co2Si.save
     NEW-OLD atomic charge density approx. for the potential
     NEW k-points:
        k(    1) = (   0.0000000   0.0000000   0.0000000), wk =   0.0833333
        k(    2) = (   0.0000000   0.0000000   0.1162365), wk =   0.1666667
        k(    3) = (   0.0000000   0.0000000  -0.2324730), wk =   0.0833333
        k(    4) = (   0.0000000   0.2256208   0.0000000), wk =   0.1666667
        k(    5) = (   0.0000000   0.2256208   0.1162365), wk =   0.3333333
        k(    6) = (   0.0000000   0.2256208  -0.2324730), wk =   0.1666667
        k(    7) = (  -0.4328892   0.0000000   0.0000000), wk =   0.0833333
        k(    8) = (  -0.4328892   0.0000000   0.1162365), wk =   0.1666667
        k(    9) = (  -0.4328892   0.0000000  -0.2324730), wk =   0.0833333
        k(   10) = (  -0.4328892   0.2256208   0.0000000), wk =   0.1666667
        k(   11) = (  -0.4328892   0.2256208   0.1162365), wk =   0.3333333
        k(   12) = (  -0.4328892   0.2256208  -0.2324730), wk =   0.1666667

[...]

     The maximum number of steps has been reached.

     End of BFGS Geometry Optimization
Begin final coordinates
     new unit-cell volume =   1267.04757 a.u.^3 (   187.75708 Ang^3 )

CELL_PARAMETERS (alat=  7.01510508)
   1.155029986   0.000000000   0.000000000
   0.000000000   1.477405030   0.000000000
   0.000000000   0.000000000   2.150787711

ATOMIC_POSITIONS (crystal)
Co       0.750000000   0.825614076   0.435318999
Co       0.250000000   0.174385924   0.564681001
Co       0.750000000   0.325614076   0.064681001
Co       0.250000000   0.674385924   0.935318999
Co       0.250000000   0.538458704   0.280388541
Co       0.750000000   0.461541296   0.719611459
Co       0.250000000   0.038458704   0.219611459
Co       0.750000000   0.961541296   0.780388541
Si       0.250000000   0.200090517   0.893939777
Si       0.750000000   0.799909483   0.106060223
Si       0.250000000   0.700090517   0.606060223
Si       0.750000000   0.299909483   0.393939777
End final coordinates

     A final scf calculation at the relaxed structure.
     The G-vectors are recalculated for the final unit cell
     Results may differ from those at the preceding step.

     bravais-lattice index     =            0
     lattice parameter (alat)  =       7.0151  a.u.
     unit-cell volume          =    1267.0476 (a.u.)^3
     number of atoms/cell      =           12
     number of atomic types    =            2
     number of electrons       =       268.00
     number of Kohn-Sham states=          161
     kinetic-energy cutoff     =      40.0000  Ry
     charge density cutoff     =     160.0000  Ry
     convergence threshold     =      1.0E-04
     mixing beta               =       0.7000
     number of iterations used =            8  plain     mixing
     Exchange-correlation      = SLA-PZ-NOGX-NOGC ( 1 1 0 0 0)
     EXX-fraction              =        0.00

     celldm(1)=   7.015105  celldm(2)=   0.000000  celldm(3)=   0.000000
     celldm(4)=   0.000000  celldm(5)=   0.000000  celldm(6)=   0.000000

     crystal axes: (cart. coord. in units of alat)
               a(1) = (   1.155030   0.000000   0.000000 )
               a(2) = (   0.000000   1.477405   0.000000 )
               a(3) = (   0.000000   0.000000   2.150788 )

     reciprocal axes: (cart. coord. in units 2 pi/alat)
               b(1) = (  0.865778  0.000000  0.000000 )
               b(2) = (  0.000000  0.676862  0.000000 )
               b(3) = (  0.000000  0.000000  0.464946 )

     PseudoPot. # 1 for Er read from file:
     /home/cwx6513/pp.La/Er.UPF
     MD5 check sum: e152ae21b84514339d8526f066caf99b
     Pseudo is Norm-conserving, Zval = 22.0
     Generated in analytical, separable form
     Using radial grid of 1267 points,  6 beta functions with:
                l(1) =   0
                l(2) =   0
                l(3) =   1
                l(4) =   1
                l(5) =   2
                l(6) =   3

     PseudoPot. # 2 for Tm read from file:
     /home/cwx6513/pp.La/Tm.UPF
     MD5 check sum: 245516e0878b5372ceeb9443ded2c4e1
     Pseudo is Norm-conserving, Zval = 23.0
     Generated in analytical, separable form
     Using radial grid of 1269 points,  6 beta functions with:
                l(1) =   0
                l(2) =   0
                l(3) =   1
                l(4) =   1
                l(5) =   2
                l(6) =   3

     atomic species   valence    mass     pseudopotential
        Co            22.00    58.93320     Er( 1.00)
        Si            23.00    28.08550     Tm( 1.00)

      8 Sym. Ops., with inversion, found ( 6 have fractional translation)

   Cartesian axes

     site n.     atom                  positions (alat units)
         1           Co  tau(   1) = (   0.8662725   1.2197664   0.9362788  )
         2           Co  tau(   2) = (   0.2887575   0.2576386   1.2145090  )
         3           Co  tau(   3) = (   0.8662725   0.4810639   0.1391151  )
         4           Co  tau(   4) = (   0.2887575   0.9963412   2.0116726  )
         5           Co  tau(   5) = (   0.2887575   0.7955216   0.6030562  )
         6           Co  tau(   6) = (   0.8662725   0.6818834   1.5477315  )
         7           Co  tau(   7) = (   0.2887575   0.0568191   0.4723376  )
         8           Co  tau(   8) = (   0.8662725   1.4205859   1.6784501  )
         9           Si  tau(   9) = (   0.2887575   0.2956147   1.9226747  )
        10           Si  tau(  10) = (   0.8662725   1.1817903   0.2281130  )
        11           Si  tau(  11) = (   0.2887575   1.0343173   1.3035069  )
        12           Si  tau(  12) = (   0.8662725   0.4430878   0.8472808  )

     number of k points=    12  gaussian smearing, width (Ry)=  0.1000
                       cart. coord. in units 2pi/alat
        k(    1) = (   0.0000000   0.0000000   0.0000000), wk =   0.0833333
        k(    2) = (   0.0000000   0.0000000   0.1162365), wk =   0.1666667
        k(    3) = (   0.0000000   0.0000000  -0.2324730), wk =   0.0833333
        k(    4) = (   0.0000000   0.2256208   0.0000000), wk =   0.1666667
        k(    5) = (   0.0000000   0.2256208   0.1162365), wk =   0.3333333
        k(    6) = (   0.0000000   0.2256208  -0.2324730), wk =   0.1666667
        k(    7) = (  -0.4328892   0.0000000   0.0000000), wk =   0.0833333
        k(    8) = (  -0.4328892   0.0000000   0.1162365), wk =   0.1666667
        k(    9) = (  -0.4328892   0.0000000  -0.2324730), wk =   0.0833333
        k(   10) = (  -0.4328892   0.2256208   0.0000000), wk =   0.1666667
        k(   11) = (  -0.4328892   0.2256208   0.1162365), wk =   0.3333333
        k(   12) = (  -0.4328892   0.2256208  -0.2324730), wk =   0.1666667

     Largest allocated arrays     est. size (Mb)     dimensions
     Largest temporary arrays     est. size (Mb)     dimensions

     Initial potential from superposition of free atoms

     Starting from uniform charge
     Starting wfc are    0 randomized atomic wfcs

     Writing output data file Prototype-La-oP12-Co2Si.save

     Self-consistent Calculation

[...]

     iteration #  9     ecut=    40.00 Ry     beta=0.70
     CG style diagonalization
     c_bands:  1 eigenvalues not converged
     c_bands:  1 eigenvalues not converged
     ethr =  1.15E-06,  avg # of iterations =  3.8

     total energy              =   -4096.79745421 Ry
     Harris-Foulkes estimate   =   -4096.79781689 Ry
     estimated scf accuracy    <       0.00066655 Ry

     iteration # 10     ecut=    40.00 Ry     beta=0.70
     CG style diagonalization
     ethr =  2.49E-07,  avg # of iterations =  3.6

     End of self-consistent calculation

[...]

          k = 0.0000 0.2256-0.2325 (  5422 PWs)   bands (ev):

[...]

          k =-0.4329 0.2256-0.2325 (  5432 PWs)   bands (ev):

   -73.8420 -73.8420 -73.8407 -73.8407 -63.6986 -63.6986 -63.6880 -63.6880
   -63.4780 -63.4780 -63.4719 -63.4719 -32.6902 -32.6902 -32.6873 -32.6873
   -32.6800 -32.6799 -32.6754 -32.6754 -32.5650 -32.5650 -32.5563 -32.5563
   -25.8494 -25.8494 -25.8414 -25.8414 -25.8135 -25.8135 -25.8053 -25.8053
   -25.7479 -25.7479 -25.7390 -25.7390 -25.6461 -25.6461 -25.5676 -25.5676
   -25.5578 -25.5578 -25.5418 -25.5418 -25.5093 -25.5093 -25.4734 -25.4734
    15.2269  15.2269  15.2744  15.2744  15.3981  15.3981  15.4480  15.4480
    15.5206  15.5206  15.5356  15.5356  15.6853  15.6853  15.6886  15.6886
    15.9590  15.9590  16.0494  16.0494  18.9523  18.9523  19.4671  19.4671
    19.4784  19.4784  19.7146  19.7146  19.7754  19.7754  19.9524  19.9524
    20.1588  20.1588  20.2349  20.2349  20.3689  20.3689  20.5559  20.5559
    20.5688  20.5688  20.9346  20.9346  20.9510  20.9510  21.0602  21.0602
    21.0921  21.0921  21.2883  21.2883  21.3981  21.3981  21.7293  21.7293
    21.9221  21.9221  22.1645  22.1645  24.4168  24.4168  24.5978  24.5978
    26.7805  26.7805  26.8599  26.8599  30.0501  30.0501  31.8491  31.8491
    33.1699  33.1699  33.3506  33.3506  35.4207  35.4207  36.0199  36.0199
    39.2267  39.2267  40.4059  40.4059  40.4271  40.4271  40.7353  40.7353
    41.2829  41.2829  41.3223  41.3223  41.8795  41.8795  41.9344  41.9344
    42.5839  42.5839  42.8084  42.8084  42.9062  42.9062  43.2831  43.2832
    43.5011  43.5011  44.0413  44.0414  44.0943  44.0944  45.7164  45.7174
    45.9735

     the Fermi energy is    39.4552 ev

!    total energy              =   -4096.79760254 Ry
     Harris-Foulkes estimate   =   -4096.79762100 Ry
     estimated scf accuracy    <       0.00002137 Ry

     The total energy is the sum of the following terms:

     one-electron contribution =    -677.02963090 Ry
     hartree contribution      =     580.14409453 Ry
     xc contribution           =    -349.65213271 Ry
     ewald contribution        =   -3649.93187523 Ry
     smearing contrib. (-TS)   =      -0.32805822 Ry

     convergence has been achieved in  10 iterations

     Forces acting on atoms (Ry/au):

     atom    1 type  1   force =     0.00000000   -0.04303682    0.01307365
     atom    2 type  1   force =     0.00000000    0.04303682   -0.01307365
     atom    3 type  1   force =     0.00000000   -0.04303682   -0.01307365
     atom    4 type  1   force =     0.00000000    0.04303682    0.01307365
     atom    5 type  1   force =     0.00000000    0.03687408   -0.10962528
     atom    6 type  1   force =     0.00000000   -0.03687408    0.10962528
     atom    7 type  1   force =     0.00000000    0.03687408    0.10962528
     atom    8 type  1   force =     0.00000000   -0.03687408   -0.10962528
     atom    9 type  2   force =     0.00000000   -0.10085961    0.03195376
     atom   10 type  2   force =     0.00000000    0.10085961   -0.03195376
     atom   11 type  2   force =     0.00000000   -0.10085961   -0.03195376
     atom   12 type  2   force =     0.00000000    0.10085961    0.03195376

     Total force =     0.326155     Total SCF correction =     0.000000

     entering subroutine stress ...

          total   stress  (Ry/bohr**3)                   (kbar)     P= 1767.18
   0.01287722   0.00000000   0.00000000       1894.30      0.00      0.00
   0.00000000   0.01117759   0.00000000          0.00   1644.28      0.00
   0.00000000   0.00000000   0.01198429          0.00      0.00   1762.95

     Writing output data file Prototype-La-oP12-Co2Si.save

     General routines

     Parallel routines

   This run was terminated on:  23:13:32  22Mar2018

   JOB DONE.