     Program PWSCF v.5.0.2 starts on 22Mar2018 at 22:47:17

     Current dimensions of program PWSCF are:
     Max number of different atomic species (ntypx) = 10
     Max number of k-points (npk) =  40000
     Max angular momentum in pseudopotentials (lmaxx) =  3
     Waiting for input...
     Reading input from standard input

     Subspace diagonalization in iterative solution of the eigenvalue problem:
     a serial algorithm will be used

     bravais-lattice index     =            0
     lattice parameter (alat)  =       9.9235  a.u.
     unit-cell volume          =    1361.0366 (a.u.)^3
     number of atoms/cell      =           12
     number of atomic types    =            2
     number of electrons       =       272.00
     number of Kohn-Sham states=          163
     kinetic-energy cutoff     =      40.0000  Ry
     charge density cutoff     =     160.0000  Ry
     convergence threshold     =      1.0E-04
     mixing beta               =       0.7000
     number of iterations used =            8  plain     mixing
     Exchange-correlation      = SLA-PZ-NOGX-NOGC ( 1 1 0 0 0)
     EXX-fraction              =        0.00
     nstep                     =           50

     celldm(1)=   9.923489  celldm(2)=   0.000000  celldm(3)=   0.000000
     celldm(4)=   0.000000  celldm(5)=   0.000000  celldm(6)=   0.000000

     crystal axes: (cart. coord. in units of alat)
               a(1) = (   1.000000   0.000000   0.000000 )
               a(2) = (  -0.500000   0.866025   0.000000 )
               a(3) = (   0.000000   0.000000   1.608222 )

     reciprocal axes: (cart. coord. in units 2 pi/alat)
               b(1) = (  1.000000  0.577350  0.000000 )
               b(2) = (  0.000000  1.154701  0.000000 )
               b(3) = (  0.000000  0.000000  0.621805 )

     PseudoPot. # 1 for Er read from file:
     /home/cwx6513/pp.La/Er.UPF
     MD5 check sum: e152ae21b84514339d8526f066caf99b
     Pseudo is Norm-conserving, Zval = 22.0
     Generated in analytical, separable form
     Using radial grid of 1267 points,  6 beta functions with:
                l(1) =   0
                l(2) =   0
                l(3) =   1
                l(4) =   1
                l(5) =   2
                l(6) =   3

     PseudoPot. # 2 for Tm read from file:
     /home/cwx6513/pp.La/Tm.UPF
     MD5 check sum: 245516e0878b5372ceeb9443ded2c4e1
     Pseudo is Norm-conserving, Zval = 23.0
     Generated in analytical, separable form
     Using radial grid of 1269 points,  6 beta functions with:
                l(1) =   0
                l(2) =   0
                l(3) =   1
                l(4) =   1
                l(5) =   2
                l(6) =   3

     atomic species   valence    mass     pseudopotential
        Mg            22.00    24.30500     Er( 1.00)
        Zn            23.00    65.39000     Tm( 1.00)

     24 Sym. Ops., with inversion, found (12 have fractional translation)

   Cartesian axes

     site n.     atom                  positions (alat units)
         1           Mg  tau(   1) = (  -0.0000005   0.5773506   0.1003820  )
         2           Mg  tau(   2) = (   0.5000005   0.2886748   0.9044931  )
         3           Mg  tau(   3) = (   0.5000005   0.2886748   1.5078402  )
         4           Mg  tau(   4) = (  -0.0000005   0.5773506   0.7037291  )
         5           Zn  tau(   5) = (   0.0000000   0.0000000   0.0000000  )
         6           Zn  tau(   6) = (   0.0000000   0.0000000   0.8041111  )
         7           Zn  tau(   7) = (   0.0000000   0.2950739   1.2061667  )
         8           Zn  tau(   8) = (   0.7444585   0.1475370   0.4020556  )
         9           Zn  tau(   9) = (   0.2555415   0.1475370   0.4020556  )
        10           Zn  tau(  10) = (   0.2444585   0.7184884   1.2061667  )
        11           Zn  tau(  11) = (  -0.2444585   0.7184884   1.2061667  )
        12           Zn  tau(  12) = (   0.5000000   0.5709515   0.4020556  )

     number of k points=    12  gaussian smearing, width (Ry)=  0.1000
                       cart. coord. in units 2pi/alat
        k(    1) = (   0.0000000   0.0000000   0.0000000), wk =   0.0833333
        k(    2) = (   0.0000000   0.0000000   0.1554512), wk =   0.1666667
        k(    3) = (   0.0000000   0.0000000  -0.3109023), wk =   0.0833333
        k(    4) = (   0.0000000   0.3849002   0.0000000), wk =   0.1666667
        k(    5) = (   0.0000000   0.3849002   0.1554512), wk =   0.3333333
        k(    6) = (   0.0000000   0.3849002  -0.3109023), wk =   0.1666667
        k(    7) = (  -0.5000000  -0.2886751   0.0000000), wk =   0.0833333
        k(    8) = (  -0.5000000  -0.2886751   0.1554512), wk =   0.1666667
        k(    9) = (  -0.5000000  -0.2886751  -0.3109023), wk =   0.0833333
        k(   10) = (  -0.5000000   0.0962250   0.0000000), wk =   0.1666667
        k(   11) = (  -0.5000000   0.0962250   0.1554512), wk =   0.3333333
        k(   12) = (  -0.5000000   0.0962250  -0.3109023), wk =   0.1666667

     Largest allocated arrays     est. size (Mb)     dimensions
     Largest temporary arrays     est. size (Mb)     dimensions

     Initial potential from superposition of free atoms

     Starting from uniform charge
     Starting wfc are    0 randomized atomic wfcs

     Self-consistent Calculation

     iteration #  1     ecut=    40.00 Ry     beta=0.70
     CG style diagonalization
     c_bands:  1 eigenvalues not converged
     ethr =  1.00E-02,  avg # of iterations = 18.8

     total energy              =   -3586.96488546 Ry
     Harris-Foulkes estimate   =   -5333.64944919 Ry
     estimated scf accuracy    <    2155.02918798 Ry

[...]

     iteration #  4     ecut=    40.00 Ry     beta=0.70
     CG style diagonalization
     ethr =  1.00E-02,  avg # of iterations =  7.0

[...]

     End of self-consistent calculation

          k = 0.0000 0.0000 0.0000 (  5769 PWs)   bands (ev):

   -76.3636 -76.3631 -76.3414 -76.3114 -76.3114 -76.2954 -76.2953 -76.2657
   -65.1734 -65.1632 -65.1566 -65.1264 -35.8167 -35.6824 -35.5165 -35.2909
   -35.2909 -35.2794 -35.2656 -35.2656 -35.2091 -35.2091 -35.1076 -35.0514
   -35.0513 -35.0448 -35.0448 -34.9401 -34.9401 -34.9397 -34.9009 -34.9009
   -34.8877 -34.8877 -34.8572 -34.8421 -27.2153 -27.1995 -27.1964 -27.1964
   -27.1755 -27.1755 -27.1634 -27.1405 -27.1405 -27.1365 -27.1314 -27.1314
    10.1002  10.5317  10.7970  11.4562  11.4562  11.5844  11.5844  11.7923
    11.7923  11.8912  12.1290  12.1291  12.6826  12.9200  12.9988  12.9989
    13.1134  13.1134  13.5197  13.7169  13.7169  14.0193  14.0193  14.0852
    14.2204  14.2204  14.2890  14.2890  14.3005  14.3204  14.4073  14.4073
    14.4805  14.4806  15.0660  15.0660  15.3473  15.3473  15.7673  15.7697
    16.6735  18.2439  18.9180  18.9462  18.9462  19.0292  19.0292  19.0457
    19.0457  19.1443  19.1443  19.3490  19.5205  19.5205  19.5708  19.5850
    19.5850  19.6525  19.8370  19.8370  19.9588  19.9588  20.8886  24.9060
    25.4708  27.3287  27.3288  27.6034  27.8537  27.8538  29.5380  29.6747
    29.7449  29.8588  29.8589  29.8592  29.8593  30.1201  30.1202  30.4390
    31.0687  32.5665  32.5667  34.7316  36.2213  36.2214  36.5757  36.6879
    36.6880  36.7445  37.0639  37.0641  37.1229  37.8734  37.8735  38.0729
    38.3606  38.3606  38.6791  39.9816  40.2517  40.2518  40.4198  40.6254
    41.2010  41.2011  41.3276  41.4426  42.3027  42.7866  42.7866  43.0318
    43.0319  44.2757  45.0331

[...]

          k =-0.5000-0.2887 0.0000 (  5800 PWs)   bands (ev):

[...]

     the Fermi energy is    36.6260 ev

!    total energy              =   -4249.85981658 Ry
     Harris-Foulkes estimate   =   -4249.85984005 Ry
     estimated scf accuracy    <       0.00002710 Ry

     The total energy is the sum of the following terms:

     one-electron contribution =    -938.21342358 Ry
     hartree contribution      =     681.91571970 Ry
     xc contribution           =    -356.77278435 Ry
     ewald contribution        =   -3636.30665218 Ry
     smearing contrib. (-TS)   =      -0.48267617 Ry

     convergence has been achieved in  11 iterations

     Forces acting on atoms (Ry/au):

     atom    1 type  1   force =     0.00000000    0.00000000    0.01858582
     atom    2 type  1   force =     0.00000000    0.00000000    0.01858582
     atom    3 type  1   force =     0.00000000    0.00000000   -0.01858582
     atom    4 type  1   force =     0.00000000    0.00000000   -0.01858582
     atom    5 type  2   force =     0.00000000    0.00000000    0.00000000
     atom    6 type  2   force =     0.00000000    0.00000000    0.00000000
     atom    7 type  2   force =     0.00000000    0.11454650    0.00000000
     atom    8 type  2   force =    -0.09920018    0.05727325    0.00000000
     atom    9 type  2   force =     0.09920018    0.05727325    0.00000000
     atom   10 type  2   force =    -0.09920018   -0.05727325    0.00000000
     atom   11 type  2   force =     0.09920018   -0.05727325    0.00000000
     atom   12 type  2   force =     0.00000000   -0.11454650    0.00000000

     Total force =     0.283032     Total SCF correction =     0.000000

     entering subroutine stress ...

          total   stress  (Ry/bohr**3)                   (kbar)     P= 1311.18
   0.00897959   0.00000000   0.00000000       1320.94      0.00      0.00
   0.00000000   0.00897959   0.00000000          0.00   1320.94      0.00
   0.00000000   0.00000000   0.00878058          0.00      0.00   1291.67

     BFGS Geometry Optimization

     number of scf cycles    =   1
     number of bfgs steps    =   0

     enthalpy new            =   -4249.8598165837 Ry

     new trust radius        =       0.5000000000 bohr
     new conv_thr            =       0.0001000000 Ry

     new unit-cell volume =   1654.57133 a.u.^3 (   245.18217 Ang^3 )

CELL_PARAMETERS (alat=  9.92348860)
   1.067764947   0.000000000   0.000000000
  -0.533882474   0.924711570   0.000000000
   0.000000000   0.000000000   1.714787926

ATOMIC_POSITIONS (crystal)
Mg       0.333333000   0.666667000   0.062769544
Mg       0.666667000   0.333333000   0.562769544
Mg       0.666667000   0.333333000   0.937230456
Mg       0.333333000   0.666667000   0.437230456
Zn       0.000000000   0.000000000   0.000000000
Zn       0.000000000   0.000000000   0.500000000
Zn       0.172372709   0.344745418   0.750000000
Zn       0.827627291   0.172372709   0.250000000
Zn       0.344745418   0.172372709   0.250000000
Zn       0.655254582   0.827627291   0.750000000
Zn       0.172372709   0.827627291   0.750000000
Zn       0.827627291   0.655254582   0.250000000

     Writing output data file Prototype-La-hP12-MgZn2.save
     NEW-OLD atomic charge density approx. for the potential
     NEW k-points:
        k(    1) = (   0.0000000   0.0000000   0.0000000), wk =   0.0833333
        k(    2) = (   0.0000000   0.0000000   0.1457906), wk =   0.1666667
        k(    3) = (   0.0000000   0.0000000  -0.2915812), wk =   0.0833333
        k(    4) = (   0.0000000   0.3604728   0.0000000), wk =   0.1666667
        k(    5) = (   0.0000000   0.3604728   0.1457906), wk =   0.3333333
        k(    6) = (   0.0000000   0.3604728  -0.2915812), wk =   0.1666667
        k(    7) = (  -0.4682679  -0.2703546   0.0000000), wk =   0.0833333
        k(    8) = (  -0.4682679  -0.2703546   0.1457906), wk =   0.1666667
        k(    9) = (  -0.4682679  -0.2703546  -0.2915812), wk =   0.0833333
        k(   10) = (  -0.4682679   0.0901182   0.0000000), wk =   0.1666667
        k(   11) = (  -0.4682679   0.0901182   0.1457906), wk =   0.3333333
        k(   12) = (  -0.4682679   0.0901182  -0.2915812), wk =   0.1666667

[...]

     enthalpy old            =   -4249.8598165837 Ry
     enthalpy new            =   -4250.6487954018 Ry

     CASE: enthalpy_new < enthalpy_old

     small trust_radius: resetting bfgs history

     new trust radius        =       0.5319438349 bohr
     new conv_thr            =       0.0000274042 Ry

[...]

     number of scf cycles    =   3
     number of bfgs steps    =   2

     enthalpy old            =   -4250.6487954018 Ry
     enthalpy new            =   -4250.0006326112 Ry

     CASE: enthalpy_new > enthalpy_old

     new trust radius        =       0.1357673624 bohr

     trust_radius < trust_radius_min

     resetting bfgs history

     Message from routine bfgs:
     history already reset at previous step: stopping
     new conv_thr            =       0.0000274042 Ry

     new unit-cell volume =   1382.71395 a.u.^3 (   204.89707 Ang^3 )

[...]

ATOMIC_POSITIONS (crystal)
Mg       0.333333000   0.666667000   0.061078592
Mg       0.666667000   0.333333000   0.561078592
Mg       0.666667000   0.333333000   0.938921408
Mg       0.333333000   0.666667000   0.438921408
Zn       0.000000000   0.000000000   0.000000000
Zn       0.000000000   0.000000000   0.500000000
Zn       0.172365626   0.344731252   0.750000000
Zn       0.827634374   0.172365626   0.250000000
Zn       0.344731252   0.172365626   0.250000000
Zn       0.655268748   0.827634374   0.750000000
Zn       0.172365626   0.827634374   0.750000000
Zn       0.827634374   0.655268748   0.250000000

     Writing output data file Prototype-La-hP12-MgZn2.save
     NEW-OLD atomic charge density approx. for the potential
     NEW k-points:
        k(    1) = (   0.0000000   0.0000000   0.0000000), wk =   0.0833333
        k(    2) = (   0.0000000   0.0000000   0.1555908), wk =   0.1666667
        k(    3) = (   0.0000000   0.0000000  -0.3111816), wk =   0.0833333
        k(    4) = (   0.0000000   0.3816998   0.0000000), wk =   0.1666667
        k(    5) = (   0.0000000   0.3816998   0.1555908), wk =   0.3333333
        k(    6) = (   0.0000000   0.3816998  -0.3111816), wk =   0.1666667
        k(    7) = (  -0.4958425  -0.2862748   0.0000000), wk =   0.0833333
        k(    8) = (  -0.4958425  -0.2862748   0.1555908), wk =   0.1666667
        k(    9) = (  -0.4958425  -0.2862748  -0.3111816), wk =   0.0833333
        k(   10) = (  -0.4958425   0.0954249   0.0000000), wk =   0.1666667
        k(   11) = (  -0.4958425   0.0954249   0.1555908), wk =   0.3333333
        k(   12) = (  -0.4958425   0.0954249  -0.3111816), wk =   0.1666667

[...]

     The maximum number of steps has been reached.

     End of BFGS Geometry Optimization
Begin final coordinates
     new unit-cell volume =   1382.71395 a.u.^3 (   204.89707 Ang^3 )

CELL_PARAMETERS (alat=  9.92348860)
   1.008384622   0.000000000   0.000000000
  -0.504192311   0.873286700   0.000000000
   0.000000000   0.000000000   1.606779045

ATOMIC_POSITIONS (crystal)
Mg       0.333333000   0.666667000   0.061078592
Mg       0.666667000   0.333333000   0.561078592
Mg       0.666667000   0.333333000   0.938921408
Mg       0.333333000   0.666667000   0.438921408
Zn       0.000000000   0.000000000   0.000000000
Zn       0.000000000   0.000000000   0.500000000
Zn       0.172365626   0.344731252   0.750000000
Zn       0.827634374   0.172365626   0.250000000
Zn       0.344731252   0.172365626   0.250000000
Zn       0.655268748   0.827634374   0.750000000
Zn       0.172365626   0.827634374   0.750000000
Zn       0.827634374   0.655268748   0.250000000
End final coordinates

     A final scf calculation at the relaxed structure.
     The G-vectors are recalculated for the final unit cell
     Results may differ from those at the preceding step.

     bravais-lattice index     =            0
     lattice parameter (alat)  =       9.9235  a.u.
     unit-cell volume          =    1382.7139 (a.u.)^3
     number of atoms/cell      =           12
     number of atomic types    =            2
     number of electrons       =       272.00
     number of Kohn-Sham states=          163
     kinetic-energy cutoff     =      40.0000  Ry
     charge density cutoff     =     160.0000  Ry
     convergence threshold     =      2.7E-05
     mixing beta               =       0.7000
     number of iterations used =            8  plain     mixing
     Exchange-correlation      = SLA-PZ-NOGX-NOGC ( 1 1 0 0 0)
     EXX-fraction              =        0.00

     celldm(1)=   9.923489  celldm(2)=   0.000000  celldm(3)=   0.000000
     celldm(4)=   0.000000  celldm(5)=   0.000000  celldm(6)=   0.000000

     crystal axes: (cart. coord. in units of alat)
               a(1) = (   1.008385   0.000000   0.000000 )
               a(2) = (  -0.504192   0.873287   0.000000 )
               a(3) = (   0.000000   0.000000   1.606779 )

     reciprocal axes: (cart. coord. in units 2 pi/alat)
               b(1) = (  0.991685  0.572550  0.000000 )
               b(2) = (  0.000000  1.145099  0.000000 )
               b(3) = (  0.000000  0.000000  0.622363 )

     PseudoPot. # 1 for Er read from file:
     /home/cwx6513/pp.La/Er.UPF
     MD5 check sum: e152ae21b84514339d8526f066caf99b
     Pseudo is Norm-conserving, Zval = 22.0
     Generated in analytical, separable form
     Using radial grid of 1267 points,  6 beta functions with:
                l(1) =   0
                l(2) =   0
                l(3) =   1
                l(4) =   1
                l(5) =   2
                l(6) =   3

     PseudoPot. # 2 for Tm read from file:
     /home/cwx6513/pp.La/Tm.UPF
     MD5 check sum: 245516e0878b5372ceeb9443ded2c4e1
     Pseudo is Norm-conserving, Zval = 23.0
     Generated in analytical, separable form
     Using radial grid of 1269 points,  6 beta functions with:
                l(1) =   0
                l(2) =   0
                l(3) =   1
                l(4) =   1
                l(5) =   2
                l(6) =   3

     atomic species   valence    mass     pseudopotential
        Mg            22.00    24.30500     Er( 1.00)
        Zn            23.00    65.39000     Tm( 1.00)

     24 Sym. Ops., with inversion, found (12 have fractional translation)

   Cartesian axes

     site n.     atom                  positions (alat units)
         1           Mg  tau(   1) = (  -0.0000005   0.5821914   0.0981398  )
         2           Mg  tau(   2) = (   0.5041928   0.2910953   0.9015293  )
         3           Mg  tau(   3) = (   0.5041928   0.2910953   1.5086392  )
         4           Mg  tau(   4) = (  -0.0000005   0.5821914   0.7052497  )
         5           Zn  tau(   5) = (   0.0000000   0.0000000   0.0000000  )
         6           Zn  tau(   6) = (   0.0000000   0.0000000   0.8033895  )
         7           Zn  tau(   7) = (   0.0000000   0.3010492   1.2050843  )
         8           Zn  tau(   8) = (   0.7476684   0.1505246   0.4016948  )
         9           Zn  tau(   9) = (   0.2607163   0.1505246   0.4016948  )
        10           Zn  tau(  10) = (   0.2434760   0.7227621   1.2050843  )
        11           Zn  tau(  11) = (  -0.2434760   0.7227621   1.2050843  )
        12           Zn  tau(  12) = (   0.5041923   0.5722375   0.4016948  )

     number of k points=    12  gaussian smearing, width (Ry)=  0.1000
                       cart. coord. in units 2pi/alat
        k(    1) = (   0.0000000   0.0000000   0.0000000), wk =   0.0833333
        k(    2) = (   0.0000000   0.0000000   0.1555908), wk =   0.1666667
        k(    3) = (   0.0000000   0.0000000  -0.3111816), wk =   0.0833333
        k(    4) = (   0.0000000   0.3816998   0.0000000), wk =   0.1666667
        k(    5) = (   0.0000000   0.3816998   0.1555908), wk =   0.3333333
        k(    6) = (   0.0000000   0.3816998  -0.3111816), wk =   0.1666667
        k(    7) = (  -0.4958425  -0.2862748   0.0000000), wk =   0.0833333
        k(    8) = (  -0.4958425  -0.2862748   0.1555908), wk =   0.1666667
        k(    9) = (  -0.4958425  -0.2862748  -0.3111816), wk =   0.0833333
        k(   10) = (  -0.4958425   0.0954249   0.0000000), wk =   0.1666667
        k(   11) = (  -0.4958425   0.0954249   0.1555908), wk =   0.3333333
        k(   12) = (  -0.4958425   0.0954249  -0.3111816), wk =   0.1666667

     Largest allocated arrays     est. size (Mb)     dimensions
     Largest temporary arrays     est. size (Mb)     dimensions

     Initial potential from superposition of free atoms

     Starting from uniform charge
     Starting wfc are    0 randomized atomic wfcs

     Writing output data file Prototype-La-hP12-MgZn2.save

     Self-consistent Calculation

[...]

     iteration # 10     ecut=    40.00 Ry     beta=0.70
     CG style diagonalization
     c_bands:  1 eigenvalues not converged
     ethr =  1.21E-06,  avg # of iterations =  3.9

     total energy              =   -4250.27928438 Ry
     Harris-Foulkes estimate   =   -4250.27935102 Ry
     estimated scf accuracy    <       0.00013776 Ry

     iteration # 11     ecut=    40.00 Ry     beta=0.70
     CG style diagonalization
     ethr =  5.06E-08,  avg # of iterations =  4.2

     End of self-consistent calculation

[...]

          k = 0.0000 0.3817-0.3112 (  5908 PWs)   bands (ev):

[...]

          k =-0.4958 0.0954-0.3112 (  5914 PWs)   bands (ev):

   -76.9204 -76.9204 -76.9112 -76.9112 -76.8817 -76.8817 -76.8760 -76.8760
   -65.7570 -65.7569 -65.7489 -65.7488 -36.1425 -36.1425 -36.0112 -36.0112
   -35.8186 -35.8186 -35.7696 -35.7696 -35.7146 -35.7146 -35.6953 -35.6953
   -35.6092 -35.6092 -35.5557 -35.5557 -35.5273 -35.5273 -35.5088 -35.5087
   -35.4943 -35.4943 -35.4728 -35.4728 -27.7852 -27.7851 -27.7727 -27.7727
   -27.7627 -27.7627 -27.7462 -27.7460 -27.7317 -27.7317 -27.7185 -27.7184
    10.6783  10.6783  11.1499  11.1499  11.3633  11.3633  11.5330  11.5330
    11.6275  11.6275  12.1717  12.1718  12.2999  12.2999  12.5030  12.5030
    12.7016  12.7016  12.7844  12.7844  13.0190  13.0190  13.1118  13.1118
    13.2875  13.2875  13.5396  13.5396  13.6288  13.6288  13.8090  13.8090
    13.8499  13.8499  13.8993  13.8993  14.1015  14.1015  14.5779  14.5779
    17.6665  17.6666  18.1618  18.1618  18.4966  18.4967  18.5913  18.5914
    18.6702  18.6703  18.9005  18.9006  19.0092  19.0093  19.0414  19.0415
    19.2342  19.2343  19.3165  19.3166  19.5682  19.5682  21.0905  21.0906
    23.1390  23.1390  25.0112  25.0112  27.1495  27.1495  27.8879  27.8879
    28.9501  28.9501  30.4489  30.4489  32.6505  32.6506  33.2802  33.2802
    34.2796  34.2796  35.2285  35.2286  35.5340  35.5340  35.9514  35.9514
    36.5796  36.5796  36.8435  36.8435  37.2069  37.2069  37.7951  37.7951
    38.1980  38.1980  38.9582  38.9582  39.0774  39.0774  39.8742  39.8742
    40.6898  40.6899  40.8529  40.8530  41.4617  41.4617  41.7051  41.7052
    42.3923  42.3924  43.1262

     the Fermi energy is    36.0095 ev

!    total energy              =   -4250.27931921 Ry
     Harris-Foulkes estimate   =   -4250.27933863 Ry
     estimated scf accuracy    <       0.00002147 Ry

     The total energy is the sum of the following terms:

     one-electron contribution =    -963.76019076 Ry
     hartree contribution      =     688.96974727 Ry
     xc contribution           =    -356.40591289 Ry
     ewald contribution        =   -3618.60666514 Ry
     smearing contrib. (-TS)   =      -0.47629768 Ry

     convergence has been achieved in  11 iterations

     Forces acting on atoms (Ry/au):

     atom    1 type  1   force =     0.00000000    0.00000000    0.04532121
     atom    2 type  1   force =     0.00000000    0.00000000    0.04532121
     atom    3 type  1   force =     0.00000000    0.00000000   -0.04532121
     atom    4 type  1   force =     0.00000000    0.00000000   -0.04532121
     atom    5 type  2   force =     0.00000000    0.00000000    0.00000000
     atom    6 type  2   force =     0.00000000    0.00000000    0.00000000
     atom    7 type  2   force =     0.00000000    0.02009450    0.00000000
     atom    8 type  2   force =    -0.01740235    0.01004725    0.00000000
     atom    9 type  2   force =     0.01740235    0.01004725    0.00000000
     atom   10 type  2   force =    -0.01740235   -0.01004725    0.00000000
     atom   11 type  2   force =     0.01740235   -0.01004725    0.00000000
     atom   12 type  2   force =     0.00000000   -0.02009450    0.00000000

     Total force =     0.103144     Total SCF correction =     0.000000

     entering subroutine stress ...

          total   stress  (Ry/bohr**3)                   (kbar)     P= 1192.92
   0.00817481   0.00000000   0.00000000       1202.56      0.00      0.00
   0.00000000   0.00817481   0.00000000          0.00   1202.56      0.00
   0.00000000   0.00000000   0.00797831          0.00      0.00   1173.65

     Writing output data file Prototype-La-hP12-MgZn2.save

     General routines

     Parallel routines

   This run was terminated on:  23:24:34  22Mar2018

   JOB DONE.