     Program PWSCF v.5.0.2 starts on 22Mar2018 at 21:13:36

     Current dimensions of program PWSCF are:
     Max number of different atomic species (ntypx) = 10
     Max number of k-points (npk) =  40000
     Max angular momentum in pseudopotentials (lmaxx) =  3
     Waiting for input...
     Reading input from standard input

     Subspace diagonalization in iterative solution of the eigenvalue problem:
     a serial algorithm will be used

     bravais-lattice index     =            0
     lattice parameter (alat)  =       8.5346  a.u.
     unit-cell volume          =     621.6493 (a.u.)^3
     number of atoms/cell      =            8
     number of atomic types    =            2
     number of electrons       =       130.00
     number of Kohn-Sham states=           78
     kinetic-energy cutoff     =      40.0000  Ry
     charge density cutoff     =     160.0000  Ry
     convergence threshold     =      1.0E-04
     mixing beta               =       0.7000
     number of iterations used =            8  plain     mixing
     Exchange-correlation      = SLA-PZ-NOGX-NOGC ( 1 1 0 0 0)
     EXX-fraction              =        0.00
     nstep                     =           50

     celldm(1)=   8.534573  celldm(2)=   0.000000  celldm(3)=   0.000000
     celldm(4)=   0.000000  celldm(5)=   0.000000  celldm(6)=   0.000000

     crystal axes: (cart. coord. in units of alat)
               a(1) = (   1.000000   0.000000   0.000000 )
               a(2) = (   0.000000   1.000000   0.000000 )
               a(3) = (   0.000000   0.000000   1.000000 )

     reciprocal axes: (cart. coord. in units 2 pi/alat)
               b(1) = (  1.000000  0.000000  0.000000 )
               b(2) = (  0.000000  1.000000  0.000000 )
               b(3) = (  0.000000  0.000000  1.000000 )

     PseudoPot. # 1 for Eu read from file:
     /home/cwx6513/pp.La/Eu.UPF
     MD5 check sum: 5efdbbfc50c6a10138933a6429836ad2
     Pseudo is Norm-conserving, Zval = 17.0
     Generated in analytical, separable form
     Using radial grid of 1261 points,  6 beta functions with:
                l(1) =   0
                l(2) =   0
                l(3) =   1
                l(4) =   1
                l(5) =   2
                l(6) =   3

     PseudoPot. # 2 for Nd read from file:
     /home/cwx6513/pp.La/Nd.UPF
     MD5 check sum: c66c5b6abe7b5840ced9b1e244e3bed6
     Pseudo is Norm-conserving, Zval = 14.0
     Generated in analytical, separable form
     Using radial grid of 1257 points,  6 beta functions with:
                l(1) =   0
                l(2) =   0
                l(3) =   1
                l(4) =   1
                l(5) =   2
                l(6) =   3

     atomic species   valence    mass     pseudopotential
        Cr            17.00    51.99610     Eu( 1.00)
        Si            14.00    28.08550     Nd( 1.00)

     48 Sym. Ops., with inversion, found (24 have fractional translation)

   Cartesian axes

     site n.     atom                  positions (alat units)
         1           Cr  tau(   1) = (   0.0000000   0.5000000   0.2500000  )
         2           Cr  tau(   2) = (   0.0000000   0.5000000   0.7500000  )
         3           Cr  tau(   3) = (   0.5000000   0.7500000   0.0000000  )
         4           Cr  tau(   4) = (   0.5000000   0.2500000   0.0000000  )
         5           Cr  tau(   5) = (   0.7500000   0.0000000   0.5000000  )
         6           Cr  tau(   6) = (   0.2500000   0.0000000   0.5000000  )
         7           Si  tau(   7) = (   0.5000000   0.5000000   0.5000000  )
         8           Si  tau(   8) = (   0.0000000   0.0000000   0.0000000  )

     number of k points=    48  gaussian smearing, width (Ry)=  0.1000
                       cart. coord. in units 2pi/alat
        k(    1) = (   0.0000000   0.0000000   0.0000000), wk =   0.0095238
        k(    2) = (   0.0000000   0.0000000   0.1428571), wk =   0.0190476
        k(    3) = (   0.0000000   0.0000000   0.2857143), wk =   0.0190476
        k(    4) = (   0.0000000   0.0000000   0.4285714), wk =   0.0190476
        k(    5) = (   0.0000000   0.1666667   0.0000000), wk =   0.0190476
        k(    6) = (   0.0000000   0.1666667   0.1428571), wk =   0.0380952
        k(    7) = (   0.0000000   0.1666667   0.2857143), wk =   0.0380952
        k(    8) = (   0.0000000   0.1666667   0.4285714), wk =   0.0380952
        k(    9) = (   0.0000000   0.3333333   0.0000000), wk =   0.0190476
        k(   10) = (   0.0000000   0.3333333   0.1428571), wk =   0.0380952
        k(   11) = (   0.0000000   0.3333333   0.2857143), wk =   0.0380952
        k(   12) = (   0.0000000   0.3333333   0.4285714), wk =   0.0380952
        k(   13) = (   0.0000000  -0.5000000   0.0000000), wk =   0.0095238
        k(   14) = (   0.0000000  -0.5000000   0.1428571), wk =   0.0190476
        k(   15) = (   0.0000000  -0.5000000   0.2857143), wk =   0.0190476
        k(   16) = (   0.0000000  -0.5000000   0.4285714), wk =   0.0190476
        k(   17) = (   0.2000000   0.0000000   0.0000000), wk =   0.0190476
        k(   18) = (   0.2000000   0.0000000   0.1428571), wk =   0.0380952
        k(   19) = (   0.2000000   0.0000000   0.2857143), wk =   0.0380952
        k(   20) = (   0.2000000   0.0000000   0.4285714), wk =   0.0380952
        k(   21) = (   0.2000000   0.1666667   0.0000000), wk =   0.0380952
        k(   22) = (   0.2000000   0.1666667   0.1428571), wk =   0.0761905
        k(   23) = (   0.2000000   0.1666667   0.2857143), wk =   0.0761905
        k(   24) = (   0.2000000   0.1666667   0.4285714), wk =   0.0761905
        k(   25) = (   0.2000000   0.3333333   0.0000000), wk =   0.0380952
        k(   26) = (   0.2000000   0.3333333   0.1428571), wk =   0.0761905
        k(   27) = (   0.2000000   0.3333333   0.2857143), wk =   0.0761905
        k(   28) = (   0.2000000   0.3333333   0.4285714), wk =   0.0761905
        k(   29) = (   0.2000000  -0.5000000   0.0000000), wk =   0.0190476
        k(   30) = (   0.2000000  -0.5000000   0.1428571), wk =   0.0380952
        k(   31) = (   0.2000000  -0.5000000   0.2857143), wk =   0.0380952
        k(   32) = (   0.2000000  -0.5000000   0.4285714), wk =   0.0380952
        k(   33) = (   0.4000000   0.0000000   0.0000000), wk =   0.0190476
        k(   34) = (   0.4000000   0.0000000   0.1428571), wk =   0.0380952
        k(   35) = (   0.4000000   0.0000000   0.2857143), wk =   0.0380952
        k(   36) = (   0.4000000   0.0000000   0.4285714), wk =   0.0380952
        k(   37) = (   0.4000000   0.1666667   0.0000000), wk =   0.0380952
        k(   38) = (   0.4000000   0.1666667   0.1428571), wk =   0.0761905
        k(   39) = (   0.4000000   0.1666667   0.2857143), wk =   0.0761905
        k(   40) = (   0.4000000   0.1666667   0.4285714), wk =   0.0761905
        k(   41) = (   0.4000000   0.3333333   0.0000000), wk =   0.0380952
        k(   42) = (   0.4000000   0.3333333   0.1428571), wk =   0.0761905
        k(   43) = (   0.4000000   0.3333333   0.2857143), wk =   0.0761905
        k(   44) = (   0.4000000   0.3333333   0.4285714), wk =   0.0761905
        k(   45) = (   0.4000000  -0.5000000   0.0000000), wk =   0.0190476
        k(   46) = (   0.4000000  -0.5000000   0.1428571), wk =   0.0380952
        k(   47) = (   0.4000000  -0.5000000   0.2857143), wk =   0.0380952
        k(   48) = (   0.4000000  -0.5000000   0.4285714), wk =   0.0380952

     Largest allocated arrays     est. size (Mb)     dimensions
     Largest temporary arrays     est. size (Mb)     dimensions

     Initial potential from superposition of free atoms

     Starting from uniform charge
     Starting wfc are    0 randomized atomic wfcs

     Self-consistent Calculation

     iteration #  1     ecut=    40.00 Ry     beta=0.70
     CG style diagonalization
     c_bands:  1 eigenvalues not converged
     c_bands:  1 eigenvalues not converged
     c_bands:  3 eigenvalues not converged
     c_bands:  1 eigenvalues not converged
     c_bands:  1 eigenvalues not converged
     c_bands:  2 eigenvalues not converged
     c_bands:  1 eigenvalues not converged
     c_bands:  2 eigenvalues not converged
     c_bands:  1 eigenvalues not converged
     c_bands:  1 eigenvalues not converged
     c_bands:  2 eigenvalues not converged
     c_bands:  1 eigenvalues not converged
     c_bands:  1 eigenvalues not converged
     c_bands:  3 eigenvalues not converged
     c_bands:  1 eigenvalues not converged
     c_bands:  1 eigenvalues not converged
     c_bands:  2 eigenvalues not converged
     c_bands:  1 eigenvalues not converged
     c_bands:  1 eigenvalues not converged
     c_bands:  1 eigenvalues not converged
     c_bands:  1 eigenvalues not converged
     c_bands:  3 eigenvalues not converged
     c_bands:  1 eigenvalues not converged
     c_bands:  1 eigenvalues not converged
     c_bands:  2 eigenvalues not converged
     c_bands:  1 eigenvalues not converged
     c_bands:  1 eigenvalues not converged
     ethr =  1.00E-02,  avg # of iterations = 11.1

     total energy              =   -1187.11420694 Ry
     Harris-Foulkes estimate   =   -1376.04187093 Ry
     estimated scf accuracy    <     249.27950436 Ry

     iteration #  2     ecut=    40.00 Ry     beta=0.70
     CG style diagonalization
     ethr =  1.00E-02,  avg # of iterations =  8.8

[...]

     End of self-consistent calculation

          k = 0.0000 0.0000 0.0000 (  2601 PWs)   bands (ev):

   -21.9846 -21.4250 -21.4250 -20.1743 -20.1743 -20.1743  -5.0893  -4.7452
     1.7316   1.7316   2.7463   4.1533   4.1533   4.1533   6.1753   6.1753
     6.1753   6.2158   6.2158   6.2158   6.8895   6.8895   6.8895   9.0884
     9.0884   9.0884  16.2683  16.2683  16.2683  16.5871  16.5871  16.5871
    31.9452  31.9452  32.0171  32.0171  32.0171  32.2251  33.4673  34.9807
    34.9807  34.9807  35.4163  35.6738  35.6738  36.8954  36.8954  36.8954
    36.9602  39.4501  39.4501  39.9092  39.9092  39.9092  40.3976  40.3976
    40.3976  41.8499  41.8499  41.8499  41.9860  41.9860  41.9860  43.3107
    43.3107  44.0503  44.0503  44.7982  44.7982  44.7983  48.9305  48.9305
    48.9304  50.4390  50.4394  50.4392  50.9810  53.1612

[...]

     the Fermi energy is    44.4646 ev

!    total energy              =   -1266.24388531 Ry
     Harris-Foulkes estimate   =   -1266.24395379 Ry
     estimated scf accuracy    <       0.00008011 Ry

     The total energy is the sum of the following terms:

     one-electron contribution =     237.30008505 Ry
     hartree contribution      =      72.35873744 Ry
     xc contribution           =    -144.37635479 Ry
     ewald contribution        =   -1431.24082338 Ry
     smearing contrib. (-TS)   =      -0.28552963 Ry

     convergence has been achieved in   8 iterations

     Forces acting on atoms (Ry/au):

     atom    1 type  1   force =     0.00000000    0.00000000    0.00000000
     atom    2 type  1   force =     0.00000000    0.00000000    0.00000000
     atom    3 type  1   force =     0.00000000    0.00000000    0.00000000
     atom    4 type  1   force =     0.00000000    0.00000000    0.00000000
     atom    5 type  1   force =     0.00000000    0.00000000    0.00000000
[...]

[...]

     enthalpy old            =   -1266.2438853146 Ry
     enthalpy new            =   -1269.4248710106 Ry

     CASE: enthalpy_new < enthalpy_old

     small trust_radius: resetting bfgs history

     new trust radius        =       0.5588437895 bohr
     new conv_thr            =       0.0000010000 Ry

[...]

          total   stress  (Ry/bohr**3)                   (kbar)     P=-1069.32
  -0.00726912   0.00000000   0.00000000      -1069.32      0.00      0.00
   0.00000000  -0.00726912   0.00000000          0.00  -1069.32      0.00
   0.00000000   0.00000000  -0.00726912          0.00      0.00  -1069.32

     number of scf cycles    =   3
     number of bfgs steps    =   2

     enthalpy old            =   -1269.4248710106 Ry
     enthalpy new            =   -1268.6478665608 Ry

     CASE: enthalpy_new > enthalpy_old

     new trust radius        =       0.1599908278 bohr

     trust_radius < trust_radius_min

     resetting bfgs history

     Message from routine bfgs:
     history already reset at previous step: stopping
     new conv_thr            =       0.0000010000 Ry

     new unit-cell volume =   1051.62887 a.u.^3 (   155.83532 Ang^3 )

[...]

ATOMIC_POSITIONS (crystal)
Cr       0.000000000   0.500000000   0.250000000
Cr       0.000000000   0.500000000   0.750000000
Cr       0.500000000   0.750000000   0.000000000
Cr       0.500000000   0.250000000   0.000000000
Cr       0.750000000   0.000000000   0.500000000
Cr       0.250000000   0.000000000   0.500000000
Si       0.500000000   0.500000000   0.500000000
Si       0.000000000   0.000000000   0.000000000

     Writing output data file Prototype-La-cP8-Cr3Si.save
     NEW-OLD atomic charge density approx. for the potential
     NEW k-points:
        k(    1) = (   0.0000000   0.0000000   0.0000000), wk =   0.0095238
        k(    2) = (   0.0000000   0.0000000   0.1198937), wk =   0.0190476
        k(    3) = (   0.0000000   0.0000000   0.2397873), wk =   0.0190476
        k(    4) = (   0.0000000   0.0000000   0.3596810), wk =   0.0190476
        k(    5) = (   0.0000000   0.1398760   0.0000000), wk =   0.0190476
        k(    6) = (   0.0000000   0.1398760   0.1198937), wk =   0.0380952
        k(    7) = (   0.0000000   0.1398760   0.2397873), wk =   0.0380952
        k(    8) = (   0.0000000   0.1398760   0.3596810), wk =   0.0380952
        k(    9) = (   0.0000000   0.2797519   0.0000000), wk =   0.0190476
        k(   10) = (   0.0000000   0.2797519   0.1198937), wk =   0.0380952
        k(   11) = (   0.0000000   0.2797519   0.2397873), wk =   0.0380952
        k(   12) = (   0.0000000   0.2797519   0.3596810), wk =   0.0380952
        k(   13) = (   0.0000000  -0.4196279   0.0000000), wk =   0.0095238
        k(   14) = (   0.0000000  -0.4196279   0.1198937), wk =   0.0190476
        k(   15) = (   0.0000000  -0.4196279   0.2397873), wk =   0.0190476
        k(   16) = (   0.0000000  -0.4196279   0.3596810), wk =   0.0190476
        k(   17) = (   0.1678511   0.0000000   0.0000000), wk =   0.0190476
        k(   18) = (   0.1678511   0.0000000   0.1198937), wk =   0.0380952
        k(   19) = (   0.1678511   0.0000000   0.2397873), wk =   0.0380952
        k(   20) = (   0.1678511   0.0000000   0.3596810), wk =   0.0380952
        k(   21) = (   0.1678511   0.1398760   0.0000000), wk =   0.0380952
        k(   22) = (   0.1678511   0.1398760   0.1198937), wk =   0.0761905
        k(   23) = (   0.1678511   0.1398760   0.2397873), wk =   0.0761905
        k(   24) = (   0.1678511   0.1398760   0.3596810), wk =   0.0761905
        k(   25) = (   0.1678511   0.2797519   0.0000000), wk =   0.0380952
        k(   26) = (   0.1678511   0.2797519   0.1198937), wk =   0.0761905
        k(   27) = (   0.1678511   0.2797519   0.2397873), wk =   0.0761905
        k(   28) = (   0.1678511   0.2797519   0.3596810), wk =   0.0761905
        k(   29) = (   0.1678511  -0.4196279   0.0000000), wk =   0.0190476
        k(   30) = (   0.1678511  -0.4196279   0.1198937), wk =   0.0380952
        k(   31) = (   0.1678511  -0.4196279   0.2397873), wk =   0.0380952
        k(   32) = (   0.1678511  -0.4196279   0.3596810), wk =   0.0380952
        k(   33) = (   0.3357023   0.0000000   0.0000000), wk =   0.0190476
        k(   34) = (   0.3357023   0.0000000   0.1198937), wk =   0.0380952
        k(   35) = (   0.3357023   0.0000000   0.2397873), wk =   0.0380952
        k(   36) = (   0.3357023   0.0000000   0.3596810), wk =   0.0380952
        k(   37) = (   0.3357023   0.1398760   0.0000000), wk =   0.0380952
        k(   38) = (   0.3357023   0.1398760   0.1198937), wk =   0.0761905
        k(   39) = (   0.3357023   0.1398760   0.2397873), wk =   0.0761905
        k(   40) = (   0.3357023   0.1398760   0.3596810), wk =   0.0761905
        k(   41) = (   0.3357023   0.2797519   0.0000000), wk =   0.0380952
        k(   42) = (   0.3357023   0.2797519   0.1198937), wk =   0.0761905
        k(   43) = (   0.3357023   0.2797519   0.2397873), wk =   0.0761905
        k(   44) = (   0.3357023   0.2797519   0.3596810), wk =   0.0761905
        k(   45) = (   0.3357023  -0.4196279   0.0000000), wk =   0.0190476
        k(   46) = (   0.3357023  -0.4196279   0.1198937), wk =   0.0380952
        k(   47) = (   0.3357023  -0.4196279   0.2397873), wk =   0.0380952
        k(   48) = (   0.3357023  -0.4196279   0.3596810), wk =   0.0380952

[...]

     The maximum number of steps has been reached.

     End of BFGS Geometry Optimization
Begin final coordinates
     new unit-cell volume =   1051.62887 a.u.^3 (   155.83532 Ang^3 )

CELL_PARAMETERS (alat=  8.53457320)
   1.191531953   0.000000000   0.000000000
   0.000000000   1.191531953   0.000000000
   0.000000000   0.000000000   1.191531953

ATOMIC_POSITIONS (crystal)
Cr       0.000000000   0.500000000   0.250000000
Cr       0.000000000   0.500000000   0.750000000
Cr       0.500000000   0.750000000   0.000000000
Cr       0.500000000   0.250000000   0.000000000
Cr       0.750000000   0.000000000   0.500000000
Cr       0.250000000   0.000000000   0.500000000
Si       0.500000000   0.500000000   0.500000000
Si       0.000000000   0.000000000   0.000000000
End final coordinates

     A final scf calculation at the relaxed structure.
     The G-vectors are recalculated for the final unit cell
     Results may differ from those at the preceding step.

     bravais-lattice index     =            0
     lattice parameter (alat)  =       8.5346  a.u.
     unit-cell volume          =    1051.6289 (a.u.)^3
     number of atoms/cell      =            8
     number of atomic types    =            2
     number of electrons       =       130.00
     number of Kohn-Sham states=           78
     kinetic-energy cutoff     =      40.0000  Ry
     charge density cutoff     =     160.0000  Ry
     convergence threshold     =      1.0E-06
     mixing beta               =       0.7000
     number of iterations used =            8  plain     mixing
     Exchange-correlation      = SLA-PZ-NOGX-NOGC ( 1 1 0 0 0)
     EXX-fraction              =        0.00

     celldm(1)=   8.534573  celldm(2)=   0.000000  celldm(3)=   0.000000
     celldm(4)=   0.000000  celldm(5)=   0.000000  celldm(6)=   0.000000

     crystal axes: (cart. coord. in units of alat)
               a(1) = (   1.191532   0.000000   0.000000 )
               a(2) = (   0.000000   1.191532   0.000000 )
               a(3) = (   0.000000   0.000000   1.191532 )

     reciprocal axes: (cart. coord. in units 2 pi/alat)
               b(1) = (  0.839256  0.000000  0.000000 )
               b(2) = (  0.000000  0.839256  0.000000 )
               b(3) = (  0.000000  0.000000  0.839256 )

     PseudoPot. # 1 for Eu read from file:
     /home/cwx6513/pp.La/Eu.UPF
     MD5 check sum: 5efdbbfc50c6a10138933a6429836ad2
     Pseudo is Norm-conserving, Zval = 17.0
     Generated in analytical, separable form
     Using radial grid of 1261 points,  6 beta functions with:
                l(1) =   0
                l(2) =   0
                l(3) =   1
                l(4) =   1
                l(5) =   2
                l(6) =   3

     PseudoPot. # 2 for Nd read from file:
     /home/cwx6513/pp.La/Nd.UPF
     MD5 check sum: c66c5b6abe7b5840ced9b1e244e3bed6
     Pseudo is Norm-conserving, Zval = 14.0
     Generated in analytical, separable form
     Using radial grid of 1257 points,  6 beta functions with:
                l(1) =   0
                l(2) =   0
                l(3) =   1
                l(4) =   1
                l(5) =   2
                l(6) =   3

     atomic species   valence    mass     pseudopotential
        Cr            17.00    51.99610     Eu( 1.00)
        Si            14.00    28.08550     Nd( 1.00)

     48 Sym. Ops., with inversion, found (24 have fractional translation)

   Cartesian axes

     site n.     atom                  positions (alat units)
         1           Cr  tau(   1) = (   0.0000000   0.5957660   0.2978830  )
         2           Cr  tau(   2) = (   0.0000000   0.5957660   0.8936490  )
         3           Cr  tau(   3) = (   0.5957660   0.8936490   0.0000000  )
         4           Cr  tau(   4) = (   0.5957660   0.2978830   0.0000000  )
         5           Cr  tau(   5) = (   0.8936490   0.0000000   0.5957660  )
         6           Cr  tau(   6) = (   0.2978830   0.0000000   0.5957660  )
         7           Si  tau(   7) = (   0.5957660   0.5957660   0.5957660  )
         8           Si  tau(   8) = (   0.0000000   0.0000000   0.0000000  )

     number of k points=    48  gaussian smearing, width (Ry)=  0.1000
                       cart. coord. in units 2pi/alat
        k(    1) = (   0.0000000   0.0000000   0.0000000), wk =   0.0095238
        k(    2) = (   0.0000000   0.0000000   0.1198937), wk =   0.0190476
        k(    3) = (   0.0000000   0.0000000   0.2397873), wk =   0.0190476
        k(    4) = (   0.0000000   0.0000000   0.3596810), wk =   0.0190476
        k(    5) = (   0.0000000   0.1398760   0.0000000), wk =   0.0190476
        k(    6) = (   0.0000000   0.1398760   0.1198937), wk =   0.0380952
        k(    7) = (   0.0000000   0.1398760   0.2397873), wk =   0.0380952
        k(    8) = (   0.0000000   0.1398760   0.3596810), wk =   0.0380952
        k(    9) = (   0.0000000   0.2797519   0.0000000), wk =   0.0190476
        k(   10) = (   0.0000000   0.2797519   0.1198937), wk =   0.0380952
        k(   11) = (   0.0000000   0.2797519   0.2397873), wk =   0.0380952
        k(   12) = (   0.0000000   0.2797519   0.3596810), wk =   0.0380952
        k(   13) = (   0.0000000  -0.4196279   0.0000000), wk =   0.0095238
        k(   14) = (   0.0000000  -0.4196279   0.1198937), wk =   0.0190476
        k(   15) = (   0.0000000  -0.4196279   0.2397873), wk =   0.0190476
        k(   16) = (   0.0000000  -0.4196279   0.3596810), wk =   0.0190476
        k(   17) = (   0.1678511   0.0000000   0.0000000), wk =   0.0190476
        k(   18) = (   0.1678511   0.0000000   0.1198937), wk =   0.0380952
        k(   19) = (   0.1678511   0.0000000   0.2397873), wk =   0.0380952
        k(   20) = (   0.1678511   0.0000000   0.3596810), wk =   0.0380952
        k(   21) = (   0.1678511   0.1398760   0.0000000), wk =   0.0380952
        k(   22) = (   0.1678511   0.1398760   0.1198937), wk =   0.0761905
        k(   23) = (   0.1678511   0.1398760   0.2397873), wk =   0.0761905
        k(   24) = (   0.1678511   0.1398760   0.3596810), wk =   0.0761905
        k(   25) = (   0.1678511   0.2797519   0.0000000), wk =   0.0380952
        k(   26) = (   0.1678511   0.2797519   0.1198937), wk =   0.0761905
        k(   27) = (   0.1678511   0.2797519   0.2397873), wk =   0.0761905
        k(   28) = (   0.1678511   0.2797519   0.3596810), wk =   0.0761905
        k(   29) = (   0.1678511  -0.4196279   0.0000000), wk =   0.0190476
        k(   30) = (   0.1678511  -0.4196279   0.1198937), wk =   0.0380952
        k(   31) = (   0.1678511  -0.4196279   0.2397873), wk =   0.0380952
        k(   32) = (   0.1678511  -0.4196279   0.3596810), wk =   0.0380952
        k(   33) = (   0.3357023   0.0000000   0.0000000), wk =   0.0190476
        k(   34) = (   0.3357023   0.0000000   0.1198937), wk =   0.0380952
        k(   35) = (   0.3357023   0.0000000   0.2397873), wk =   0.0380952
        k(   36) = (   0.3357023   0.0000000   0.3596810), wk =   0.0380952
        k(   37) = (   0.3357023   0.1398760   0.0000000), wk =   0.0380952
        k(   38) = (   0.3357023   0.1398760   0.1198937), wk =   0.0761905
        k(   39) = (   0.3357023   0.1398760   0.2397873), wk =   0.0761905
        k(   40) = (   0.3357023   0.1398760   0.3596810), wk =   0.0761905
        k(   41) = (   0.3357023   0.2797519   0.0000000), wk =   0.0380952
        k(   42) = (   0.3357023   0.2797519   0.1198937), wk =   0.0761905
        k(   43) = (   0.3357023   0.2797519   0.2397873), wk =   0.0761905
        k(   44) = (   0.3357023   0.2797519   0.3596810), wk =   0.0761905
        k(   45) = (   0.3357023  -0.4196279   0.0000000), wk =   0.0190476
        k(   46) = (   0.3357023  -0.4196279   0.1198937), wk =   0.0380952
        k(   47) = (   0.3357023  -0.4196279   0.2397873), wk =   0.0380952
        k(   48) = (   0.3357023  -0.4196279   0.3596810), wk =   0.0380952

     Largest allocated arrays     est. size (Mb)     dimensions
     Largest temporary arrays     est. size (Mb)     dimensions

     Initial potential from superposition of free atoms

     Starting from uniform charge
     Starting wfc are    0 randomized atomic wfcs

     Writing output data file Prototype-La-cP8-Cr3Si.save

     Self-consistent Calculation

[...]

     iteration # 10     ecut=    40.00 Ry     beta=0.70
     CG style diagonalization
     c_bands:  1 eigenvalues not converged
     ethr =  7.13E-07,  avg # of iterations =  4.2

[...]

     total energy              =   -1271.74368015 Ry
     Harris-Foulkes estimate   =   -1271.74368120 Ry
     estimated scf accuracy    <       0.00000167 Ry

     iteration # 13     ecut=    40.00 Ry     beta=0.70
     CG style diagonalization
     ethr =  1.29E-09,  avg # of iterations =  4.8

     End of self-consistent calculation

[...]

          k = 0.3357-0.4196 0.3597 (  4516 PWs)   bands (ev):

   -38.8329 -38.8238 -38.7979 -38.7978 -38.7727 -38.7632 -24.0657 -24.0657
   -12.0651 -11.9890 -11.7981 -11.7970 -11.6409 -11.6399 -11.6233 -11.5727
   -11.4832 -11.4673 -11.4468 -11.4334 -11.3987 -11.3986 -11.3741 -11.3723
   -11.3603 -11.3586  -2.3815  -2.3801  -2.3747  -2.3742  -2.3714  -2.3713
    18.2985  18.3092  18.4302  18.4856  18.6044  18.6064  19.1458  19.1525
    19.2264  19.2357  19.4525  19.4618  19.6054  19.6212  19.7986  19.9466
    20.3459  20.3601  20.6098  20.7430  21.2142  21.2414  21.8033  21.9420
    22.0429  22.0693  22.4694  22.4760  22.7704  22.9028  24.2431  24.2491
    24.5597  24.6011  24.8171  24.8579  25.8963  26.0617  26.1415  26.2512
    26.2953  26.3148  26.6669  26.7207  27.1348  27.2303

     the Fermi energy is    24.1723 ev

!    total energy              =   -1271.74368124 Ry
     Harris-Foulkes estimate   =   -1271.74368176 Ry
     estimated scf accuracy    <       0.00000058 Ry

     The total energy is the sum of the following terms:

     one-electron contribution =     -72.85639720 Ry
     hartree contribution      =     138.29995599 Ry
     xc contribution           =    -135.50810763 Ry
     ewald contribution        =   -1201.17703886 Ry
     smearing contrib. (-TS)   =      -0.50209354 Ry

     convergence has been achieved in  13 iterations

     Forces acting on atoms (Ry/au):

     atom    1 type  1   force =     0.00000000    0.00000000    0.00000000
     atom    2 type  1   force =     0.00000000    0.00000000    0.00000000
     atom    3 type  1   force =     0.00000000    0.00000000    0.00000000
     atom    4 type  1   force =     0.00000000    0.00000000    0.00000000
     atom    5 type  1   force =     0.00000000    0.00000000    0.00000000
     atom    6 type  1   force =     0.00000000    0.00000000    0.00000000
     atom    7 type  2   force =     0.00000000    0.00000000    0.00000000
     atom    8 type  2   force =     0.00000000    0.00000000    0.00000000

     Total force =     0.000000     Total SCF correction =     0.000000

     entering subroutine stress ...

          total   stress  (Ry/bohr**3)                   (kbar)     P=  -76.76
  -0.00052180   0.00000000   0.00000000        -76.76      0.00      0.00
   0.00000000  -0.00052180   0.00000000          0.00    -76.76      0.00
   0.00000000   0.00000000  -0.00052180          0.00      0.00    -76.76

     Writing output data file Prototype-La-cP8-Cr3Si.save

     General routines

     Parallel routines

   This run was terminated on:  21:39:43  22Mar2018

   JOB DONE.