     Program PWSCF v.5.0.2 starts on 22Mar2018 at 21:15: 5

     Current dimensions of program PWSCF are:
     Max number of different atomic species (ntypx) = 10
     Max number of k-points (npk) =  40000
     Max angular momentum in pseudopotentials (lmaxx) =  3
     Waiting for input...
     Reading input from standard input

     Subspace diagonalization in iterative solution of the eigenvalue problem:
     a serial algorithm will be used

     bravais-lattice index     =            0
     lattice parameter (alat)  =      12.0168  a.u.
     unit-cell volume          =    1187.3413 (a.u.)^3
     number of atoms/cell      =            8
     number of atomic types    =            2
     number of electrons       =       130.00
     number of Kohn-Sham states=           78
     kinetic-energy cutoff     =      40.0000  Ry
     charge density cutoff     =     160.0000  Ry
     convergence threshold     =      1.0E-04
     mixing beta               =       0.7000
     number of iterations used =            8  plain     mixing
     Exchange-correlation      = SLA-PZ-NOGX-NOGC ( 1 1 0 0 0)
     EXX-fraction              =        0.00
     nstep                     =           50

     celldm(1)=  12.016801  celldm(2)=   0.000000  celldm(3)=   0.000000
     celldm(4)=   0.000000  celldm(5)=   0.000000  celldm(6)=   0.000000

     crystal axes: (cart. coord. in units of alat)
               a(1) = (   1.000000   0.000000   0.000000 )
               a(2) = (  -0.500000   0.866025   0.000000 )
               a(3) = (   0.000000   0.000000   0.790093 )

     reciprocal axes: (cart. coord. in units 2 pi/alat)
               b(1) = (  1.000000  0.577350  0.000000 )
               b(2) = (  0.000000  1.154701  0.000000 )
               b(3) = (  0.000000  0.000000  1.265674 )

     PseudoPot. # 1 for Eu read from file:
     /home/cwx6513/pp.La/Eu.UPF
     MD5 check sum: 5efdbbfc50c6a10138933a6429836ad2
     Pseudo is Norm-conserving, Zval = 17.0
     Generated in analytical, separable form
     Using radial grid of 1261 points,  6 beta functions with:
                l(1) =   0
                l(2) =   0
                l(3) =   1
                l(4) =   1
                l(5) =   2
                l(6) =   3

     PseudoPot. # 2 for Nd read from file:
     /home/cwx6513/pp.La/Nd.UPF
     MD5 check sum: c66c5b6abe7b5840ced9b1e244e3bed6
     Pseudo is Norm-conserving, Zval = 14.0
     Generated in analytical, separable form
     Using radial grid of 1257 points,  6 beta functions with:
                l(1) =   0
                l(2) =   0
                l(3) =   1
                l(4) =   1
                l(5) =   2
                l(6) =   3

     atomic species   valence    mass     pseudopotential
        Mg            17.00    24.30500     Eu( 1.00)
        Cd            14.00   112.41100     Nd( 1.00)

     24 Sym. Ops., with inversion, found (12 have fractional translation)

   Cartesian axes

     site n.     atom                  positions (alat units)
         1           Mg  tau(   1) = (   0.2478935   0.7204716   0.1975233  )
         2           Mg  tau(   2) = (   0.7478935   0.1455538   0.5925699  )
         3           Mg  tau(   3) = (   0.2521065   0.1455538   0.5925699  )
         4           Mg  tau(   4) = (  -0.2478935   0.7204716   0.1975233  )
         5           Mg  tau(   5) = (   0.0000000   0.2911075   0.1975233  )
         6           Mg  tau(   6) = (   0.5000000   0.5749179   0.5925699  )
         7           Cd  tau(   7) = (   0.5000005   0.2886748   0.1975233  )
         8           Cd  tau(   8) = (  -0.0000005   0.5773506   0.5925699  )

     number of k points=    64  gaussian smearing, width (Ry)=  0.1000
                       cart. coord. in units 2pi/alat
        k(    1) = (   0.0000000   0.0000000   0.0000000), wk =   0.0095238
        k(    2) = (   0.0000000   0.0000000   0.1808105), wk =   0.0190476
        k(    3) = (   0.0000000   0.0000000   0.3616210), wk =   0.0190476
        k(    4) = (   0.0000000   0.0000000   0.5424315), wk =   0.0190476
        k(    5) = (   0.0000000   0.1924501   0.0000000), wk =   0.0190476
        k(    6) = (   0.0000000   0.1924501   0.1808105), wk =   0.0380952
        k(    7) = (   0.0000000   0.1924501   0.3616210), wk =   0.0380952
        k(    8) = (   0.0000000   0.1924501   0.5424315), wk =   0.0380952
        k(    9) = (   0.0000000   0.3849002   0.0000000), wk =   0.0190476
        k(   10) = (   0.0000000   0.3849002   0.1808105), wk =   0.0380952
        k(   11) = (   0.0000000   0.3849002   0.3616210), wk =   0.0380952
        k(   12) = (   0.0000000   0.3849002   0.5424315), wk =   0.0380952
        k(   13) = (   0.0000000  -0.5773503   0.0000000), wk =   0.0095238
        k(   14) = (   0.0000000  -0.5773503   0.1808105), wk =   0.0190476
        k(   15) = (   0.0000000  -0.5773503   0.3616210), wk =   0.0190476
        k(   16) = (   0.0000000  -0.5773503   0.5424315), wk =   0.0190476
        k(   17) = (   0.2000000   0.1154701   0.0000000), wk =   0.0190476
        k(   18) = (   0.2000000   0.1154701   0.1808105), wk =   0.0380952
        k(   19) = (   0.2000000   0.1154701   0.3616210), wk =   0.0380952
        k(   20) = (   0.2000000   0.1154701   0.5424315), wk =   0.0380952
        k(   21) = (   0.2000000   0.3079201   0.0000000), wk =   0.0190476
        k(   22) = (   0.2000000   0.3079201   0.1808105), wk =   0.0380952
        k(   23) = (   0.2000000   0.3079201   0.3616210), wk =   0.0380952
        k(   24) = (   0.2000000   0.3079201   0.5424315), wk =   0.0380952
        k(   25) = (   0.2000000   0.5003702   0.0000000), wk =   0.0190476
        k(   26) = (   0.2000000   0.5003702   0.1808105), wk =   0.0380952
        k(   27) = (   0.2000000   0.5003702   0.3616210), wk =   0.0380952
        k(   28) = (   0.2000000   0.5003702   0.5424315), wk =   0.0380952
        k(   29) = (   0.2000000  -0.4618802   0.0000000), wk =   0.0190476
        k(   30) = (   0.2000000  -0.4618802   0.1808105), wk =   0.0380952
        k(   31) = (   0.2000000  -0.4618802   0.3616210), wk =   0.0380952
        k(   32) = (   0.2000000  -0.4618802   0.5424315), wk =   0.0380952
        k(   33) = (   0.2000000  -0.2694301   0.0000000), wk =   0.0190476
        k(   34) = (   0.2000000  -0.2694301   0.1808105), wk =   0.0380952
        k(   35) = (   0.2000000  -0.2694301   0.3616210), wk =   0.0380952
        k(   36) = (   0.2000000  -0.2694301   0.5424315), wk =   0.0380952
        k(   37) = (   0.2000000  -0.0769800   0.0000000), wk =   0.0190476
        k(   38) = (   0.2000000  -0.0769800   0.1808105), wk =   0.0380952
        k(   39) = (   0.2000000  -0.0769800   0.3616210), wk =   0.0380952
        k(   40) = (   0.2000000  -0.0769800   0.5424315), wk =   0.0380952
        k(   41) = (   0.4000000   0.2309401   0.0000000), wk =   0.0190476
        k(   42) = (   0.4000000   0.2309401   0.1808105), wk =   0.0380952
        k(   43) = (   0.4000000   0.2309401   0.3616210), wk =   0.0380952
        k(   44) = (   0.4000000   0.2309401   0.5424315), wk =   0.0380952
        k(   45) = (   0.4000000   0.4233902   0.0000000), wk =   0.0190476
        k(   46) = (   0.4000000   0.4233902   0.1808105), wk =   0.0380952
        k(   47) = (   0.4000000   0.4233902   0.3616210), wk =   0.0380952
        k(   48) = (   0.4000000   0.4233902   0.5424315), wk =   0.0380952
        k(   49) = (   0.4000000   0.6158403   0.0000000), wk =   0.0190476
        k(   50) = (   0.4000000   0.6158403   0.1808105), wk =   0.0380952
        k(   51) = (   0.4000000   0.6158403   0.3616210), wk =   0.0380952
        k(   52) = (   0.4000000   0.6158403   0.5424315), wk =   0.0380952
        k(   53) = (   0.4000000  -0.3464102   0.0000000), wk =   0.0190476
        k(   54) = (   0.4000000  -0.3464102   0.1808105), wk =   0.0380952
        k(   55) = (   0.4000000  -0.3464102   0.3616210), wk =   0.0380952
        k(   56) = (   0.4000000  -0.3464102   0.5424315), wk =   0.0380952
        k(   57) = (   0.4000000  -0.1539601   0.0000000), wk =   0.0190476
        k(   58) = (   0.4000000  -0.1539601   0.1808105), wk =   0.0380952
        k(   59) = (   0.4000000  -0.1539601   0.3616210), wk =   0.0380952
        k(   60) = (   0.4000000  -0.1539601   0.5424315), wk =   0.0380952
        k(   61) = (   0.4000000   0.0384900   0.0000000), wk =   0.0190476
        k(   62) = (   0.4000000   0.0384900   0.1808105), wk =   0.0380952
        k(   63) = (   0.4000000   0.0384900   0.3616210), wk =   0.0380952
        k(   64) = (   0.4000000   0.0384900   0.5424315), wk =   0.0380952

     Largest allocated arrays     est. size (Mb)     dimensions
     Largest temporary arrays     est. size (Mb)     dimensions

     Initial potential from superposition of free atoms

     Starting from uniform charge
     Starting wfc are    0 randomized atomic wfcs

     Self-consistent Calculation

     iteration #  1     ecut=    40.00 Ry     beta=0.70
     CG style diagonalization
     c_bands:  5 eigenvalues not converged
     c_bands:  5 eigenvalues not converged
     c_bands:  2 eigenvalues not converged
     c_bands:  1 eigenvalues not converged
     c_bands:  4 eigenvalues not converged
     c_bands:  4 eigenvalues not converged
     c_bands:  1 eigenvalues not converged
     c_bands:  3 eigenvalues not converged
     c_bands:  4 eigenvalues not converged
     c_bands:  3 eigenvalues not converged
     c_bands:  3 eigenvalues not converged
     c_bands:  1 eigenvalues not converged
     c_bands:  1 eigenvalues not converged
     c_bands:  3 eigenvalues not converged
     c_bands:  5 eigenvalues not converged
     c_bands:  4 eigenvalues not converged
     c_bands:  5 eigenvalues not converged
     ethr =  1.00E-02,  avg # of iterations = 14.4

     total energy              =   -1132.84412183 Ry
     Harris-Foulkes estimate   =   -1521.73857252 Ry
     estimated scf accuracy    <     504.78448668 Ry

[...]

     iteration #  4     ecut=    40.00 Ry     beta=0.70
     CG style diagonalization
     ethr =  1.00E-02,  avg # of iterations =  6.9

[...]

     End of self-consistent calculation

          k = 0.0000 0.0000 0.0000 (  5047 PWs)   bands (ev):

   -42.0591 -41.9997 -41.9997 -41.9899 -41.9661 -41.9660 -27.5671 -27.5659
   -15.0345 -15.0011 -14.8737 -14.8300 -14.8300 -14.8139 -14.8138 -14.7844
   -14.7844 -14.6560 -14.5304 -14.5304 -14.4390 -14.4322 -14.4321 -14.4257
   -14.4208 -14.4208  -5.7804  -5.7672  -5.7593  -5.7593  -5.7504  -5.7504
    14.2915  15.0212  15.0212  15.0298  15.0676  15.6843  15.6844  15.6846
    15.7796  15.7796  15.8649  17.2187  17.5227  17.5227  17.8804  17.8804
    17.9465  18.4213  18.4449  18.4449  18.7181  18.7181  18.8535  18.8536
    18.9209  18.9209  19.1721  19.1721  19.7651  19.8000  21.0348  21.4162
    21.4609  21.8749  21.8749  22.2508  22.3385  22.3385  22.6366  22.6366
    23.0681  23.0681  24.5307  24.5308  25.1370  25.7466

[...]

     the Fermi energy is    20.7592 ev

!    total energy              =   -1271.98862809 Ry
     Harris-Foulkes estimate   =   -1271.98867200 Ry
     estimated scf accuracy    <       0.00005067 Ry

[...]
        k(   11) = (   0.0000000   0.3960427   0.3665356), wk =   0.0380952
        k(   12) = (   0.0000000   0.3960427   0.5498034), wk =   0.0380952
        k(   13) = (   0.0000000  -0.5940641   0.0000000), wk =   0.0095238
        k(   14) = (   0.0000000  -0.5940641   0.1832678), wk =   0.0190476
        k(   15) = (   0.0000000  -0.5940641   0.3665356), wk =   0.0190476
        k(   16) = (   0.0000000  -0.5940641   0.5498034), wk =   0.0190476
        k(   17) = (   0.2057898   0.1188128   0.0000000), wk =   0.0190476
        k(   18) = (   0.2057898   0.1188128   0.1832678), wk =   0.0380952
        k(   19) = (   0.2057898   0.1188128   0.3665356), wk =   0.0380952
        k(   20) = (   0.2057898   0.1188128   0.5498034), wk =   0.0380952
        k(   21) = (   0.2057898   0.3168342   0.0000000), wk =   0.0190476
        k(   22) = (   0.2057898   0.3168342   0.1832678), wk =   0.0380952
        k(   23) = (   0.2057898   0.3168342   0.3665356), wk =   0.0380952
        k(   24) = (   0.2057898   0.3168342   0.5498034), wk =   0.0380952
        k(   25) = (   0.2057898   0.5148555   0.0000000), wk =   0.0190476
        k(   26) = (   0.2057898   0.5148555   0.1832678), wk =   0.0380952
        k(   27) = (   0.2057898   0.5148555   0.3665356), wk =   0.0380952
        k(   28) = (   0.2057898   0.5148555   0.5498034), wk =   0.0380952
        k(   29) = (   0.2057898  -0.4752513   0.0000000), wk =   0.0190476
        k(   30) = (   0.2057898  -0.4752513   0.1832678), wk =   0.0380952
        k(   31) = (   0.2057898  -0.4752513   0.3665356), wk =   0.0380952
        k(   32) = (   0.2057898  -0.4752513   0.5498034), wk =   0.0380952
        k(   33) = (   0.2057898  -0.2772299   0.0000000), wk =   0.0190476
        k(   34) = (   0.2057898  -0.2772299   0.1832678), wk =   0.0380952
        k(   35) = (   0.2057898  -0.2772299   0.3665356), wk =   0.0380952
        k(   36) = (   0.2057898  -0.2772299   0.5498034), wk =   0.0380952
        k(   37) = (   0.2057898  -0.0792085   0.0000000), wk =   0.0190476
        k(   38) = (   0.2057898  -0.0792085   0.1832678), wk =   0.0380952
        k(   39) = (   0.2057898  -0.0792085   0.3665356), wk =   0.0380952
        k(   40) = (   0.2057898  -0.0792085   0.5498034), wk =   0.0380952
        k(   41) = (   0.4115797   0.2376256   0.0000000), wk =   0.0190476
        k(   42) = (   0.4115797   0.2376256   0.1832678), wk =   0.0380952
        k(   43) = (   0.4115797   0.2376256   0.3665356), wk =   0.0380952
        k(   44) = (   0.4115797   0.2376256   0.5498034), wk =   0.0380952
        k(   45) = (   0.4115797   0.4356470   0.0000000), wk =   0.0190476
        k(   46) = (   0.4115797   0.4356470   0.1832678), wk =   0.0380952
        k(   47) = (   0.4115797   0.4356470   0.3665356), wk =   0.0380952
        k(   48) = (   0.4115797   0.4356470   0.5498034), wk =   0.0380952
        k(   49) = (   0.4115797   0.6336684   0.0000000), wk =   0.0190476
        k(   50) = (   0.4115797   0.6336684   0.1832678), wk =   0.0380952
        k(   51) = (   0.4115797   0.6336684   0.3665356), wk =   0.0380952
        k(   52) = (   0.4115797   0.6336684   0.5498034), wk =   0.0380952
        k(   53) = (   0.4115797  -0.3564384   0.0000000), wk =   0.0190476
        k(   54) = (   0.4115797  -0.3564384   0.1832678), wk =   0.0380952
        k(   55) = (   0.4115797  -0.3564384   0.3665356), wk =   0.0380952
        k(   56) = (   0.4115797  -0.3564384   0.5498034), wk =   0.0380952
        k(   57) = (   0.4115797  -0.1584171   0.0000000), wk =   0.0190476
        k(   58) = (   0.4115797  -0.1584171   0.1832678), wk =   0.0380952
        k(   59) = (   0.4115797  -0.1584171   0.3665356), wk =   0.0380952
        k(   60) = (   0.4115797  -0.1584171   0.5498034), wk =   0.0380952
        k(   61) = (   0.4115797   0.0396043   0.0000000), wk =   0.0190476
        k(   62) = (   0.4115797   0.0396043   0.1832678), wk =   0.0380952
        k(   63) = (   0.4115797   0.0396043   0.3665356), wk =   0.0380952
        k(   64) = (   0.4115797   0.0396043   0.5498034), wk =   0.0380952

[...]

     The maximum number of steps has been reached.

     End of BFGS Geometry Optimization
Begin final coordinates
     new unit-cell volume =   1106.43321 a.u.^3 (   163.95648 Ang^3 )

CELL_PARAMETERS (alat= 12.01680127)
   0.971865308   0.000000000   0.000000000
  -0.485932654   0.841660046   0.000000000
   0.000000000   0.000000000   0.779499382

ATOMIC_POSITIONS (crystal)
Mg       0.664266672   0.832133336   0.250000000
Mg       0.832133336   0.167866664   0.750000000
Mg       0.335733328   0.167866664   0.750000000
Mg       0.167866664   0.832133336   0.250000000
Mg       0.167866664   0.335733328   0.250000000
Mg       0.832133336   0.664266672   0.750000000
Cd       0.666667000   0.333333000   0.250000000
Cd       0.333333000   0.666667000   0.750000000
End final coordinates

     A final scf calculation at the relaxed structure.
     The G-vectors are recalculated for the final unit cell
     Results may differ from those at the preceding step.

     bravais-lattice index     =            0
     lattice parameter (alat)  =      12.0168  a.u.
     unit-cell volume          =    1106.4332 (a.u.)^3
     number of atoms/cell      =            8
     number of atomic types    =            2
     number of electrons       =       130.00
     number of Kohn-Sham states=           78
     kinetic-energy cutoff     =      40.0000  Ry
     charge density cutoff     =     160.0000  Ry
     convergence threshold     =      2.7E-06
     mixing beta               =       0.7000
     number of iterations used =            8  plain     mixing
     Exchange-correlation      = SLA-PZ-NOGX-NOGC ( 1 1 0 0 0)
     EXX-fraction              =        0.00

     celldm(1)=  12.016801  celldm(2)=   0.000000  celldm(3)=   0.000000
     celldm(4)=   0.000000  celldm(5)=   0.000000  celldm(6)=   0.000000

     crystal axes: (cart. coord. in units of alat)
               a(1) = (   0.971865   0.000000   0.000000 )
               a(2) = (  -0.485933   0.841660   0.000000 )
               a(3) = (   0.000000   0.000000   0.779499 )

     reciprocal axes: (cart. coord. in units 2 pi/alat)
               b(1) = (  1.028949  0.594064  0.000000 )
               b(2) = (  0.000000  1.188128  0.000000 )
               b(3) = (  0.000000  0.000000  1.282875 )

     PseudoPot. # 1 for Eu read from file:
     /home/cwx6513/pp.La/Eu.UPF
     MD5 check sum: 5efdbbfc50c6a10138933a6429836ad2
     Pseudo is Norm-conserving, Zval = 17.0
     Generated in analytical, separable form
     Using radial grid of 1261 points,  6 beta functions with:
                l(1) =   0
                l(2) =   0
                l(3) =   1
                l(4) =   1
                l(5) =   2
                l(6) =   3

     PseudoPot. # 2 for Nd read from file:
     /home/cwx6513/pp.La/Nd.UPF
     MD5 check sum: c66c5b6abe7b5840ced9b1e244e3bed6
     Pseudo is Norm-conserving, Zval = 14.0
     Generated in analytical, separable form
     Using radial grid of 1257 points,  6 beta functions with:
                l(1) =   0
                l(2) =   0
                l(3) =   1
                l(4) =   1
                l(5) =   2
                l(6) =   3

     atomic species   valence    mass     pseudopotential
        Mg            17.00    24.30500     Eu( 1.00)
        Cd            14.00   112.41100     Nd( 1.00)

     24 Sym. Ops., with inversion, found (12 have fractional translation)

   Cartesian axes

     site n.     atom                  positions (alat units)
         1           Mg  tau(   1) = (   0.2412170   0.7003734   0.1948748  )
         2           Mg  tau(   2) = (   0.7271496   0.1412867   0.5846245  )
         3           Mg  tau(   3) = (   0.2447157   0.1412867   0.5846245  )
         4           Mg  tau(   4) = (  -0.2412170   0.7003734   0.1948748  )
         5           Mg  tau(   5) = (   0.0000000   0.2825733   0.1948748  )
         6           Mg  tau(   6) = (   0.4859327   0.5590867   0.5846245  )
         7           Cd  tau(   7) = (   0.4859331   0.2805531   0.1948748  )
         8           Cd  tau(   8) = (  -0.0000005   0.5611070   0.5846245  )

     number of k points=    64  gaussian smearing, width (Ry)=  0.1000
                       cart. coord. in units 2pi/alat
        k(    1) = (   0.0000000   0.0000000   0.0000000), wk =   0.0095238
        k(    2) = (   0.0000000   0.0000000   0.1832678), wk =   0.0190476
        k(    3) = (   0.0000000   0.0000000   0.3665356), wk =   0.0190476
        k(    4) = (   0.0000000   0.0000000   0.5498034), wk =   0.0190476
        k(    5) = (   0.0000000   0.1980214   0.0000000), wk =   0.0190476
        k(    6) = (   0.0000000   0.1980214   0.1832678), wk =   0.0380952
        k(    7) = (   0.0000000   0.1980214   0.3665356), wk =   0.0380952
        k(    8) = (   0.0000000   0.1980214   0.5498034), wk =   0.0380952
        k(    9) = (   0.0000000   0.3960427   0.0000000), wk =   0.0190476
        k(   10) = (   0.0000000   0.3960427   0.1832678), wk =   0.0380952
        k(   11) = (   0.0000000   0.3960427   0.3665356), wk =   0.0380952
        k(   12) = (   0.0000000   0.3960427   0.5498034), wk =   0.0380952
        k(   13) = (   0.0000000  -0.5940641   0.0000000), wk =   0.0095238
        k(   14) = (   0.0000000  -0.5940641   0.1832678), wk =   0.0190476
        k(   15) = (   0.0000000  -0.5940641   0.3665356), wk =   0.0190476
        k(   16) = (   0.0000000  -0.5940641   0.5498034), wk =   0.0190476
        k(   17) = (   0.2057898   0.1188128   0.0000000), wk =   0.0190476
        k(   18) = (   0.2057898   0.1188128   0.1832678), wk =   0.0380952
        k(   19) = (   0.2057898   0.1188128   0.3665356), wk =   0.0380952
        k(   20) = (   0.2057898   0.1188128   0.5498034), wk =   0.0380952
        k(   21) = (   0.2057898   0.3168342   0.0000000), wk =   0.0190476
        k(   22) = (   0.2057898   0.3168342   0.1832678), wk =   0.0380952
        k(   23) = (   0.2057898   0.3168342   0.3665356), wk =   0.0380952
        k(   24) = (   0.2057898   0.3168342   0.5498034), wk =   0.0380952
        k(   25) = (   0.2057898   0.5148555   0.0000000), wk =   0.0190476
        k(   26) = (   0.2057898   0.5148555   0.1832678), wk =   0.0380952
        k(   27) = (   0.2057898   0.5148555   0.3665356), wk =   0.0380952
        k(   28) = (   0.2057898   0.5148555   0.5498034), wk =   0.0380952
        k(   29) = (   0.2057898  -0.4752513   0.0000000), wk =   0.0190476
        k(   30) = (   0.2057898  -0.4752513   0.1832678), wk =   0.0380952
        k(   31) = (   0.2057898  -0.4752513   0.3665356), wk =   0.0380952
        k(   32) = (   0.2057898  -0.4752513   0.5498034), wk =   0.0380952
        k(   33) = (   0.2057898  -0.2772299   0.0000000), wk =   0.0190476
        k(   34) = (   0.2057898  -0.2772299   0.1832678), wk =   0.0380952
        k(   35) = (   0.2057898  -0.2772299   0.3665356), wk =   0.0380952
        k(   36) = (   0.2057898  -0.2772299   0.5498034), wk =   0.0380952
        k(   37) = (   0.2057898  -0.0792085   0.0000000), wk =   0.0190476
        k(   38) = (   0.2057898  -0.0792085   0.1832678), wk =   0.0380952
        k(   39) = (   0.2057898  -0.0792085   0.3665356), wk =   0.0380952
        k(   40) = (   0.2057898  -0.0792085   0.5498034), wk =   0.0380952
        k(   41) = (   0.4115797   0.2376256   0.0000000), wk =   0.0190476
        k(   42) = (   0.4115797   0.2376256   0.1832678), wk =   0.0380952
        k(   43) = (   0.4115797   0.2376256   0.3665356), wk =   0.0380952
        k(   44) = (   0.4115797   0.2376256   0.5498034), wk =   0.0380952
        k(   45) = (   0.4115797   0.4356470   0.0000000), wk =   0.0190476
        k(   46) = (   0.4115797   0.4356470   0.1832678), wk =   0.0380952
        k(   47) = (   0.4115797   0.4356470   0.3665356), wk =   0.0380952
        k(   48) = (   0.4115797   0.4356470   0.5498034), wk =   0.0380952
        k(   49) = (   0.4115797   0.6336684   0.0000000), wk =   0.0190476
        k(   50) = (   0.4115797   0.6336684   0.1832678), wk =   0.0380952
        k(   51) = (   0.4115797   0.6336684   0.3665356), wk =   0.0380952
        k(   52) = (   0.4115797   0.6336684   0.5498034), wk =   0.0380952
        k(   53) = (   0.4115797  -0.3564384   0.0000000), wk =   0.0190476
        k(   54) = (   0.4115797  -0.3564384   0.1832678), wk =   0.0380952
        k(   55) = (   0.4115797  -0.3564384   0.3665356), wk =   0.0380952
        k(   56) = (   0.4115797  -0.3564384   0.5498034), wk =   0.0380952
        k(   57) = (   0.4115797  -0.1584171   0.0000000), wk =   0.0190476
        k(   58) = (   0.4115797  -0.1584171   0.1832678), wk =   0.0380952
        k(   59) = (   0.4115797  -0.1584171   0.3665356), wk =   0.0380952
        k(   60) = (   0.4115797  -0.1584171   0.5498034), wk =   0.0380952
        k(   61) = (   0.4115797   0.0396043   0.0000000), wk =   0.0190476
        k(   62) = (   0.4115797   0.0396043   0.1832678), wk =   0.0380952
        k(   63) = (   0.4115797   0.0396043   0.3665356), wk =   0.0380952
        k(   64) = (   0.4115797   0.0396043   0.5498034), wk =   0.0380952

     Largest allocated arrays     est. size (Mb)     dimensions
     Largest temporary arrays     est. size (Mb)     dimensions

     Initial potential from superposition of free atoms

     Starting from uniform charge
     Starting wfc are    0 randomized atomic wfcs

     Writing output data file Prototype-La-hP8-Mg3Cd.save

     Self-consistent Calculation

[...]

     negative rho (up, down):  0.671E-05 0.000E+00

[...]

     iteration # 12     ecut=    40.00 Ry     beta=0.70
     CG style diagonalization
     c_bands:  1 eigenvalues not converged
     ethr =  5.67E-07,  avg # of iterations =  3.6

     total energy              =   -1272.00682118 Ry
     Harris-Foulkes estimate   =   -1272.00683057 Ry
     estimated scf accuracy    <       0.00003173 Ry

     iteration # 13     ecut=    40.00 Ry     beta=0.70
     CG style diagonalization
     ethr =  2.44E-08,  avg # of iterations =  4.2

     End of self-consistent calculation

[...]

          k = 0.4116 0.0396 0.5498 (  4714 PWs)   bands (ev):

   -40.2344 -40.2182 -40.1976 -40.1870 -40.1792 -40.1729 -25.6040 -25.6038
   -13.2464 -13.2389 -13.2110 -13.1966 -13.1436 -13.1253 -12.9653 -12.9183
   -12.8597 -12.8551 -12.7967 -12.7511 -12.7106 -12.6963 -12.6878 -12.6507
   -12.6317 -12.6236  -3.8734  -3.8731  -3.8522  -3.8517  -3.8432  -3.8409
    16.9146  17.0077  17.0960  17.2660  17.3474  17.4813  17.7527  17.8655
    17.9104  17.9832  18.1272  18.3353  18.4168  18.5381  18.6282  18.7414
    19.3393  19.3681  19.8497  20.0761  20.1265  20.2277  20.3325  20.4475
    20.5837  20.6957  21.2071  21.3011  21.4800  21.5109  21.8237  21.9120
    22.4034  22.8904  23.3803  23.6569  23.7562  23.7635  24.0968  24.3967
    24.6061  24.8750  25.0004  25.4006  26.0420  26.4098

     the Fermi energy is    22.7184 ev

!    total energy              =   -1272.00683254 Ry
     Harris-Foulkes estimate   =   -1272.00683391 Ry
     estimated scf accuracy    <       0.00000162 Ry

     The total energy is the sum of the following terms:

     one-electron contribution =     -96.37454197 Ry
     hartree contribution      =     143.17021862 Ry
     xc contribution           =    -134.72971491 Ry
     ewald contribution        =   -1183.58436599 Ry
     smearing contrib. (-TS)   =      -0.48842830 Ry

     convergence has been achieved in  13 iterations

     Forces acting on atoms (Ry/au):

     atom    1 type  1   force =     0.00371122    0.00214267    0.00000000
     atom    2 type  1   force =     0.00371122   -0.00214267    0.00000000
     atom    3 type  1   force =    -0.00371122   -0.00214267    0.00000000
     atom    4 type  1   force =    -0.00371122    0.00214267    0.00000000
     atom    5 type  1   force =     0.00000000   -0.00428534    0.00000000
     atom    6 type  1   force =     0.00000000    0.00428534    0.00000000
     atom    7 type  2   force =     0.00000000    0.00000000    0.00000000
     atom    8 type  2   force =     0.00000000    0.00000000    0.00000000

     Total force =     0.010497     Total SCF correction =     0.000000

     entering subroutine stress ...

          total   stress  (Ry/bohr**3)                   (kbar)     P= -282.09
  -0.00193068   0.00000000   0.00000000       -284.01      0.00      0.00
   0.00000000  -0.00193068   0.00000000          0.00   -284.01      0.00
   0.00000000   0.00000000  -0.00189137          0.00      0.00   -278.23

     Writing output data file Prototype-La-hP8-Mg3Cd.save

     General routines

     Parallel routines

   This run was terminated on:  22:31: 0  22Mar2018

   JOB DONE.