     Program PWSCF v.5.0.2 starts on 22Mar2018 at 17:32:58

     Current dimensions of program PWSCF are:
     Max number of different atomic species (ntypx) = 10
     Max number of k-points (npk) =  40000
     Max angular momentum in pseudopotentials (lmaxx) =  3
     Waiting for input...
     Reading input from standard input

     Subspace diagonalization in iterative solution of the eigenvalue problem:
     a serial algorithm will be used

     bravais-lattice index     =            0
     lattice parameter (alat)  =       9.9235  a.u.
     unit-cell volume          =    1361.0366 (a.u.)^3
     number of atoms/cell      =           12
     number of atomic types    =            2
     number of electrons       =       200.00
     number of Kohn-Sham states=          120
     kinetic-energy cutoff     =      40.0000  Ry
     charge density cutoff     =     160.0000  Ry
     convergence threshold     =      1.0E-04
     mixing beta               =       0.7000
     number of iterations used =            8  plain     mixing
     Exchange-correlation      = SLA-PZ-NOGX-NOGC ( 1 1 0 0 0)
     EXX-fraction              =        0.00
     nstep                     =           50

     celldm(1)=   9.923489  celldm(2)=   0.000000  celldm(3)=   0.000000
     celldm(4)=   0.000000  celldm(5)=   0.000000  celldm(6)=   0.000000

     crystal axes: (cart. coord. in units of alat)
               a(1) = (   1.000000   0.000000   0.000000 )
               a(2) = (  -0.500000   0.866025   0.000000 )
               a(3) = (   0.000000   0.000000   1.608222 )

     reciprocal axes: (cart. coord. in units 2 pi/alat)
               b(1) = (  1.000000  0.577350  0.000000 )
               b(2) = (  0.000000  1.154701  0.000000 )
               b(3) = (  0.000000  0.000000  0.621805 )

     PseudoPot. # 1 for Nd read from file:
     /home/cwx6513/pp.La/Nd.UPF
     MD5 check sum: c66c5b6abe7b5840ced9b1e244e3bed6
     Pseudo is Norm-conserving, Zval = 14.0
     Generated in analytical, separable form
     Using radial grid of 1257 points,  6 beta functions with:
                l(1) =   0
                l(2) =   0
                l(3) =   1
                l(4) =   1
                l(5) =   2
                l(6) =   3

     PseudoPot. # 2 for Gd read from file:
     /home/cwx6513/pp.La/Gd.UPF
     MD5 check sum: 09a8be538722f05520810cb6aac0efd2
     Pseudo is Norm-conserving, Zval = 18.0
     Generated in analytical, separable form
     Using radial grid of 1263 points,  6 beta functions with:
                l(1) =   0
                l(2) =   0
                l(3) =   1
                l(4) =   1
                l(5) =   2
                l(6) =   3

     atomic species   valence    mass     pseudopotential
        Mg            14.00    24.30500     Nd( 1.00)
        Zn            18.00    65.39000     Gd( 1.00)

     24 Sym. Ops., with inversion, found (12 have fractional translation)

   Cartesian axes

     site n.     atom                  positions (alat units)
         1           Mg  tau(   1) = (  -0.0000005   0.5773506   0.1003820  )
         2           Mg  tau(   2) = (   0.5000005   0.2886748   0.9044931  )
         3           Mg  tau(   3) = (   0.5000005   0.2886748   1.5078402  )
         4           Mg  tau(   4) = (  -0.0000005   0.5773506   0.7037291  )
         5           Zn  tau(   5) = (   0.0000000   0.0000000   0.0000000  )
         6           Zn  tau(   6) = (   0.0000000   0.0000000   0.8041111  )
         7           Zn  tau(   7) = (   0.0000000   0.2950739   1.2061667  )
         8           Zn  tau(   8) = (   0.7444585   0.1475370   0.4020556  )
         9           Zn  tau(   9) = (   0.2555415   0.1475370   0.4020556  )
        10           Zn  tau(  10) = (   0.2444585   0.7184884   1.2061667  )
        11           Zn  tau(  11) = (  -0.2444585   0.7184884   1.2061667  )
        12           Zn  tau(  12) = (   0.5000000   0.5709515   0.4020556  )

     number of k points=    12  gaussian smearing, width (Ry)=  0.1000
                       cart. coord. in units 2pi/alat
        k(    1) = (   0.0000000   0.0000000   0.0000000), wk =   0.0833333
        k(    2) = (   0.0000000   0.0000000   0.1554512), wk =   0.1666667
        k(    3) = (   0.0000000   0.0000000  -0.3109023), wk =   0.0833333
        k(    4) = (   0.0000000   0.3849002   0.0000000), wk =   0.1666667
        k(    5) = (   0.0000000   0.3849002   0.1554512), wk =   0.3333333
        k(    6) = (   0.0000000   0.3849002  -0.3109023), wk =   0.1666667
        k(    7) = (  -0.5000000  -0.2886751   0.0000000), wk =   0.0833333
        k(    8) = (  -0.5000000  -0.2886751   0.1554512), wk =   0.1666667
        k(    9) = (  -0.5000000  -0.2886751  -0.3109023), wk =   0.0833333
        k(   10) = (  -0.5000000   0.0962250   0.0000000), wk =   0.1666667
        k(   11) = (  -0.5000000   0.0962250   0.1554512), wk =   0.3333333
        k(   12) = (  -0.5000000   0.0962250  -0.3109023), wk =   0.1666667

     Largest allocated arrays     est. size (Mb)     dimensions
     Largest temporary arrays     est. size (Mb)     dimensions

     Initial potential from superposition of free atoms

     Starting from uniform charge
     Starting wfc are    0 randomized atomic wfcs

     Self-consistent Calculation

     iteration #  1     ecut=    40.00 Ry     beta=0.70
     CG style diagonalization
     ethr =  1.00E-02,  avg # of iterations = 18.6

     total energy              =   -1449.25875846 Ry
     Harris-Foulkes estimate   =   -2543.80235042 Ry
     estimated scf accuracy    <    1331.30707531 Ry

[...]

     iteration #  3     ecut=    40.00 Ry     beta=0.70
     CG style diagonalization
     c_bands:  3 eigenvalues not converged
     c_bands:  3 eigenvalues not converged
     c_bands:  2 eigenvalues not converged
     c_bands:  1 eigenvalues not converged
     c_bands:  1 eigenvalues not converged
     c_bands:  1 eigenvalues not converged
     c_bands:  1 eigenvalues not converged
     ethr =  1.00E-02,  avg # of iterations = 12.2

[...]

     End of self-consistent calculation

          k = 0.0000 0.0000 0.0000 (  5769 PWs)   bands (ev):

   -40.5707 -40.5007 -40.1630 -40.1630 -40.1612 -40.1611 -40.1004 -40.0179
   -18.9373 -18.8921 -18.7974 -18.7400 -13.3979 -13.0608 -12.4613 -12.0126
   -12.0125 -11.9381 -11.9381 -11.7434 -11.7434 -11.5012 -11.2142 -11.2141
   -11.1680 -11.0875 -11.0875 -10.6356 -10.6284 -10.5705 -10.5705 -10.5474
   -10.5373 -10.5373 -10.4860 -10.4860   2.4468   2.4558   2.4675   2.4675
     2.4813   2.4814   3.0029   3.0353   3.0353   3.0440   3.0713   3.0713
    17.8283  18.6021  18.9516  19.9036  19.9036  20.4038  20.4038  20.6673
    20.7619  20.8052  20.8052  21.2563  21.2563  21.3614  21.9067  21.9067
    21.9346  23.0929  23.1133  23.1133  23.2380  23.2380  24.0892  24.3327
    24.3327  24.5934  25.4964  25.4964  25.5659  25.5659  25.7049  25.7049
    25.8020  26.0621  26.0800  26.2027  26.2027  26.4211  26.4211  26.5196
    26.5196  26.8238  26.9773  26.9773  27.2935  27.2936  28.1667  28.7700
    28.9515  28.9515  29.0425  29.0425  29.6287  29.6287  30.3413  30.3413
    30.4870  30.4949  31.5921  31.7060  31.7060  31.8441  31.8441  32.2979
    32.3780  35.1567  35.1568  35.4588  36.2439  36.6264  36.7938  36.8378

[...]

          k =-0.5000-0.2887 0.0000 (  5800 PWs)   bands (ev):

[...]

     the Fermi energy is    29.2494 ev

!    total energy              =   -2051.27478345 Ry
     Harris-Foulkes estimate   =   -2051.27483059 Ry
     estimated scf accuracy    <       0.00005229 Ry

     The total energy is the sum of the following terms:

     one-electron contribution =    -120.27280312 Ry
     hartree contribution      =     247.47914552 Ry
     xc contribution           =    -216.21116759 Ry
     ewald contribution        =   -1961.68708973 Ry
     smearing contrib. (-TS)   =      -0.58286853 Ry

     convergence has been achieved in  11 iterations

     Forces acting on atoms (Ry/au):

     atom    1 type  1   force =     0.00000000    0.00000000    0.00652192
     atom    2 type  1   force =     0.00000000    0.00000000    0.00652192
     atom    3 type  1   force =     0.00000000    0.00000000   -0.00652192
     atom    4 type  1   force =     0.00000000    0.00000000   -0.00652192
     atom    5 type  2   force =     0.00000000    0.00000000    0.00000000
     atom    6 type  2   force =     0.00000000    0.00000000    0.00000000
     atom    7 type  2   force =     0.00000000    0.02607312    0.00000000
     atom    8 type  2   force =    -0.02257998    0.01303656    0.00000000
     atom    9 type  2   force =     0.02257998    0.01303656    0.00000000
     atom   10 type  2   force =    -0.02257998   -0.01303656    0.00000000
     atom   11 type  2   force =     0.02257998   -0.01303656    0.00000000
     atom   12 type  2   force =     0.00000000   -0.02607312    0.00000000

     Total force =     0.065184     Total SCF correction =     0.000000

     entering subroutine stress ...

          total   stress  (Ry/bohr**3)                   (kbar)     P=  737.73
   0.00490525   0.00000000   0.00000000        721.59      0.00      0.00
   0.00000000   0.00490525   0.00000000          0.00    721.59      0.00
   0.00000000   0.00000000   0.00523439          0.00      0.00    770.01

     BFGS Geometry Optimization

     number of scf cycles    =   1
     number of bfgs steps    =   0

     enthalpy new            =   -2051.2747834548 Ry

     new trust radius        =       0.5000000000 bohr
     new conv_thr            =       0.0001000000 Ry

     new unit-cell volume =   1643.70377 a.u.^3 (   243.57177 Ang^3 )

CELL_PARAMETERS (alat=  9.92348860)
   1.063503778   0.000000000   0.000000000
  -0.531751889   0.921021289   0.000000000
   0.000000000   0.000000000   1.717203317

ATOMIC_POSITIONS (crystal)
Mg       0.333333000   0.666667000   0.062629623
Mg       0.666667000   0.333333000   0.562629623
Mg       0.666667000   0.333333000   0.937370377
Mg       0.333333000   0.666667000   0.437370377
Zn       0.000000000   0.000000000   0.000000000
Zn       0.000000000   0.000000000   0.500000000
Zn       0.171146537   0.342293074   0.750000000
Zn       0.828853463   0.171146537   0.250000000
Zn       0.342293074   0.171146537   0.250000000
Zn       0.657706926   0.828853463   0.750000000
Zn       0.171146537   0.828853463   0.750000000
Zn       0.828853463   0.657706926   0.250000000

     Writing output data file Prototype-La-hP12-MgZn2.save
     NEW-OLD atomic charge density approx. for the potential
     NEW k-points:
        k(    1) = (   0.0000000   0.0000000   0.0000000), wk =   0.0833333
        k(    2) = (   0.0000000   0.0000000   0.1455856), wk =   0.1666667
        k(    3) = (   0.0000000   0.0000000  -0.2911711), wk =   0.0833333
        k(    4) = (   0.0000000   0.3619171   0.0000000), wk =   0.1666667
        k(    5) = (   0.0000000   0.3619171   0.1455856), wk =   0.3333333
        k(    6) = (   0.0000000   0.3619171  -0.2911711), wk =   0.1666667
        k(    7) = (  -0.4701441  -0.2714378   0.0000000), wk =   0.0833333
        k(    8) = (  -0.4701441  -0.2714378   0.1455856), wk =   0.1666667
        k(    9) = (  -0.4701441  -0.2714378  -0.2911711), wk =   0.0833333
        k(   10) = (  -0.4701441   0.0904793   0.0000000), wk =   0.1666667
        k(   11) = (  -0.4701441   0.0904793   0.1455856), wk =   0.3333333
        k(   12) = (  -0.4701441   0.0904793  -0.2911711), wk =   0.1666667

[...]

     enthalpy old            =   -2051.2747834548 Ry
     enthalpy new            =   -2051.6292574593 Ry

     CASE: enthalpy_new < enthalpy_old

     small trust_radius: resetting bfgs history

     new trust radius        =       0.3193253564 bohr
     new conv_thr            =       0.0000174953 Ry

[...]

     number of scf cycles    =   3
     number of bfgs steps    =   2

     enthalpy old            =   -2051.6292574593 Ry
     enthalpy new            =   -2051.6149959852 Ry

     CASE: enthalpy_new > enthalpy_old

     new trust radius        =       0.1495216961 bohr

     trust_radius < trust_radius_min

     resetting bfgs history

     Message from routine bfgs:
     history already reset at previous step: stopping
     new conv_thr            =       0.0000174953 Ry

     new unit-cell volume =   1451.36581 a.u.^3 (   215.07022 Ang^3 )

[...]

ATOMIC_POSITIONS (crystal)
Mg       0.333333000   0.666667000   0.062557357
Mg       0.666667000   0.333333000   0.562557357
Mg       0.666667000   0.333333000   0.937442643
Mg       0.333333000   0.666667000   0.437442643
Zn       0.000000000   0.000000000   0.000000000
Zn       0.000000000   0.000000000   0.500000000
Zn       0.170110437   0.340220874   0.750000000
Zn       0.829889563   0.170110437   0.250000000
Zn       0.340220874   0.170110437   0.250000000
Zn       0.659779126   0.829889563   0.750000000
Zn       0.170110437   0.829889563   0.750000000
Zn       0.829889563   0.659779126   0.250000000

     Writing output data file Prototype-La-hP12-MgZn2.save
     NEW-OLD atomic charge density approx. for the potential
     NEW k-points:
        k(    1) = (   0.0000000   0.0000000   0.0000000), wk =   0.0833333
        k(    2) = (   0.0000000   0.0000000   0.1518023), wk =   0.1666667
        k(    3) = (   0.0000000   0.0000000  -0.3036047), wk =   0.0833333
        k(    4) = (   0.0000000   0.3771832   0.0000000), wk =   0.1666667
        k(    5) = (   0.0000000   0.3771832   0.1518023), wk =   0.3333333
        k(    6) = (   0.0000000   0.3771832  -0.3036047), wk =   0.1666667
        k(    7) = (  -0.4899753  -0.2828874   0.0000000), wk =   0.0833333
        k(    8) = (  -0.4899753  -0.2828874   0.1518023), wk =   0.1666667
        k(    9) = (  -0.4899753  -0.2828874  -0.3036047), wk =   0.0833333
        k(   10) = (  -0.4899753   0.0942958   0.0000000), wk =   0.1666667
        k(   11) = (  -0.4899753   0.0942958   0.1518023), wk =   0.3333333
        k(   12) = (  -0.4899753   0.0942958  -0.3036047), wk =   0.1666667

[...]

     The maximum number of steps has been reached.

     End of BFGS Geometry Optimization
Begin final coordinates
     new unit-cell volume =   1451.36581 a.u.^3 (   215.07022 Ang^3 )

CELL_PARAMETERS (alat=  9.92348860)
   1.020459557   0.000000000   0.000000000
  -0.510229778   0.883743900   0.000000000
   0.000000000   0.000000000   1.646878414

ATOMIC_POSITIONS (crystal)
Mg       0.333333000   0.666667000   0.062557357
Mg       0.666667000   0.333333000   0.562557357
Mg       0.666667000   0.333333000   0.937442643
Mg       0.333333000   0.666667000   0.437442643
Zn       0.000000000   0.000000000   0.000000000
Zn       0.000000000   0.000000000   0.500000000
Zn       0.170110437   0.340220874   0.750000000
Zn       0.829889563   0.170110437   0.250000000
Zn       0.340220874   0.170110437   0.250000000
Zn       0.659779126   0.829889563   0.750000000
Zn       0.170110437   0.829889563   0.750000000
Zn       0.829889563   0.659779126   0.250000000
End final coordinates

     A final scf calculation at the relaxed structure.
     The G-vectors are recalculated for the final unit cell
     Results may differ from those at the preceding step.

     bravais-lattice index     =            0
     lattice parameter (alat)  =       9.9235  a.u.
     unit-cell volume          =    1451.3658 (a.u.)^3
     number of atoms/cell      =           12
     number of atomic types    =            2
     number of electrons       =       200.00
     number of Kohn-Sham states=          120
     kinetic-energy cutoff     =      40.0000  Ry
     charge density cutoff     =     160.0000  Ry
     convergence threshold     =      1.7E-05
     mixing beta               =       0.7000
     number of iterations used =            8  plain     mixing
     Exchange-correlation      = SLA-PZ-NOGX-NOGC ( 1 1 0 0 0)
     EXX-fraction              =        0.00

     celldm(1)=   9.923489  celldm(2)=   0.000000  celldm(3)=   0.000000
     celldm(4)=   0.000000  celldm(5)=   0.000000  celldm(6)=   0.000000

     crystal axes: (cart. coord. in units of alat)
               a(1) = (   1.020460   0.000000   0.000000 )
               a(2) = (  -0.510230   0.883744   0.000000 )
               a(3) = (   0.000000   0.000000   1.646878 )

     reciprocal axes: (cart. coord. in units 2 pi/alat)
               b(1) = (  0.979951  0.565775  0.000000 )
               b(2) = (  0.000000  1.131550  0.000000 )
               b(3) = (  0.000000  0.000000  0.607209 )

     PseudoPot. # 1 for Nd read from file:
     /home/cwx6513/pp.La/Nd.UPF
     MD5 check sum: c66c5b6abe7b5840ced9b1e244e3bed6
     Pseudo is Norm-conserving, Zval = 14.0
     Generated in analytical, separable form
     Using radial grid of 1257 points,  6 beta functions with:
                l(1) =   0
                l(2) =   0
                l(3) =   1
                l(4) =   1
                l(5) =   2
                l(6) =   3

     PseudoPot. # 2 for Gd read from file:
     /home/cwx6513/pp.La/Gd.UPF
     MD5 check sum: 09a8be538722f05520810cb6aac0efd2
     Pseudo is Norm-conserving, Zval = 18.0
     Generated in analytical, separable form
     Using radial grid of 1263 points,  6 beta functions with:
                l(1) =   0
                l(2) =   0
                l(3) =   1
                l(4) =   1
                l(5) =   2
                l(6) =   3

     atomic species   valence    mass     pseudopotential
        Mg            14.00    24.30500     Nd( 1.00)
        Zn            18.00    65.39000     Gd( 1.00)

     24 Sym. Ops., with inversion, found (12 have fractional translation)

   Cartesian axes

     site n.     atom                  positions (alat units)
         1           Mg  tau(   1) = (  -0.0000005   0.5891629   0.1030244  )
         2           Mg  tau(   2) = (   0.5102303   0.2945810   0.9264636  )
         3           Mg  tau(   3) = (   0.5102303   0.2945810   1.5438541  )
         4           Mg  tau(   4) = (  -0.0000005   0.5891629   0.7204148  )
         5           Zn  tau(   5) = (   0.0000000   0.0000000   0.0000000  )
         6           Zn  tau(   6) = (   0.0000000   0.0000000   0.8234392  )
         7           Zn  tau(   7) = (   0.0000000   0.3006681   1.2351588  )
         8           Zn  tau(   8) = (   0.7600733   0.1503341   0.4117196  )
         9           Zn  tau(   9) = (   0.2603862   0.1503341   0.4117196  )
        10           Zn  tau(  10) = (   0.2498435   0.7334098   1.2351588  )
        11           Zn  tau(  11) = (  -0.2498435   0.7334098   1.2351588  )
        12           Zn  tau(  12) = (   0.5102298   0.5830758   0.4117196  )

     number of k points=    12  gaussian smearing, width (Ry)=  0.1000
                       cart. coord. in units 2pi/alat
        k(    1) = (   0.0000000   0.0000000   0.0000000), wk =   0.0833333
        k(    2) = (   0.0000000   0.0000000   0.1518023), wk =   0.1666667
        k(    3) = (   0.0000000   0.0000000  -0.3036047), wk =   0.0833333
        k(    4) = (   0.0000000   0.3771832   0.0000000), wk =   0.1666667
        k(    5) = (   0.0000000   0.3771832   0.1518023), wk =   0.3333333
        k(    6) = (   0.0000000   0.3771832  -0.3036047), wk =   0.1666667
        k(    7) = (  -0.4899753  -0.2828874   0.0000000), wk =   0.0833333
        k(    8) = (  -0.4899753  -0.2828874   0.1518023), wk =   0.1666667
        k(    9) = (  -0.4899753  -0.2828874  -0.3036047), wk =   0.0833333
        k(   10) = (  -0.4899753   0.0942958   0.0000000), wk =   0.1666667
        k(   11) = (  -0.4899753   0.0942958   0.1518023), wk =   0.3333333
        k(   12) = (  -0.4899753   0.0942958  -0.3036047), wk =   0.1666667

     Largest allocated arrays     est. size (Mb)     dimensions
     Largest temporary arrays     est. size (Mb)     dimensions

     Initial potential from superposition of free atoms

     Starting from uniform charge
     Starting wfc are    0 randomized atomic wfcs

     Writing output data file Prototype-La-hP12-MgZn2.save

     Self-consistent Calculation

[...]

     iteration # 11     ecut=    40.00 Ry     beta=0.70
     CG style diagonalization
     c_bands:  1 eigenvalues not converged
     ethr =  6.55E-07,  avg # of iterations =  3.3

     total energy              =   -2051.83687816 Ry
     Harris-Foulkes estimate   =   -2051.83690207 Ry
     estimated scf accuracy    <       0.00005821 Ry

     iteration # 12     ecut=    40.00 Ry     beta=0.70
     CG style diagonalization
     ethr =  2.91E-08,  avg # of iterations =  4.0

     End of self-consistent calculation

[...]

          k = 0.0000 0.3772-0.3036 (  6182 PWs)   bands (ev):

[...]

          k =-0.4900 0.0943-0.3036 (  6200 PWs)   bands (ev):

   -42.2387 -42.2386 -42.1459 -42.1459 -42.0362 -42.0362 -41.9243 -41.9243
   -21.0739 -21.0739 -21.0158 -21.0157 -14.3016 -14.3016 -13.8577 -13.8576
   -13.5092 -13.5092 -13.4314 -13.4313 -13.3367 -13.3367 -13.2707 -13.2707
   -13.1074 -13.1074 -12.8982 -12.8982 -12.7202 -12.7202 -12.6351 -12.6351
   -12.5403 -12.5403 -12.5054 -12.5054   0.3459   0.3459   0.3625   0.3625
     0.5138   0.5138   0.7301   0.7301   0.9018   0.9018   0.9091   0.9092
    18.1187  18.1187  18.9461  18.9461  19.3590  19.3590  19.5501  19.5502
    19.7647  19.7647  19.9168  19.9168  20.3591  20.3591  20.4823  20.4823
    20.7441  20.7441  21.0898  21.0898  21.3626  21.3626  21.8243  21.8243
    21.9938  21.9938  22.1965  22.1965  22.5929  22.5929  23.2011  23.2012
    23.2426  23.2426  23.4766  23.4766  23.8723  23.8723  24.2751  24.2751
    24.6877  24.6877  25.5797  25.5797  25.7802  25.7803  25.9341  25.9341
    26.3365  26.3366  26.7820  26.7820  27.0869  27.0869  27.6114  27.6114
    28.1460  28.1460  28.6063  28.6063  28.9230  28.9230  29.1266  29.1266
    30.1465  30.1465  31.3862  31.3862  33.2625  33.2626  34.8232  34.8233

     the Fermi energy is    27.0768 ev

!    total energy              =   -2051.83688333 Ry
     Harris-Foulkes estimate   =   -2051.83689668 Ry
     estimated scf accuracy    <       0.00001336 Ry

     The total energy is the sum of the following terms:

     one-electron contribution =    -178.44045099 Ry
     hartree contribution      =     262.06959062 Ry
     xc contribution           =    -214.88908789 Ry
     ewald contribution        =   -1919.93971089 Ry
     smearing contrib. (-TS)   =      -0.63722418 Ry

     convergence has been achieved in  12 iterations

     Forces acting on atoms (Ry/au):

     atom    1 type  1   force =     0.00000000    0.00000000   -0.00242797
     atom    2 type  1   force =     0.00000000    0.00000000   -0.00242797
     atom    3 type  1   force =     0.00000000    0.00000000    0.00242797
     atom    4 type  1   force =     0.00000000    0.00000000    0.00242797
     atom    5 type  2   force =     0.00000000    0.00000000    0.00000000
     atom    6 type  2   force =     0.00000000    0.00000000    0.00000000
     atom    7 type  2   force =     0.00000000    0.03893341    0.00000000
     atom    8 type  2   force =    -0.03371732    0.01946670    0.00000000
     atom    9 type  2   force =     0.03371732    0.01946670    0.00000000
     atom   10 type  2   force =    -0.03371732   -0.01946670    0.00000000
     atom   11 type  2   force =     0.03371732   -0.01946670    0.00000000
     atom   12 type  2   force =     0.00000000   -0.03893341    0.00000000

     Total force =     0.095491     Total SCF correction =     0.000000

     entering subroutine stress ...

          total   stress  (Ry/bohr**3)                   (kbar)     P=  406.89
   0.00270213   0.00000000   0.00000000        397.50      0.00      0.00
   0.00000000   0.00270213   0.00000000          0.00    397.50      0.00
   0.00000000   0.00000000   0.00289364          0.00      0.00    425.67

     Writing output data file Prototype-La-hP12-MgZn2.save

     General routines

     Parallel routines

   This run was terminated on:  17:54: 8  22Mar2018

   JOB DONE.