     Program PWSCF v.5.0.2 starts on 22Mar2018 at 17:33: 0

     Current dimensions of program PWSCF are:
     Max number of different atomic species (ntypx) = 10
     Max number of k-points (npk) =  40000
     Max angular momentum in pseudopotentials (lmaxx) =  3
     Waiting for input...
     Reading input from standard input

     Subspace diagonalization in iterative solution of the eigenvalue problem:
     a serial algorithm will be used

     bravais-lattice index     =            0
     lattice parameter (alat)  =       7.0151  a.u.
     unit-cell volume          =     862.2778 (a.u.)^3
     number of atoms/cell      =           12
     number of atomic types    =            2
     number of electrons       =       184.00
     number of Kohn-Sham states=          110
     kinetic-energy cutoff     =      40.0000  Ry
     charge density cutoff     =     160.0000  Ry
     convergence threshold     =      1.0E-04
     mixing beta               =       0.7000
     number of iterations used =            8  plain     mixing
     Exchange-correlation      = SLA-PZ-NOGX-NOGC ( 1 1 0 0 0)
     EXX-fraction              =        0.00
     nstep                     =           50

     celldm(1)=   7.015105  celldm(2)=   0.000000  celldm(3)=   0.000000
     celldm(4)=   0.000000  celldm(5)=   0.000000  celldm(6)=   0.000000

     crystal axes: (cart. coord. in units of alat)
               a(1) = (   1.000000   0.000000   0.000000 )
               a(2) = (   0.000000   1.315963   0.000000 )
               a(3) = (   0.000000   0.000000   1.898020 )

     reciprocal axes: (cart. coord. in units 2 pi/alat)
               b(1) = (  1.000000  0.000000  0.000000 )
               b(2) = (  0.000000  0.759900  0.000000 )
               b(3) = (  0.000000  0.000000  0.526865 )

     PseudoPot. # 1 for Nd read from file:
     /home/cwx6513/pp.La/Nd.UPF
     MD5 check sum: c66c5b6abe7b5840ced9b1e244e3bed6
     Pseudo is Norm-conserving, Zval = 14.0
     Generated in analytical, separable form
     Using radial grid of 1257 points,  6 beta functions with:
                l(1) =   0
                l(2) =   0
                l(3) =   1
                l(4) =   1
                l(5) =   2
                l(6) =   3

     PseudoPot. # 2 for Gd read from file:
     /home/cwx6513/pp.La/Gd.UPF
     MD5 check sum: 09a8be538722f05520810cb6aac0efd2
     Pseudo is Norm-conserving, Zval = 18.0
     Generated in analytical, separable form
     Using radial grid of 1263 points,  6 beta functions with:
                l(1) =   0
                l(2) =   0
                l(3) =   1
                l(4) =   1
                l(5) =   2
                l(6) =   3

     atomic species   valence    mass     pseudopotential
        Co            14.00    58.93320     Nd( 1.00)
        Si            18.00    28.08550     Gd( 1.00)

      8 Sym. Ops., with inversion, found ( 6 have fractional translation)

   Cartesian axes

     site n.     atom                  positions (alat units)
         1           Co  tau(   1) = (   0.7500000   1.0875135   0.8270358  )
         2           Co  tau(   2) = (   0.2500000   0.2284499   1.0709846  )
         3           Co  tau(   3) = (   0.7500000   0.4295318   0.1219744  )
         4           Co  tau(   4) = (   0.2500000   0.8864316   1.7760460  )
         5           Co  tau(   5) = (   0.2500000   0.7067855   0.5358966  )
         6           Co  tau(   6) = (   0.7500000   0.6091779   1.3621238  )
         7           Co  tau(   7) = (   0.2500000   0.0488038   0.4131136  )
         8           Co  tau(   8) = (   0.7500000   1.2671596   1.4849068  )
         9           Si  tau(   9) = (   0.2500000   0.2669484   1.6960710  )
        10           Si  tau(  10) = (   0.7500000   1.0490149   0.2019494  )
        11           Si  tau(  11) = (   0.2500000   0.9249301   1.1509596  )
        12           Si  tau(  12) = (   0.7500000   0.3910333   0.7470608  )

     number of k points=    12  gaussian smearing, width (Ry)=  0.1000
                       cart. coord. in units 2pi/alat
        k(    1) = (   0.0000000   0.0000000   0.0000000), wk =   0.0833333
        k(    2) = (   0.0000000   0.0000000   0.1317162), wk =   0.1666667
        k(    3) = (   0.0000000   0.0000000  -0.2634324), wk =   0.0833333
        k(    4) = (   0.0000000   0.2532999   0.0000000), wk =   0.1666667
        k(    5) = (   0.0000000   0.2532999   0.1317162), wk =   0.3333333
        k(    6) = (   0.0000000   0.2532999  -0.2634324), wk =   0.1666667
        k(    7) = (  -0.5000000   0.0000000   0.0000000), wk =   0.0833333
        k(    8) = (  -0.5000000   0.0000000   0.1317162), wk =   0.1666667
        k(    9) = (  -0.5000000   0.0000000  -0.2634324), wk =   0.0833333
        k(   10) = (  -0.5000000   0.2532999   0.0000000), wk =   0.1666667
        k(   11) = (  -0.5000000   0.2532999   0.1317162), wk =   0.3333333
        k(   12) = (  -0.5000000   0.2532999  -0.2634324), wk =   0.1666667

     Largest allocated arrays     est. size (Mb)     dimensions
     Largest temporary arrays     est. size (Mb)     dimensions

     Initial potential from superposition of free atoms

     Starting from uniform charge
     Starting wfc are    0 randomized atomic wfcs

     Self-consistent Calculation

     iteration #  1     ecut=    40.00 Ry     beta=0.70
     CG style diagonalization
     c_bands:  5 eigenvalues not converged
     c_bands:  4 eigenvalues not converged
     c_bands:  2 eigenvalues not converged
     c_bands:  2 eigenvalues not converged
     c_bands:  2 eigenvalues not converged
     c_bands:  2 eigenvalues not converged
     c_bands:  1 eigenvalues not converged
     ethr =  1.00E-02,  avg # of iterations = 13.5

     total energy              =   -1301.07494989 Ry
     Harris-Foulkes estimate   =   -1841.77200893 Ry
     estimated scf accuracy    <     671.72067376 Ry

[...]

     iteration #  3     ecut=    40.00 Ry     beta=0.70
     CG style diagonalization
     ethr =  1.00E-02,  avg # of iterations = 10.6

[...]

     End of self-consistent calculation

          k = 0.0000 0.0000 0.0000 (  3675 PWs)   bands (ev):

   -25.0652 -25.0005 -24.9804 -24.9510  -3.6716  -3.3864  -3.2343  -1.9736
    -1.7975  -1.6951  -1.5215  -1.4714   2.4548   2.7261   2.8388   2.8644
     2.9511   3.2347   3.4449   3.5238   3.5485   3.6416   4.0517   4.1965
    14.8581  15.4902  15.8376  16.3890  16.8927  17.1522  17.3344  17.5805
    18.3738  18.3872  18.3953  18.6420  18.8519  19.2044  19.7916  19.9150
    20.0588  20.1212  20.4087  20.9534  21.9010  22.0862  22.4721  22.9228
    32.6075  32.9435  33.6017  34.1879  34.2028  34.2569  34.5125  34.6429
    35.4023  35.7886  36.0733  36.7011  36.8100  37.3325  37.9844  38.8000
    38.8595  38.8595  40.1191  40.1746  40.3386  41.2185  41.4098  41.6828
    41.7485  41.7729  42.2217  42.8206  43.1908  43.4448  43.7396  43.8184
    44.2757  44.6438  44.6984  45.4173  45.7631  45.9354  46.2318  46.4929
    46.5811  47.0036  47.6559  47.7535  48.2758  49.0952  49.2440  49.4259
    49.9692  50.7380  50.7551  51.3810  51.5964  52.3550  52.5696  52.6648
    52.7573  53.0769  53.1630  53.4529  53.5387  54.0621

[...]

          k =-0.5000 0.0000 0.0000 (  3722 PWs)   bands (ev):

[...]

     the Fermi energy is    47.7424 ev

!    total energy              =   -1676.92759459 Ry
     Harris-Foulkes estimate   =   -1676.92765632 Ry
     estimated scf accuracy    <       0.00007962 Ry

     The total energy is the sum of the following terms:

     one-electron contribution =     405.38189302 Ry
     hartree contribution      =      88.07416868 Ry
     xc contribution           =    -201.72812265 Ry
     ewald contribution        =   -1968.25825708 Ry
     smearing contrib. (-TS)   =      -0.39727657 Ry

     convergence has been achieved in   9 iterations

     Forces acting on atoms (Ry/au):

     atom    1 type  1   force =     0.00000000   -0.08058277   -0.08183384
     atom    2 type  1   force =     0.00000000    0.08058277    0.08183384
     atom    3 type  1   force =     0.00000000   -0.08058277    0.08183384
     atom    4 type  1   force =     0.00000000    0.08058277   -0.08183384
     atom    5 type  1   force =     0.00000000    0.16177431   -0.25626417
     atom    6 type  1   force =     0.00000000   -0.16177431    0.25626417
     atom    7 type  1   force =     0.00000000    0.16177431    0.25626417
     atom    8 type  1   force =     0.00000000   -0.16177431   -0.25626417
     atom    9 type  2   force =     0.00000000   -0.13614399   -0.05531511
     atom   10 type  2   force =     0.00000000    0.13614399    0.05531511
     atom   11 type  2   force =     0.00000000   -0.13614399    0.05531511
     atom   12 type  2   force =     0.00000000    0.13614399   -0.05531511

     Total force =     0.711695     Total SCF correction =     0.000000

     entering subroutine stress ...

          total   stress  (Ry/bohr**3)                   (kbar)     P= 6569.92
   0.04786183   0.00000000   0.00000000       7040.72      0.00      0.00
   0.00000000   0.04227601   0.00000000          0.00   6219.02      0.00
   0.00000000   0.00000000   0.04384648          0.00      0.00   6450.04

     BFGS Geometry Optimization

     number of scf cycles    =   1
     number of bfgs steps    =   0

     enthalpy new            =   -1676.9275945948 Ry

     new trust radius        =       0.5000000000 bohr
     new conv_thr            =       0.0001000000 Ry

     new unit-cell volume =   1084.51987 a.u.^3 (   160.70926 Ang^3 )

CELL_PARAMETERS (alat=  7.01510508)
   1.085136619   0.000000000   0.000000000
   0.000000000   1.414924573   0.000000000
   0.000000000   0.000000000   2.046054815

ATOMIC_POSITIONS (crystal)
Co       0.750000000   0.825779915   0.435298694
Co       0.250000000   0.174220085   0.564701306
Co       0.750000000   0.325779915   0.064701306
Co       0.250000000   0.674220085   0.935298694
Co       0.250000000   0.538332863   0.280975570
Co       0.750000000   0.461667137   0.719024430
Co       0.250000000   0.038332863   0.219024430
Co       0.750000000   0.961667137   0.780975570
Si       0.250000000   0.201804681   0.893304406
Si       0.750000000   0.798195319   0.106695594
Si       0.250000000   0.701804681   0.606695594
Si       0.750000000   0.298195319   0.393304406

     Writing output data file Prototype-La-oP12-Co2Si.save
     NEW-OLD atomic charge density approx. for the potential
     NEW k-points:
        k(    1) = (   0.0000000   0.0000000   0.0000000), wk =   0.0833333
        k(    2) = (   0.0000000   0.0000000   0.1221864), wk =   0.1666667
        k(    3) = (   0.0000000   0.0000000  -0.2443727), wk =   0.0833333
        k(    4) = (   0.0000000   0.2355838   0.0000000), wk =   0.1666667
        k(    5) = (   0.0000000   0.2355838   0.1221864), wk =   0.3333333
        k(    6) = (   0.0000000   0.2355838  -0.2443727), wk =   0.1666667
        k(    7) = (  -0.4607715   0.0000000   0.0000000), wk =   0.0833333
        k(    8) = (  -0.4607715   0.0000000   0.1221864), wk =   0.1666667
        k(    9) = (  -0.4607715   0.0000000  -0.2443727), wk =   0.0833333
        k(   10) = (  -0.4607715   0.2355838   0.0000000), wk =   0.1666667
        k(   11) = (  -0.4607715   0.2355838   0.1221864), wk =   0.3333333
        k(   12) = (  -0.4607715   0.2355838  -0.2443727), wk =   0.1666667

[...]

     enthalpy old            =   -1676.9275945948 Ry
     enthalpy new            =   -1683.2980892133 Ry

     CASE: enthalpy_new < enthalpy_old

     small trust_radius: resetting bfgs history

     new trust radius        =       2.8493502586 bohr
     new conv_thr            =       0.0001000000 Ry

[...]

          total   stress  (Ry/bohr**3)                   (kbar)     P=-1282.18
  -0.00907110   0.00000000   0.00000000      -1334.40      0.00      0.00
   0.00000000  -0.00845897   0.00000000          0.00  -1244.36      0.00
   0.00000000   0.00000000  -0.00861826          0.00      0.00  -1267.79

     number of scf cycles    =   3
     number of bfgs steps    =   2

     enthalpy old            =   -1683.2980892133 Ry
     enthalpy new            =   -1672.8781888088 Ry

     CASE: enthalpy_new > enthalpy_old

     new trust radius        =       1.1066616346 bohr

     trust_radius < trust_radius_min

     resetting bfgs history

     Message from routine bfgs:
     history already reset at previous step: stopping
     new conv_thr            =       0.0001000000 Ry

     new unit-cell volume =   1285.77394 a.u.^3 (   190.53204 Ang^3 )

[...]

ATOMIC_POSITIONS (crystal)
Co       0.750000000   0.825182445   0.434985179
Co       0.250000000   0.174817555   0.565014821
Co       0.750000000   0.325182445   0.065014821
Co       0.250000000   0.674817555   0.934985179
Co       0.250000000   0.539339246   0.279978383
Co       0.750000000   0.460660754   0.720021617
Co       0.250000000   0.039339246   0.220021617
Co       0.750000000   0.960660754   0.779978383
Si       0.250000000   0.201083370   0.893092566
Si       0.750000000   0.798916630   0.106907434
Si       0.250000000   0.701083370   0.606907434
Si       0.750000000   0.298916630   0.393092566

     Writing output data file Prototype-La-oP12-Co2Si.save
     NEW-OLD atomic charge density approx. for the potential
     NEW k-points:
        k(    1) = (   0.0000000   0.0000000   0.0000000), wk =   0.0833333
        k(    2) = (   0.0000000   0.0000000   0.1156120), wk =   0.1666667
        k(    3) = (   0.0000000   0.0000000  -0.2312240), wk =   0.0833333
        k(    4) = (   0.0000000   0.2237744   0.0000000), wk =   0.1666667
        k(    5) = (   0.0000000   0.2237744   0.1156120), wk =   0.3333333
        k(    6) = (   0.0000000   0.2237744  -0.2312240), wk =   0.1666667
        k(    7) = (  -0.4324275   0.0000000   0.0000000), wk =   0.0833333
        k(    8) = (  -0.4324275   0.0000000   0.1156120), wk =   0.1666667
        k(    9) = (  -0.4324275   0.0000000  -0.2312240), wk =   0.0833333
        k(   10) = (  -0.4324275   0.2237744   0.0000000), wk =   0.1666667
        k(   11) = (  -0.4324275   0.2237744   0.1156120), wk =   0.3333333
        k(   12) = (  -0.4324275   0.2237744  -0.2312240), wk =   0.1666667

[...]

     The maximum number of steps has been reached.

     End of BFGS Geometry Optimization
Begin final coordinates
     new unit-cell volume =   1285.77394 a.u.^3 (   190.53204 Ang^3 )

CELL_PARAMETERS (alat=  7.01510508)
   1.156263236   0.000000000   0.000000000
   0.000000000   1.489595353   0.000000000
   0.000000000   0.000000000   2.162405075

ATOMIC_POSITIONS (crystal)
Co       0.750000000   0.825182445   0.434985179
Co       0.250000000   0.174817555   0.565014821
Co       0.750000000   0.325182445   0.065014821
Co       0.250000000   0.674817555   0.934985179
Co       0.250000000   0.539339246   0.279978383
Co       0.750000000   0.460660754   0.720021617
Co       0.250000000   0.039339246   0.220021617
Co       0.750000000   0.960660754   0.779978383
Si       0.250000000   0.201083370   0.893092566
Si       0.750000000   0.798916630   0.106907434
Si       0.250000000   0.701083370   0.606907434
Si       0.750000000   0.298916630   0.393092566
End final coordinates

     A final scf calculation at the relaxed structure.
     The G-vectors are recalculated for the final unit cell
     Results may differ from those at the preceding step.

     bravais-lattice index     =            0
     lattice parameter (alat)  =       7.0151  a.u.
     unit-cell volume          =    1285.7739 (a.u.)^3
     number of atoms/cell      =           12
     number of atomic types    =            2
     number of electrons       =       184.00
     number of Kohn-Sham states=          110
     kinetic-energy cutoff     =      40.0000  Ry
     charge density cutoff     =     160.0000  Ry
     convergence threshold     =      1.0E-04
     mixing beta               =       0.7000
     number of iterations used =            8  plain     mixing
     Exchange-correlation      = SLA-PZ-NOGX-NOGC ( 1 1 0 0 0)
     EXX-fraction              =        0.00

     celldm(1)=   7.015105  celldm(2)=   0.000000  celldm(3)=   0.000000
     celldm(4)=   0.000000  celldm(5)=   0.000000  celldm(6)=   0.000000

     crystal axes: (cart. coord. in units of alat)
               a(1) = (   1.156263   0.000000   0.000000 )
               a(2) = (   0.000000   1.489595   0.000000 )
               a(3) = (   0.000000   0.000000   2.162405 )

     reciprocal axes: (cart. coord. in units 2 pi/alat)
               b(1) = (  0.864855  0.000000  0.000000 )
               b(2) = (  0.000000  0.671323  0.000000 )
               b(3) = (  0.000000  0.000000  0.462448 )

     PseudoPot. # 1 for Nd read from file:
     /home/cwx6513/pp.La/Nd.UPF
     MD5 check sum: c66c5b6abe7b5840ced9b1e244e3bed6
     Pseudo is Norm-conserving, Zval = 14.0
     Generated in analytical, separable form
     Using radial grid of 1257 points,  6 beta functions with:
                l(1) =   0
                l(2) =   0
                l(3) =   1
                l(4) =   1
                l(5) =   2
                l(6) =   3

     PseudoPot. # 2 for Gd read from file:
     /home/cwx6513/pp.La/Gd.UPF
     MD5 check sum: 09a8be538722f05520810cb6aac0efd2
     Pseudo is Norm-conserving, Zval = 18.0
     Generated in analytical, separable form
     Using radial grid of 1263 points,  6 beta functions with:
                l(1) =   0
                l(2) =   0
                l(3) =   1
                l(4) =   1
                l(5) =   2
                l(6) =   3

     atomic species   valence    mass     pseudopotential
        Co            14.00    58.93320     Nd( 1.00)
        Si            18.00    28.08550     Gd( 1.00)

      8 Sym. Ops., with inversion, found ( 6 have fractional translation)

   Cartesian axes

     site n.     atom                  positions (alat units)
         1           Co  tau(   1) = (   0.8671974   1.2291879   0.9406142  )
         2           Co  tau(   2) = (   0.2890658   0.2604074   1.2217909  )
         3           Co  tau(   3) = (   0.8671974   0.4843903   0.1405884  )
         4           Co  tau(   4) = (   0.2890658   1.0052051   2.0218167  )
         5           Co  tau(   5) = (   0.2890658   0.8033972   0.6054267  )
         6           Co  tau(   6) = (   0.8671974   0.6861981   1.5569784  )
         7           Co  tau(   7) = (   0.2890658   0.0585996   0.4757759  )
         8           Co  tau(   8) = (   0.8671974   1.4309958   1.6866292  )
         9           Si  tau(   9) = (   0.2890658   0.2995329   1.9312279  )
        10           Si  tau(  10) = (   0.8671974   1.1900625   0.2311772  )
        11           Si  tau(  11) = (   0.2890658   1.0443305   1.3123797  )
        12           Si  tau(  12) = (   0.8671974   0.4452648   0.8500254  )

     number of k points=    12  gaussian smearing, width (Ry)=  0.1000
                       cart. coord. in units 2pi/alat
        k(    1) = (   0.0000000   0.0000000   0.0000000), wk =   0.0833333
        k(    2) = (   0.0000000   0.0000000   0.1156120), wk =   0.1666667
        k(    3) = (   0.0000000   0.0000000  -0.2312240), wk =   0.0833333
        k(    4) = (   0.0000000   0.2237744   0.0000000), wk =   0.1666667
        k(    5) = (   0.0000000   0.2237744   0.1156120), wk =   0.3333333
        k(    6) = (   0.0000000   0.2237744  -0.2312240), wk =   0.1666667
        k(    7) = (  -0.4324275   0.0000000   0.0000000), wk =   0.0833333
        k(    8) = (  -0.4324275   0.0000000   0.1156120), wk =   0.1666667
        k(    9) = (  -0.4324275   0.0000000  -0.2312240), wk =   0.0833333
        k(   10) = (  -0.4324275   0.2237744   0.0000000), wk =   0.1666667
        k(   11) = (  -0.4324275   0.2237744   0.1156120), wk =   0.3333333
        k(   12) = (  -0.4324275   0.2237744  -0.2312240), wk =   0.1666667

     Largest allocated arrays     est. size (Mb)     dimensions
     Largest temporary arrays     est. size (Mb)     dimensions

     Initial potential from superposition of free atoms

     Starting from uniform charge
     Starting wfc are    0 randomized atomic wfcs

     Writing output data file Prototype-La-oP12-Co2Si.save

     Self-consistent Calculation

[...]

     iteration #  7     ecut=    40.00 Ry     beta=0.70
     CG style diagonalization
     ethr =  5.89E-04,  avg # of iterations =  3.5

[...]

     total energy              =   -1687.07365032 Ry
     Harris-Foulkes estimate   =   -1687.07370123 Ry
     estimated scf accuracy    <       0.00011107 Ry

     iteration # 11     ecut=    40.00 Ry     beta=0.70
     CG style diagonalization
     c_bands:  1 eigenvalues not converged
     ethr =  6.04E-08,  avg # of iterations =  4.0

     End of self-consistent calculation

[...]

          k = 0.0000 0.2238-0.2312 (  5482 PWs)   bands (ev):

[...]

          k =-0.4324 0.2238-0.2312 (  5524 PWs)   bands (ev):

   -39.0072 -39.0072 -39.0047 -39.0047 -17.3425 -17.3425 -17.2516 -17.2516
   -17.0585 -17.0585 -16.9262 -16.9262 -10.3006 -10.3006 -10.2837 -10.2837
   -10.2267 -10.2267 -10.1783 -10.1783 -10.0748 -10.0748 -10.0399 -10.0399
     2.9589   2.9589   3.2939   3.2939   3.4346   3.4346   3.6233   3.6233
     3.6845   3.6845   4.2618   4.2618   4.5893   4.5893   4.8071   4.8071
     4.9751   4.9751   5.0064   5.0064   5.2215   5.2215   5.3298   5.3298
    22.6117  22.6117  22.9954  22.9954  23.1121  23.1121  23.4902  23.4902
    23.6996  23.6996  23.9039  23.9039  24.1148  24.1148  24.2741  24.2741
    24.9686  24.9686  25.1587  25.1587  26.2751  26.2751  26.4558  26.4558
    26.9452  26.9452  27.2634  27.2634  27.2927  27.2927  27.7087  27.7087
    28.0112  28.0112  28.8218  28.8218  29.0202  29.0202  29.6501  29.6501
    29.9463  29.9463  30.4754  30.4754  30.5786  30.5786  31.2740  31.2740
    31.4998  31.4998  31.9357  31.9357  32.7432  32.7432  33.6823  33.6824
    34.2066  34.2068  34.5769  34.5771  35.1791  35.1798

     the Fermi energy is    30.9287 ev

!    total energy              =   -1687.07368144 Ry
     Harris-Foulkes estimate   =   -1687.07368546 Ry
     estimated scf accuracy    <       0.00000573 Ry

     The total energy is the sum of the following terms:

     one-electron contribution =      81.96060169 Ry
     hartree contribution      =     145.27568056 Ry
     xc contribution           =    -190.09579373 Ry
     ewald contribution        =   -1723.63219602 Ry
     smearing contrib. (-TS)   =      -0.58197395 Ry

     convergence has been achieved in  11 iterations

     Forces acting on atoms (Ry/au):

     atom    1 type  1   force =     0.00000000   -0.03498418   -0.01846920
     atom    2 type  1   force =     0.00000000    0.03498418    0.01846920
     atom    3 type  1   force =     0.00000000   -0.03498418    0.01846920
     atom    4 type  1   force =     0.00000000    0.03498418   -0.01846920
     atom    5 type  1   force =     0.00000000    0.05616019   -0.07962208
     atom    6 type  1   force =     0.00000000   -0.05616019    0.07962208
     atom    7 type  1   force =     0.00000000    0.05616019    0.07962208
     atom    8 type  1   force =     0.00000000   -0.05616019   -0.07962208
     atom    9 type  2   force =     0.00000000   -0.03023878   -0.01523421
     atom   10 type  2   force =     0.00000000    0.03023878    0.01523421
     atom   11 type  2   force =     0.00000000   -0.03023878    0.01523421
     atom   12 type  2   force =     0.00000000    0.03023878   -0.01523421

     Total force =     0.220953     Total SCF correction =     0.000000

     entering subroutine stress ...

          total   stress  (Ry/bohr**3)                   (kbar)     P= 1124.47
   0.00822022   0.00000000   0.00000000       1209.24      0.00      0.00
   0.00000000   0.00717790   0.00000000          0.00   1055.91      0.00
   0.00000000   0.00000000   0.00753386          0.00      0.00   1108.27

     Writing output data file Prototype-La-oP12-Co2Si.save

     General routines

     Parallel routines

   This run was terminated on:  17:46:52  22Mar2018

   JOB DONE.