     Program PWSCF v.5.0.2 starts on 23Mar2018 at  0:56: 1

     Current dimensions of program PWSCF are:
     Max number of different atomic species (ntypx) = 10
     Max number of k-points (npk) =  40000
     Max angular momentum in pseudopotentials (lmaxx) =  3
     Waiting for input...
     Reading input from standard input

     Subspace diagonalization in iterative solution of the eigenvalue problem:
     a serial algorithm will be used

     bravais-lattice index     =            0
     lattice parameter (alat)  =       7.0151  a.u.
     unit-cell volume          =     862.2778 (a.u.)^3
     number of atoms/cell      =           12
     number of atomic types    =            2
     number of electrons       =       240.00
     number of Kohn-Sham states=          144
     kinetic-energy cutoff     =      40.0000  Ry
     charge density cutoff     =     160.0000  Ry
     convergence threshold     =      1.0E-04
     mixing beta               =       0.7000
     number of iterations used =            8  plain     mixing
     Exchange-correlation      = SLA-PZ-NOGX-NOGC ( 1 1 0 0 0)
     EXX-fraction              =        0.00
     nstep                     =           50

     celldm(1)=   7.015105  celldm(2)=   0.000000  celldm(3)=   0.000000
     celldm(4)=   0.000000  celldm(5)=   0.000000  celldm(6)=   0.000000

     crystal axes: (cart. coord. in units of alat)
               a(1) = (   1.000000   0.000000   0.000000 )
               a(2) = (   0.000000   1.315963   0.000000 )
               a(3) = (   0.000000   0.000000   1.898020 )

     reciprocal axes: (cart. coord. in units 2 pi/alat)
               b(1) = (  1.000000  0.000000  0.000000 )
               b(2) = (  0.000000  0.759900  0.000000 )
               b(3) = (  0.000000  0.000000  0.526865 )

     PseudoPot. # 1 for Ho read from file:
     /home/cwx6513/pp.La/Ho.UPF
     MD5 check sum: f307ee11bce99f5b724fa279e3790763
     Pseudo is Norm-conserving, Zval = 21.0
     Generated in analytical, separable form
     Using radial grid of 1265 points,  6 beta functions with:
                l(1) =   0
                l(2) =   0
                l(3) =   1
                l(4) =   1
                l(5) =   2
                l(6) =   3

     PseudoPot. # 2 for Gd read from file:
     /home/cwx6513/pp.La/Gd.UPF
     MD5 check sum: 09a8be538722f05520810cb6aac0efd2
     Pseudo is Norm-conserving, Zval = 18.0
     Generated in analytical, separable form
     Using radial grid of 1263 points,  6 beta functions with:
                l(1) =   0
                l(2) =   0
                l(3) =   1
                l(4) =   1
                l(5) =   2
                l(6) =   3

     atomic species   valence    mass     pseudopotential
        Co            21.00    58.93320     Ho( 1.00)
        Si            18.00    28.08550     Gd( 1.00)

      8 Sym. Ops., with inversion, found ( 6 have fractional translation)

   Cartesian axes

     site n.     atom                  positions (alat units)
         1           Co  tau(   1) = (   0.7500000   1.0875135   0.8270358  )
         2           Co  tau(   2) = (   0.2500000   0.2284499   1.0709846  )
         3           Co  tau(   3) = (   0.7500000   0.4295318   0.1219744  )
         4           Co  tau(   4) = (   0.2500000   0.8864316   1.7760460  )
         5           Co  tau(   5) = (   0.2500000   0.7067855   0.5358966  )
         6           Co  tau(   6) = (   0.7500000   0.6091779   1.3621238  )
         7           Co  tau(   7) = (   0.2500000   0.0488038   0.4131136  )
         8           Co  tau(   8) = (   0.7500000   1.2671596   1.4849068  )
         9           Si  tau(   9) = (   0.2500000   0.2669484   1.6960710  )
        10           Si  tau(  10) = (   0.7500000   1.0490149   0.2019494  )
        11           Si  tau(  11) = (   0.2500000   0.9249301   1.1509596  )
        12           Si  tau(  12) = (   0.7500000   0.3910333   0.7470608  )

     number of k points=    12  gaussian smearing, width (Ry)=  0.1000
                       cart. coord. in units 2pi/alat
        k(    1) = (   0.0000000   0.0000000   0.0000000), wk =   0.0833333
        k(    2) = (   0.0000000   0.0000000   0.1317162), wk =   0.1666667
        k(    3) = (   0.0000000   0.0000000  -0.2634324), wk =   0.0833333
        k(    4) = (   0.0000000   0.2532999   0.0000000), wk =   0.1666667
        k(    5) = (   0.0000000   0.2532999   0.1317162), wk =   0.3333333
        k(    6) = (   0.0000000   0.2532999  -0.2634324), wk =   0.1666667
        k(    7) = (  -0.5000000   0.0000000   0.0000000), wk =   0.0833333
        k(    8) = (  -0.5000000   0.0000000   0.1317162), wk =   0.1666667
        k(    9) = (  -0.5000000   0.0000000  -0.2634324), wk =   0.0833333
        k(   10) = (  -0.5000000   0.2532999   0.0000000), wk =   0.1666667
        k(   11) = (  -0.5000000   0.2532999   0.1317162), wk =   0.3333333
        k(   12) = (  -0.5000000   0.2532999  -0.2634324), wk =   0.1666667

     Largest allocated arrays     est. size (Mb)     dimensions
     Largest temporary arrays     est. size (Mb)     dimensions

     Initial potential from superposition of free atoms

     Starting from uniform charge
     Starting wfc are    0 randomized atomic wfcs

     Self-consistent Calculation

     iteration #  1     ecut=    40.00 Ry     beta=0.70
     CG style diagonalization
     c_bands:  1 eigenvalues not converged
     c_bands:  4 eigenvalues not converged
     c_bands:  2 eigenvalues not converged
     c_bands:  1 eigenvalues not converged
     ethr =  1.00E-02,  avg # of iterations = 11.8

     total energy              =   -2874.46139066 Ry
     Harris-Foulkes estimate   =   -3498.03275835 Ry
     estimated scf accuracy    <     805.05637296 Ry

     iteration #  2     ecut=    40.00 Ry     beta=0.70
     CG style diagonalization
     ethr =  1.00E-02,  avg # of iterations =  9.3

[...]

     End of self-consistent calculation

          k = 0.0000 0.0000 0.0000 (  3675 PWs)   bands (ev):

   -41.9448 -41.8261 -41.8059 -41.7733 -41.7471 -41.6709 -41.6303 -41.6195
   -19.3728 -19.3700 -19.3268 -19.3196  -7.2706  -7.1837  -7.0379  -6.9898
    -6.8923  -6.7832  -6.6908  -6.6163  -6.5851  -6.5670  -6.3592  -6.3578
    -6.2938  -6.2611  -6.2533  -6.2383  -6.1378  -6.0592  -6.0338  -6.0012
    -5.9244  -5.8081  -5.6682  -5.5900   8.5222   8.6781   8.6999   8.7666
     8.7777   8.8045   8.8636   8.9072   9.0881   9.2004   9.2653   9.4025
    31.2273  31.5567  31.8318  31.8681  31.8773  31.9378  32.2241  32.5666
    32.7520  33.1263  33.3794  33.8824  33.9832  34.2146  34.4139  34.4988
    34.9016  35.1183  35.1298  35.5633  35.7815  36.0057  36.0809  36.2050
    36.3086  36.5318  36.7912  36.9965  37.2217  37.4332  37.5161  37.5201
    37.7554  37.9766  38.1217  38.1308  39.0808  39.2833  39.3330  39.8275
    40.2773  40.5248  40.6660  41.3043  42.6338  42.8602  43.5116  43.6272
    43.9465  43.9798  44.0618  45.1420  45.4469  45.7341  45.8771  46.0528
    46.7455  47.0308  47.5294  47.5353  47.5491  48.0492  48.1163  48.3173
    49.1307  51.9287  52.0329  52.6107  52.7378  53.5845  54.4398  55.9212
    55.9578  56.4334  57.0078  57.2843  57.5077  57.5489  57.6775  58.0482
    58.3149  58.3970  58.4957  58.5051  59.0997  59.1729  59.2663  59.5439
    60.1482  60.3081  60.4176  60.5094  60.5932  60.8898  60.9131  60.9402

[...]

          k =-0.5000 0.0000 0.0000 (  3722 PWs)   bands (ev):

[...]

     the Fermi energy is    55.4030 ev

!    total energy              =   -3137.86453975 Ry
     Harris-Foulkes estimate   =   -3137.86455319 Ry
     estimated scf accuracy    <       0.00001337 Ry

     The total energy is the sum of the following terms:

     one-electron contribution =     250.06413699 Ry
     hartree contribution      =     254.16544366 Ry
     xc contribution           =    -303.92755028 Ry
     ewald contribution        =   -3337.90217355 Ry
     smearing contrib. (-TS)   =      -0.26439656 Ry

     convergence has been achieved in  10 iterations

     Forces acting on atoms (Ry/au):

     atom    1 type  1   force =     0.00000000   -0.11512472   -0.10252628
     atom    2 type  1   force =     0.00000000    0.11512472    0.10252628
     atom    3 type  1   force =     0.00000000   -0.11512472    0.10252628
     atom    4 type  1   force =     0.00000000    0.11512472   -0.10252628
     atom    5 type  1   force =     0.00000000    0.14286505   -0.15121533
     atom    6 type  1   force =     0.00000000   -0.14286505    0.15121533
     atom    7 type  1   force =     0.00000000    0.14286505    0.15121533
     atom    8 type  1   force =     0.00000000   -0.14286505   -0.15121533
     atom    9 type  2   force =     0.00000000   -0.20384194   -0.02451445
     atom   10 type  2   force =     0.00000000    0.20384194    0.02451445
     atom   11 type  2   force =     0.00000000   -0.20384194    0.02451445
     atom   12 type  2   force =     0.00000000    0.20384194   -0.02451445

     Total force =     0.660891     Total SCF correction =     0.000000

     entering subroutine stress ...

          total   stress  (Ry/bohr**3)                   (kbar)     P= 7465.41
   0.05349335   0.00000000   0.00000000       7869.14      0.00      0.00
   0.00000000   0.04795839   0.00000000          0.00   7054.92      0.00
   0.00000000   0.00000000   0.05079484          0.00      0.00   7472.18

     BFGS Geometry Optimization

     number of scf cycles    =   1
     number of bfgs steps    =   0

     enthalpy new            =   -3137.8645397454 Ry

     new trust radius        =       0.5000000000 bohr
     new conv_thr            =       0.0001000000 Ry

     new unit-cell volume =   1088.52458 a.u.^3 (   161.30270 Ang^3 )

CELL_PARAMETERS (alat=  7.01510508)
   1.085136619   0.000000000   0.000000000
   0.000000000   1.416407617   0.000000000
   0.000000000   0.000000000   2.051459868

ATOMIC_POSITIONS (crystal)
Co       0.750000000   0.825607097   0.435245796
Co       0.250000000   0.174392903   0.564754204
Co       0.750000000   0.325607097   0.064754204
Co       0.250000000   0.674392903   0.935245796
Co       0.250000000   0.538071200   0.281622002
Co       0.750000000   0.461928800   0.718377998
Co       0.250000000   0.038071200   0.218377998
Co       0.750000000   0.961928800   0.781622002
Si       0.250000000   0.201448302   0.893482790
Si       0.750000000   0.798551698   0.106517210
Si       0.250000000   0.701448302   0.606517210
Si       0.750000000   0.298551698   0.393482790

     Writing output data file Prototype-La-oP12-Co2Si.save
     NEW-OLD atomic charge density approx. for the potential
     NEW k-points:
        k(    1) = (   0.0000000   0.0000000   0.0000000), wk =   0.0833333
        k(    2) = (   0.0000000   0.0000000   0.1218644), wk =   0.1666667
        k(    3) = (   0.0000000   0.0000000  -0.2437289), wk =   0.0833333
        k(    4) = (   0.0000000   0.2353372   0.0000000), wk =   0.1666667
        k(    5) = (   0.0000000   0.2353372   0.1218644), wk =   0.3333333
        k(    6) = (   0.0000000   0.2353372  -0.2437289), wk =   0.1666667
        k(    7) = (  -0.4607715   0.0000000   0.0000000), wk =   0.0833333
        k(    8) = (  -0.4607715   0.0000000   0.1218644), wk =   0.1666667
        k(    9) = (  -0.4607715   0.0000000  -0.2437289), wk =   0.0833333
        k(   10) = (  -0.4607715   0.2353372   0.0000000), wk =   0.1666667
        k(   11) = (  -0.4607715   0.2353372   0.1218644), wk =   0.3333333
        k(   12) = (  -0.4607715   0.2353372  -0.2437289), wk =   0.1666667

[...]

     enthalpy old            =   -3137.8645397454 Ry
     enthalpy new            =   -3144.8577253518 Ry

     CASE: enthalpy_new < enthalpy_old

     small trust_radius: resetting bfgs history

     new trust radius        =       2.6462138833 bohr
     new conv_thr            =       0.0001000000 Ry

[...]

          total   stress  (Ry/bohr**3)                   (kbar)     P=-2617.73
  -0.01860288   0.00000000   0.00000000      -2736.58      0.00      0.00
   0.00000000  -0.01678813   0.00000000          0.00  -2469.62      0.00
   0.00000000   0.00000000  -0.01799399          0.00      0.00  -2647.01

     number of scf cycles    =   3
     number of bfgs steps    =   2

     enthalpy old            =   -3144.8577253518 Ry
     enthalpy new            =   -3126.2500284084 Ry

     CASE: enthalpy_new > enthalpy_old

     new trust radius        =       0.7969083529 bohr

     trust_radius < trust_radius_min

     resetting bfgs history

     Message from routine bfgs:
     history already reset at previous step: stopping
     new conv_thr            =       0.0001000000 Ry

     new unit-cell volume =   1302.87380 a.u.^3 (   193.06598 Ang^3 )

[...]

ATOMIC_POSITIONS (crystal)
Co       0.750000000   0.825022029   0.434943776
Co       0.250000000   0.174977971   0.565056224
Co       0.750000000   0.325022029   0.065056224
Co       0.250000000   0.674977971   0.934943776
Co       0.250000000   0.539094975   0.281050872
Co       0.750000000   0.460905025   0.718949128
Co       0.250000000   0.039094975   0.218949128
Co       0.750000000   0.960905025   0.781050872
Si       0.250000000   0.200135215   0.893482972
Si       0.750000000   0.799864785   0.106517028
Si       0.250000000   0.700135215   0.606517028
Si       0.750000000   0.299864785   0.393482972

     Writing output data file Prototype-La-oP12-Co2Si.save
     NEW-OLD atomic charge density approx. for the potential
     NEW k-points:
        k(    1) = (   0.0000000   0.0000000   0.0000000), wk =   0.0833333
        k(    2) = (   0.0000000   0.0000000   0.1145802), wk =   0.1666667
        k(    3) = (   0.0000000   0.0000000  -0.2291605), wk =   0.0833333
        k(    4) = (   0.0000000   0.2226927   0.0000000), wk =   0.1666667
        k(    5) = (   0.0000000   0.2226927   0.1145802), wk =   0.3333333
        k(    6) = (   0.0000000   0.2226927  -0.2291605), wk =   0.1666667
        k(    7) = (  -0.4326864   0.0000000   0.0000000), wk =   0.0833333
        k(    8) = (  -0.4326864   0.0000000   0.1145802), wk =   0.1666667
        k(    9) = (  -0.4326864   0.0000000  -0.2291605), wk =   0.0833333
        k(   10) = (  -0.4326864   0.2226927   0.0000000), wk =   0.1666667
        k(   11) = (  -0.4326864   0.2226927   0.1145802), wk =   0.3333333
        k(   12) = (  -0.4326864   0.2226927  -0.2291605), wk =   0.1666667

[...]

     The maximum number of steps has been reached.

     End of BFGS Geometry Optimization
Begin final coordinates
     new unit-cell volume =   1302.87380 a.u.^3 (   193.06598 Ang^3 )

CELL_PARAMETERS (alat=  7.01510508)
   1.155571340   0.000000000   0.000000000
   0.000000000   1.496830977   0.000000000
   0.000000000   0.000000000   2.181877107

ATOMIC_POSITIONS (crystal)
Co       0.750000000   0.825022029   0.434943776
Co       0.250000000   0.174977971   0.565056224
Co       0.750000000   0.325022029   0.065056224
Co       0.250000000   0.674977971   0.934943776
Co       0.250000000   0.539094975   0.281050872
Co       0.750000000   0.460905025   0.718949128
Co       0.250000000   0.039094975   0.218949128
Co       0.750000000   0.960905025   0.781050872
Si       0.250000000   0.200135215   0.893482972
Si       0.750000000   0.799864785   0.106517028
Si       0.250000000   0.700135215   0.606517028
Si       0.750000000   0.299864785   0.393482972
End final coordinates

     A final scf calculation at the relaxed structure.
     The G-vectors are recalculated for the final unit cell
     Results may differ from those at the preceding step.

     bravais-lattice index     =            0
     lattice parameter (alat)  =       7.0151  a.u.
     unit-cell volume          =    1302.8738 (a.u.)^3
     number of atoms/cell      =           12
     number of atomic types    =            2
     number of electrons       =       240.00
     number of Kohn-Sham states=          144
     kinetic-energy cutoff     =      40.0000  Ry
     charge density cutoff     =     160.0000  Ry
     convergence threshold     =      1.0E-04
     mixing beta               =       0.7000
     number of iterations used =            8  plain     mixing
     Exchange-correlation      = SLA-PZ-NOGX-NOGC ( 1 1 0 0 0)
     EXX-fraction              =        0.00

     celldm(1)=   7.015105  celldm(2)=   0.000000  celldm(3)=   0.000000
     celldm(4)=   0.000000  celldm(5)=   0.000000  celldm(6)=   0.000000

     crystal axes: (cart. coord. in units of alat)
               a(1) = (   1.155571   0.000000   0.000000 )
               a(2) = (   0.000000   1.496831   0.000000 )
               a(3) = (   0.000000   0.000000   2.181877 )

     reciprocal axes: (cart. coord. in units 2 pi/alat)
               b(1) = (  0.865373  0.000000  0.000000 )
               b(2) = (  0.000000  0.668078  0.000000 )
               b(3) = (  0.000000  0.000000  0.458321 )

     PseudoPot. # 1 for Ho read from file:
     /home/cwx6513/pp.La/Ho.UPF
     MD5 check sum: f307ee11bce99f5b724fa279e3790763
     Pseudo is Norm-conserving, Zval = 21.0
     Generated in analytical, separable form
     Using radial grid of 1265 points,  6 beta functions with:
                l(1) =   0
                l(2) =   0
                l(3) =   1
                l(4) =   1
                l(5) =   2
                l(6) =   3

     PseudoPot. # 2 for Gd read from file:
     /home/cwx6513/pp.La/Gd.UPF
     MD5 check sum: 09a8be538722f05520810cb6aac0efd2
     Pseudo is Norm-conserving, Zval = 18.0
     Generated in analytical, separable form
     Using radial grid of 1263 points,  6 beta functions with:
                l(1) =   0
                l(2) =   0
                l(3) =   1
                l(4) =   1
                l(5) =   2
                l(6) =   3

     atomic species   valence    mass     pseudopotential
        Co            21.00    58.93320     Ho( 1.00)
        Si            18.00    28.08550     Gd( 1.00)

      8 Sym. Ops., with inversion, found ( 6 have fractional translation)

   Cartesian axes

     site n.     atom                  positions (alat units)
         1           Co  tau(   1) = (   0.8666785   1.2349185   0.9489939  )
         2           Co  tau(   2) = (   0.2888928   0.2619124   1.2328832  )
         3           Co  tau(   3) = (   0.8666785   0.4865030   0.1419447  )
         4           Co  tau(   4) = (   0.2888928   1.0103279   2.0399324  )
         5           Co  tau(   5) = (   0.2888928   0.8069341   0.6132185  )
         6           Co  tau(   6) = (   0.8666785   0.6898969   1.5686586  )
         7           Co  tau(   7) = (   0.2888928   0.0585186   0.4777201  )
         8           Co  tau(   8) = (   0.8666785   1.4383124   1.7041570  )
         9           Si  tau(   9) = (   0.2888928   0.2995686   1.9494700  )
        10           Si  tau(  10) = (   0.8666785   1.1972624   0.2324071  )
        11           Si  tau(  11) = (   0.2888928   1.0479841   1.3233456  )
        12           Si  tau(  12) = (   0.8666785   0.4488469   0.8585315  )

     number of k points=    12  gaussian smearing, width (Ry)=  0.1000
                       cart. coord. in units 2pi/alat
        k(    1) = (   0.0000000   0.0000000   0.0000000), wk =   0.0833333
        k(    2) = (   0.0000000   0.0000000   0.1145802), wk =   0.1666667
        k(    3) = (   0.0000000   0.0000000  -0.2291605), wk =   0.0833333
        k(    4) = (   0.0000000   0.2226927   0.0000000), wk =   0.1666667
        k(    5) = (   0.0000000   0.2226927   0.1145802), wk =   0.3333333
        k(    6) = (   0.0000000   0.2226927  -0.2291605), wk =   0.1666667
        k(    7) = (  -0.4326864   0.0000000   0.0000000), wk =   0.0833333
        k(    8) = (  -0.4326864   0.0000000   0.1145802), wk =   0.1666667
        k(    9) = (  -0.4326864   0.0000000  -0.2291605), wk =   0.0833333
        k(   10) = (  -0.4326864   0.2226927   0.0000000), wk =   0.1666667
        k(   11) = (  -0.4326864   0.2226927   0.1145802), wk =   0.3333333
        k(   12) = (  -0.4326864   0.2226927  -0.2291605), wk =   0.1666667

     Largest allocated arrays     est. size (Mb)     dimensions
     Largest temporary arrays     est. size (Mb)     dimensions

     Initial potential from superposition of free atoms

     Starting from uniform charge
     Starting wfc are    0 randomized atomic wfcs

     Writing output data file Prototype-La-oP12-Co2Si.save

     Self-consistent Calculation

[...]

     iteration #  6     ecut=    40.00 Ry     beta=0.70
     CG style diagonalization
     ethr =  6.28E-04,  avg # of iterations =  4.3

[...]

     total energy              =   -3151.35757558 Ry
     Harris-Foulkes estimate   =   -3151.35773033 Ry
     estimated scf accuracy    <       0.00025400 Ry

     iteration # 10     ecut=    40.00 Ry     beta=0.70
     CG style diagonalization
     c_bands:  1 eigenvalues not converged
     ethr =  1.06E-07,  avg # of iterations =  3.9

     End of self-consistent calculation

[...]

          k = 0.0000 0.2227-0.2292 (  5550 PWs)   bands (ev):

[...]

          k =-0.4327 0.2227-0.2292 (  5560 PWs)   bands (ev):

   -58.8243 -58.8243 -58.8127 -58.8127 -58.7906 -58.7906 -58.7779 -58.7779
   -35.7879 -35.7879 -35.7869 -35.7869 -23.2191 -23.2191 -23.1322 -23.1322
   -23.1288 -23.1288 -23.1065 -23.1065 -23.0998 -23.0998 -23.0480 -23.0480
   -23.0018 -23.0018 -22.9949 -22.9949 -22.9682 -22.9682 -22.9648 -22.9648
   -22.9367 -22.9367 -22.9308 -22.9308  -7.1397  -7.1397  -7.1263  -7.1263
    -7.0581  -7.0581  -7.0534  -7.0534  -6.8993  -6.8993  -6.8918  -6.8918
    18.6505  18.6505  19.0401  19.0401  19.1754  19.1754  19.2459  19.2459
    19.4104  19.4104  19.5190  19.5190  19.5471  19.5471  19.9437  19.9437
    19.9619  19.9619  20.0919  20.0919  20.1224  20.1224  20.5401  20.5401
    20.5436  20.5436  20.6372  20.6372  20.7448  20.7448  20.8829  20.8829
    21.1462  21.1462  21.5028  21.5028  21.5739  21.5739  22.0215  22.0215
    23.7849  23.7849  23.8403  23.8403  25.6807  25.6807  26.1523  26.1523
    27.2021  27.2021  27.2070  27.2070  27.5550  27.5550  27.9594  27.9594
    28.4264  28.4264  28.5109  28.5109  28.8186  28.8186  28.8409  28.8409
    30.6858  30.6858  30.7996  30.7996  31.7034  31.7034  34.2622  34.2622
    35.3921  35.3921  36.1013  36.1013  37.3306  37.3306  38.1460  38.1461
    39.5930  39.5930  40.6117  40.6117  41.0773  41.0774  41.2205  41.2206
    41.6092  41.6093  41.6899  41.6899  42.1989  42.1990  42.6143  42.6146

     the Fermi energy is    35.1457 ev

!    total energy              =   -3151.35762003 Ry
     Harris-Foulkes estimate   =   -3151.35769696 Ry
     estimated scf accuracy    <       0.00008449 Ry

     The total energy is the sum of the following terms:

     one-electron contribution =    -350.44708549 Ry
     hartree contribution      =     401.23504928 Ry
     xc contribution           =    -292.29119923 Ry
     ewald contribution        =   -2909.61032357 Ry
     smearing contrib. (-TS)   =      -0.24406103 Ry

     convergence has been achieved in  10 iterations

     Forces acting on atoms (Ry/au):

     atom    1 type  1   force =     0.00000000   -0.02409216    0.01466881
     atom    2 type  1   force =     0.00000000    0.02409216   -0.01466881
     atom    3 type  1   force =     0.00000000   -0.02409216   -0.01466881
     atom    4 type  1   force =     0.00000000    0.02409216    0.01466881
     atom    5 type  1   force =     0.00000000    0.05415028   -0.02331506
     atom    6 type  1   force =     0.00000000   -0.05415028    0.02331506
     atom    7 type  1   force =     0.00000000    0.05415028    0.02331506
     atom    8 type  1   force =     0.00000000   -0.05415028   -0.02331506
     atom    9 type  2   force =     0.00000000   -0.05979946    0.03040813
     atom   10 type  2   force =     0.00000000    0.05979946   -0.03040813
     atom   11 type  2   force =     0.00000000   -0.05979946   -0.03040813
     atom   12 type  2   force =     0.00000000    0.05979946    0.03040813

     Total force =     0.187319     Total SCF correction =     0.000000

     entering subroutine stress ...

          total   stress  (Ry/bohr**3)                   (kbar)     P= 1013.37
   0.00696761   0.00000000   0.00000000       1024.97      0.00      0.00
   0.00000000   0.00664237   0.00000000          0.00    977.13      0.00
   0.00000000   0.00000000   0.00705626          0.00      0.00   1038.01

     Writing output data file Prototype-La-oP12-Co2Si.save

     General routines

     Parallel routines

   This run was terminated on:   1:16: 7  23Mar2018

   JOB DONE.