     Program PWSCF v.5.0.2 starts on 22Mar2018 at 17:34:59

     Current dimensions of program PWSCF are:
     Max number of different atomic species (ntypx) = 10
     Max number of k-points (npk) =  40000
     Max angular momentum in pseudopotentials (lmaxx) =  3
     Waiting for input...
     Reading input from standard input

     Subspace diagonalization in iterative solution of the eigenvalue problem:
     a serial algorithm will be used

     bravais-lattice index     =            0
     lattice parameter (alat)  =       8.5346  a.u.
     unit-cell volume          =     621.6493 (a.u.)^3
     number of atoms/cell      =            8
     number of atomic types    =            2
     number of electrons       =       122.00
     number of Kohn-Sham states=           73
     kinetic-energy cutoff     =      40.0000  Ry
     charge density cutoff     =     160.0000  Ry
     convergence threshold     =      1.0E-04
     mixing beta               =       0.7000
     number of iterations used =            8  plain     mixing
     Exchange-correlation      = SLA-PZ-NOGX-NOGC ( 1 1 0 0 0)
     EXX-fraction              =        0.00
     nstep                     =           50

     celldm(1)=   8.534573  celldm(2)=   0.000000  celldm(3)=   0.000000
     celldm(4)=   0.000000  celldm(5)=   0.000000  celldm(6)=   0.000000

     crystal axes: (cart. coord. in units of alat)
               a(1) = (   1.000000   0.000000   0.000000 )
               a(2) = (   0.000000   1.000000   0.000000 )
               a(3) = (   0.000000   0.000000   1.000000 )

     reciprocal axes: (cart. coord. in units 2 pi/alat)
               b(1) = (  1.000000  0.000000  0.000000 )
               b(2) = (  0.000000  1.000000  0.000000 )
               b(3) = (  0.000000  0.000000  1.000000 )

     PseudoPot. # 1 for Nd read from file:
     /home/cwx6513/pp.La/Nd.UPF
     MD5 check sum: c66c5b6abe7b5840ced9b1e244e3bed6
     Pseudo is Norm-conserving, Zval = 14.0
     Generated in analytical, separable form
     Using radial grid of 1257 points,  6 beta functions with:
                l(1) =   0
                l(2) =   0
                l(3) =   1
                l(4) =   1
                l(5) =   2
                l(6) =   3

     PseudoPot. # 2 for Tb read from file:
     /home/cwx6513/pp.La/Tb.UPF
     MD5 check sum: 3d6088a3f0cf7fd2e110c43f7f8e95c2
     Pseudo is Norm-conserving, Zval = 19.0
     Generated in analytical, separable form
     Using radial grid of 1263 points,  6 beta functions with:
                l(1) =   0
                l(2) =   0
                l(3) =   1
                l(4) =   1
                l(5) =   2
                l(6) =   3

     atomic species   valence    mass     pseudopotential
        Cr            14.00    51.99610     Nd( 1.00)
        Si            19.00    28.08550     Tb( 1.00)

     48 Sym. Ops., with inversion, found (24 have fractional translation)

   Cartesian axes

     site n.     atom                  positions (alat units)
         1           Cr  tau(   1) = (   0.0000000   0.5000000   0.2500000  )
         2           Cr  tau(   2) = (   0.0000000   0.5000000   0.7500000  )
         3           Cr  tau(   3) = (   0.5000000   0.7500000   0.0000000  )
         4           Cr  tau(   4) = (   0.5000000   0.2500000   0.0000000  )
         5           Cr  tau(   5) = (   0.7500000   0.0000000   0.5000000  )
         6           Cr  tau(   6) = (   0.2500000   0.0000000   0.5000000  )
         7           Si  tau(   7) = (   0.5000000   0.5000000   0.5000000  )
         8           Si  tau(   8) = (   0.0000000   0.0000000   0.0000000  )

     number of k points=    48  gaussian smearing, width (Ry)=  0.1000
                       cart. coord. in units 2pi/alat
        k(    1) = (   0.0000000   0.0000000   0.0000000), wk =   0.0095238
        k(    2) = (   0.0000000   0.0000000   0.1428571), wk =   0.0190476
        k(    3) = (   0.0000000   0.0000000   0.2857143), wk =   0.0190476
        k(    4) = (   0.0000000   0.0000000   0.4285714), wk =   0.0190476
        k(    5) = (   0.0000000   0.1666667   0.0000000), wk =   0.0190476
        k(    6) = (   0.0000000   0.1666667   0.1428571), wk =   0.0380952
        k(    7) = (   0.0000000   0.1666667   0.2857143), wk =   0.0380952
        k(    8) = (   0.0000000   0.1666667   0.4285714), wk =   0.0380952
        k(    9) = (   0.0000000   0.3333333   0.0000000), wk =   0.0190476
        k(   10) = (   0.0000000   0.3333333   0.1428571), wk =   0.0380952
        k(   11) = (   0.0000000   0.3333333   0.2857143), wk =   0.0380952
        k(   12) = (   0.0000000   0.3333333   0.4285714), wk =   0.0380952
        k(   13) = (   0.0000000  -0.5000000   0.0000000), wk =   0.0095238
        k(   14) = (   0.0000000  -0.5000000   0.1428571), wk =   0.0190476
        k(   15) = (   0.0000000  -0.5000000   0.2857143), wk =   0.0190476
        k(   16) = (   0.0000000  -0.5000000   0.4285714), wk =   0.0190476
        k(   17) = (   0.2000000   0.0000000   0.0000000), wk =   0.0190476
        k(   18) = (   0.2000000   0.0000000   0.1428571), wk =   0.0380952
        k(   19) = (   0.2000000   0.0000000   0.2857143), wk =   0.0380952
        k(   20) = (   0.2000000   0.0000000   0.4285714), wk =   0.0380952
        k(   21) = (   0.2000000   0.1666667   0.0000000), wk =   0.0380952
        k(   22) = (   0.2000000   0.1666667   0.1428571), wk =   0.0761905
        k(   23) = (   0.2000000   0.1666667   0.2857143), wk =   0.0761905
        k(   24) = (   0.2000000   0.1666667   0.4285714), wk =   0.0761905
        k(   25) = (   0.2000000   0.3333333   0.0000000), wk =   0.0380952
        k(   26) = (   0.2000000   0.3333333   0.1428571), wk =   0.0761905
        k(   27) = (   0.2000000   0.3333333   0.2857143), wk =   0.0761905
        k(   28) = (   0.2000000   0.3333333   0.4285714), wk =   0.0761905
        k(   29) = (   0.2000000  -0.5000000   0.0000000), wk =   0.0190476
        k(   30) = (   0.2000000  -0.5000000   0.1428571), wk =   0.0380952
        k(   31) = (   0.2000000  -0.5000000   0.2857143), wk =   0.0380952
        k(   32) = (   0.2000000  -0.5000000   0.4285714), wk =   0.0380952
        k(   33) = (   0.4000000   0.0000000   0.0000000), wk =   0.0190476
        k(   34) = (   0.4000000   0.0000000   0.1428571), wk =   0.0380952
        k(   35) = (   0.4000000   0.0000000   0.2857143), wk =   0.0380952
        k(   36) = (   0.4000000   0.0000000   0.4285714), wk =   0.0380952
        k(   37) = (   0.4000000   0.1666667   0.0000000), wk =   0.0380952
        k(   38) = (   0.4000000   0.1666667   0.1428571), wk =   0.0761905
        k(   39) = (   0.4000000   0.1666667   0.2857143), wk =   0.0761905
        k(   40) = (   0.4000000   0.1666667   0.4285714), wk =   0.0761905
        k(   41) = (   0.4000000   0.3333333   0.0000000), wk =   0.0380952
        k(   42) = (   0.4000000   0.3333333   0.1428571), wk =   0.0761905
        k(   43) = (   0.4000000   0.3333333   0.2857143), wk =   0.0761905
        k(   44) = (   0.4000000   0.3333333   0.4285714), wk =   0.0761905
        k(   45) = (   0.4000000  -0.5000000   0.0000000), wk =   0.0190476
        k(   46) = (   0.4000000  -0.5000000   0.1428571), wk =   0.0380952
        k(   47) = (   0.4000000  -0.5000000   0.2857143), wk =   0.0380952
        k(   48) = (   0.4000000  -0.5000000   0.4285714), wk =   0.0380952

     Largest allocated arrays     est. size (Mb)     dimensions
     Largest temporary arrays     est. size (Mb)     dimensions

     Initial potential from superposition of free atoms

     Starting from uniform charge
     Starting wfc are    0 randomized atomic wfcs

     Self-consistent Calculation

     iteration #  1     ecut=    40.00 Ry     beta=0.70
     CG style diagonalization
     c_bands:  1 eigenvalues not converged
     c_bands:  1 eigenvalues not converged
     ethr =  1.00E-02,  avg # of iterations = 11.1

     total energy              =    -772.52034207 Ry
     Harris-Foulkes estimate   =   -1262.23874674 Ry
     estimated scf accuracy    <     595.89625975 Ry

[...]

     iteration #  4     ecut=    40.00 Ry     beta=0.70
     CG style diagonalization
     ethr =  1.00E-02,  avg # of iterations =  3.7

[...]

     End of self-consistent calculation

          k = 0.0000 0.0000 0.0000 (  2601 PWs)   bands (ev):

   -34.9004 -34.8927  -7.7057  -6.4115  -6.4115  -4.6437  -4.6437  -4.6437
    -3.7637  -3.7637  -3.7637  -3.1161  -3.1161  -3.1161   9.6571   9.6571
    10.8640  13.2544  13.2544  13.2544  15.5573  15.5573  15.5573  16.8902
    16.8902  16.8902  17.2266  17.2266  17.2266  21.5388  21.5388  21.5388
    31.7633  31.7633  33.4972  33.4972  33.4972  33.5081  33.6657  33.6657
    33.9280  33.9280  33.9280  33.9866  33.9866  33.9866  35.0312  35.1920
    37.5377  37.5377  37.5377  38.0973  38.0973  39.1159  41.8120  41.8120
    41.8120  42.1923  42.1923  44.1086  44.1086  44.1086  44.6141  44.6141
    44.6141  48.4113  48.4114  48.4467  48.8292  48.8292  48.8296  49.6881
    49.6883

[...]

     the Fermi energy is    44.0380 ev

!    total energy              =   -1115.18354574 Ry
     Harris-Foulkes estimate   =   -1115.18358009 Ry
     estimated scf accuracy    <       0.00004166 Ry

     The total energy is the sum of the following terms:

     one-electron contribution =     218.94453229 Ry
     hartree contribution      =      67.42962769 Ry
     xc contribution           =    -132.03143693 Ry
     ewald contribution        =   -1269.26010780 Ry
     smearing contrib. (-TS)   =      -0.26616099 Ry

     convergence has been achieved in   8 iterations

     Forces acting on atoms (Ry/au):

     atom    1 type  1   force =     0.00000000    0.00000000    0.00000000
     atom    2 type  1   force =     0.00000000    0.00000000    0.00000000
     atom    3 type  1   force =     0.00000000    0.00000000    0.00000000
     atom    4 type  1   force =     0.00000000    0.00000000    0.00000000
     atom    5 type  1   force =     0.00000000    0.00000000    0.00000000
     atom    6 type  1   force =     0.00000000    0.00000000    0.00000000
     atom    7 type  2   force =     0.00000000    0.00000000    0.00000000
     atom    8 type  2   force =     0.00000000    0.00000000    0.00000000

     Total force =     0.000000     Total SCF correction =     0.000000

     entering subroutine stress ...

          total   stress  (Ry/bohr**3)                   (kbar)     P= 4871.59
   0.03311641   0.00000000   0.00000000       4871.59      0.00      0.00
   0.00000000   0.03311641   0.00000000          0.00   4871.59      0.00
   0.00000000   0.00000000   0.03311641          0.00      0.00   4871.59

     BFGS Geometry Optimization

     number of scf cycles    =   1
     number of bfgs steps    =   0

     enthalpy new            =   -1115.1835457392 Ry

     new trust radius        =       0.5000000000 bohr
     new conv_thr            =       0.0001000000 Ry

     new unit-cell volume =    828.02266 a.u.^3 (   122.70030 Ang^3 )

CELL_PARAMETERS (alat=  8.53457320)
   1.100269143   0.000000000   0.000000000
   0.000000000   1.100269143   0.000000000
   0.000000000   0.000000000   1.100269143

[...]

[...]

     enthalpy old            =   -1115.1835457392 Ry
     enthalpy new            =   -1118.7759996359 Ry

     CASE: enthalpy_new < enthalpy_old

     small trust_radius: resetting bfgs history

     new trust radius        =       0.9062461080 bohr
     new conv_thr            =       0.0000010000 Ry

[...]

          total   stress  (Ry/bohr**3)                   (kbar)     P=-1189.50
  -0.00808607   0.00000000   0.00000000      -1189.50      0.00      0.00
   0.00000000  -0.00808607   0.00000000          0.00  -1189.50      0.00
   0.00000000   0.00000000  -0.00808607          0.00      0.00  -1189.50

     number of scf cycles    =   3
     number of bfgs steps    =   2

     enthalpy old            =   -1118.7759996359 Ry
     enthalpy new            =   -1117.3040787085 Ry

     CASE: enthalpy_new > enthalpy_old

     new trust radius        =       0.3051792706 bohr

     trust_radius < trust_radius_min

     resetting bfgs history

     Message from routine bfgs:
     history already reset at previous step: stopping
     new conv_thr            =       0.0000010000 Ry

     new unit-cell volume =   1045.25635 a.u.^3 (   154.89101 Ang^3 )

[...]

ATOMIC_POSITIONS (crystal)
Cr       0.000000000   0.500000000   0.250000000
Cr       0.000000000   0.500000000   0.750000000
Cr       0.500000000   0.750000000   0.000000000
Cr       0.500000000   0.250000000   0.000000000
Cr       0.750000000   0.000000000   0.500000000
Cr       0.250000000   0.000000000   0.500000000
Si       0.500000000   0.500000000   0.500000000
Si       0.000000000   0.000000000   0.000000000

     Writing output data file Prototype-La-cP8-Cr3Si.save
     NEW-OLD atomic charge density approx. for the potential
     NEW k-points:
        k(    1) = (   0.0000000   0.0000000   0.0000000), wk =   0.0095238
        k(    2) = (   0.0000000   0.0000000   0.1201368), wk =   0.0190476
        k(    3) = (   0.0000000   0.0000000   0.2402737), wk =   0.0190476
        k(    4) = (   0.0000000   0.0000000   0.3604105), wk =   0.0190476
        k(    5) = (   0.0000000   0.1401596   0.0000000), wk =   0.0190476
        k(    6) = (   0.0000000   0.1401596   0.1201368), wk =   0.0380952
        k(    7) = (   0.0000000   0.1401596   0.2402737), wk =   0.0380952
        k(    8) = (   0.0000000   0.1401596   0.3604105), wk =   0.0380952
        k(    9) = (   0.0000000   0.2803193   0.0000000), wk =   0.0190476
        k(   10) = (   0.0000000   0.2803193   0.1201368), wk =   0.0380952
        k(   11) = (   0.0000000   0.2803193   0.2402737), wk =   0.0380952
        k(   12) = (   0.0000000   0.2803193   0.3604105), wk =   0.0380952
        k(   13) = (   0.0000000  -0.4204789   0.0000000), wk =   0.0095238
        k(   14) = (   0.0000000  -0.4204789   0.1201368), wk =   0.0190476
        k(   15) = (   0.0000000  -0.4204789   0.2402737), wk =   0.0190476
        k(   16) = (   0.0000000  -0.4204789   0.3604105), wk =   0.0190476
        k(   17) = (   0.1681916   0.0000000   0.0000000), wk =   0.0190476
        k(   18) = (   0.1681916   0.0000000   0.1201368), wk =   0.0380952
        k(   19) = (   0.1681916   0.0000000   0.2402737), wk =   0.0380952
        k(   20) = (   0.1681916   0.0000000   0.3604105), wk =   0.0380952
        k(   21) = (   0.1681916   0.1401596   0.0000000), wk =   0.0380952
        k(   22) = (   0.1681916   0.1401596   0.1201368), wk =   0.0761905
        k(   23) = (   0.1681916   0.1401596   0.2402737), wk =   0.0761905
        k(   24) = (   0.1681916   0.1401596   0.3604105), wk =   0.0761905
        k(   25) = (   0.1681916   0.2803193   0.0000000), wk =   0.0380952
        k(   26) = (   0.1681916   0.2803193   0.1201368), wk =   0.0761905
        k(   27) = (   0.1681916   0.2803193   0.2402737), wk =   0.0761905
        k(   28) = (   0.1681916   0.2803193   0.3604105), wk =   0.0761905
        k(   29) = (   0.1681916  -0.4204789   0.0000000), wk =   0.0190476
        k(   30) = (   0.1681916  -0.4204789   0.1201368), wk =   0.0380952
        k(   31) = (   0.1681916  -0.4204789   0.2402737), wk =   0.0380952
        k(   32) = (   0.1681916  -0.4204789   0.3604105), wk =   0.0380952
        k(   33) = (   0.3363831   0.0000000   0.0000000), wk =   0.0190476
        k(   34) = (   0.3363831   0.0000000   0.1201368), wk =   0.0380952
        k(   35) = (   0.3363831   0.0000000   0.2402737), wk =   0.0380952
        k(   36) = (   0.3363831   0.0000000   0.3604105), wk =   0.0380952
        k(   37) = (   0.3363831   0.1401596   0.0000000), wk =   0.0380952
        k(   38) = (   0.3363831   0.1401596   0.1201368), wk =   0.0761905
        k(   39) = (   0.3363831   0.1401596   0.2402737), wk =   0.0761905
        k(   40) = (   0.3363831   0.1401596   0.3604105), wk =   0.0761905
        k(   41) = (   0.3363831   0.2803193   0.0000000), wk =   0.0380952
        k(   42) = (   0.3363831   0.2803193   0.1201368), wk =   0.0761905
        k(   43) = (   0.3363831   0.2803193   0.2402737), wk =   0.0761905
        k(   44) = (   0.3363831   0.2803193   0.3604105), wk =   0.0761905
        k(   45) = (   0.3363831  -0.4204789   0.0000000), wk =   0.0190476
        k(   46) = (   0.3363831  -0.4204789   0.1201368), wk =   0.0380952
        k(   47) = (   0.3363831  -0.4204789   0.2402737), wk =   0.0380952
        k(   48) = (   0.3363831  -0.4204789   0.3604105), wk =   0.0380952

[...]

     The maximum number of steps has been reached.

     End of BFGS Geometry Optimization
Begin final coordinates
     new unit-cell volume =   1045.25635 a.u.^3 (   154.89101 Ang^3 )

CELL_PARAMETERS (alat=  8.53457320)
   1.189120313   0.000000000   0.000000000
   0.000000000   1.189120313   0.000000000
   0.000000000   0.000000000   1.189120313

ATOMIC_POSITIONS (crystal)
Cr       0.000000000   0.500000000   0.250000000
Cr       0.000000000   0.500000000   0.750000000
Cr       0.500000000   0.750000000   0.000000000
Cr       0.500000000   0.250000000   0.000000000
Cr       0.750000000   0.000000000   0.500000000
Cr       0.250000000   0.000000000   0.500000000
Si       0.500000000   0.500000000   0.500000000
Si       0.000000000   0.000000000   0.000000000
End final coordinates

     A final scf calculation at the relaxed structure.
     The G-vectors are recalculated for the final unit cell
     Results may differ from those at the preceding step.

     bravais-lattice index     =            0
     lattice parameter (alat)  =       8.5346  a.u.
     unit-cell volume          =    1045.2564 (a.u.)^3
     number of atoms/cell      =            8
     number of atomic types    =            2
     number of electrons       =       122.00
     number of Kohn-Sham states=           73
     kinetic-energy cutoff     =      40.0000  Ry
     charge density cutoff     =     160.0000  Ry
     convergence threshold     =      1.0E-06
     mixing beta               =       0.7000
     number of iterations used =            8  plain     mixing
     Exchange-correlation      = SLA-PZ-NOGX-NOGC ( 1 1 0 0 0)
     EXX-fraction              =        0.00

     celldm(1)=   8.534573  celldm(2)=   0.000000  celldm(3)=   0.000000
     celldm(4)=   0.000000  celldm(5)=   0.000000  celldm(6)=   0.000000

     crystal axes: (cart. coord. in units of alat)
               a(1) = (   1.189120   0.000000   0.000000 )
               a(2) = (   0.000000   1.189120   0.000000 )
               a(3) = (   0.000000   0.000000   1.189120 )

     reciprocal axes: (cart. coord. in units 2 pi/alat)
               b(1) = (  0.840958  0.000000  0.000000 )
               b(2) = (  0.000000  0.840958  0.000000 )
               b(3) = (  0.000000  0.000000  0.840958 )

     PseudoPot. # 1 for Nd read from file:
     /home/cwx6513/pp.La/Nd.UPF
     MD5 check sum: c66c5b6abe7b5840ced9b1e244e3bed6
     Pseudo is Norm-conserving, Zval = 14.0
     Generated in analytical, separable form
     Using radial grid of 1257 points,  6 beta functions with:
                l(1) =   0
                l(2) =   0
                l(3) =   1
                l(4) =   1
                l(5) =   2
                l(6) =   3

     PseudoPot. # 2 for Tb read from file:
     /home/cwx6513/pp.La/Tb.UPF
     MD5 check sum: 3d6088a3f0cf7fd2e110c43f7f8e95c2
     Pseudo is Norm-conserving, Zval = 19.0
     Generated in analytical, separable form
     Using radial grid of 1263 points,  6 beta functions with:
                l(1) =   0
                l(2) =   0
                l(3) =   1
                l(4) =   1
                l(5) =   2
                l(6) =   3

     atomic species   valence    mass     pseudopotential
        Cr            14.00    51.99610     Nd( 1.00)
        Si            19.00    28.08550     Tb( 1.00)

     48 Sym. Ops., with inversion, found (24 have fractional translation)

   Cartesian axes

     site n.     atom                  positions (alat units)
         1           Cr  tau(   1) = (   0.0000000   0.5945602   0.2972801  )
         2           Cr  tau(   2) = (   0.0000000   0.5945602   0.8918402  )
         3           Cr  tau(   3) = (   0.5945602   0.8918402   0.0000000  )
         4           Cr  tau(   4) = (   0.5945602   0.2972801   0.0000000  )
         5           Cr  tau(   5) = (   0.8918402   0.0000000   0.5945602  )
         6           Cr  tau(   6) = (   0.2972801   0.0000000   0.5945602  )
         7           Si  tau(   7) = (   0.5945602   0.5945602   0.5945602  )
         8           Si  tau(   8) = (   0.0000000   0.0000000   0.0000000  )

     number of k points=    48  gaussian smearing, width (Ry)=  0.1000
                       cart. coord. in units 2pi/alat
        k(    1) = (   0.0000000   0.0000000   0.0000000), wk =   0.0095238
        k(    2) = (   0.0000000   0.0000000   0.1201368), wk =   0.0190476
        k(    3) = (   0.0000000   0.0000000   0.2402737), wk =   0.0190476
        k(    4) = (   0.0000000   0.0000000   0.3604105), wk =   0.0190476
        k(    5) = (   0.0000000   0.1401596   0.0000000), wk =   0.0190476
        k(    6) = (   0.0000000   0.1401596   0.1201368), wk =   0.0380952
        k(    7) = (   0.0000000   0.1401596   0.2402737), wk =   0.0380952
        k(    8) = (   0.0000000   0.1401596   0.3604105), wk =   0.0380952
        k(    9) = (   0.0000000   0.2803193   0.0000000), wk =   0.0190476
        k(   10) = (   0.0000000   0.2803193   0.1201368), wk =   0.0380952
        k(   11) = (   0.0000000   0.2803193   0.2402737), wk =   0.0380952
        k(   12) = (   0.0000000   0.2803193   0.3604105), wk =   0.0380952
        k(   13) = (   0.0000000  -0.4204789   0.0000000), wk =   0.0095238
        k(   14) = (   0.0000000  -0.4204789   0.1201368), wk =   0.0190476
        k(   15) = (   0.0000000  -0.4204789   0.2402737), wk =   0.0190476
        k(   16) = (   0.0000000  -0.4204789   0.3604105), wk =   0.0190476
        k(   17) = (   0.1681916   0.0000000   0.0000000), wk =   0.0190476
        k(   18) = (   0.1681916   0.0000000   0.1201368), wk =   0.0380952
        k(   19) = (   0.1681916   0.0000000   0.2402737), wk =   0.0380952
        k(   20) = (   0.1681916   0.0000000   0.3604105), wk =   0.0380952
        k(   21) = (   0.1681916   0.1401596   0.0000000), wk =   0.0380952
        k(   22) = (   0.1681916   0.1401596   0.1201368), wk =   0.0761905
        k(   23) = (   0.1681916   0.1401596   0.2402737), wk =   0.0761905
        k(   24) = (   0.1681916   0.1401596   0.3604105), wk =   0.0761905
        k(   25) = (   0.1681916   0.2803193   0.0000000), wk =   0.0380952
        k(   26) = (   0.1681916   0.2803193   0.1201368), wk =   0.0761905
        k(   27) = (   0.1681916   0.2803193   0.2402737), wk =   0.0761905
        k(   28) = (   0.1681916   0.2803193   0.3604105), wk =   0.0761905
        k(   29) = (   0.1681916  -0.4204789   0.0000000), wk =   0.0190476
        k(   30) = (   0.1681916  -0.4204789   0.1201368), wk =   0.0380952
        k(   31) = (   0.1681916  -0.4204789   0.2402737), wk =   0.0380952
        k(   32) = (   0.1681916  -0.4204789   0.3604105), wk =   0.0380952
        k(   33) = (   0.3363831   0.0000000   0.0000000), wk =   0.0190476
        k(   34) = (   0.3363831   0.0000000   0.1201368), wk =   0.0380952
        k(   35) = (   0.3363831   0.0000000   0.2402737), wk =   0.0380952
        k(   36) = (   0.3363831   0.0000000   0.3604105), wk =   0.0380952
        k(   37) = (   0.3363831   0.1401596   0.0000000), wk =   0.0380952
        k(   38) = (   0.3363831   0.1401596   0.1201368), wk =   0.0761905
        k(   39) = (   0.3363831   0.1401596   0.2402737), wk =   0.0761905
        k(   40) = (   0.3363831   0.1401596   0.3604105), wk =   0.0761905
        k(   41) = (   0.3363831   0.2803193   0.0000000), wk =   0.0380952
        k(   42) = (   0.3363831   0.2803193   0.1201368), wk =   0.0761905
        k(   43) = (   0.3363831   0.2803193   0.2402737), wk =   0.0761905
        k(   44) = (   0.3363831   0.2803193   0.3604105), wk =   0.0761905
        k(   45) = (   0.3363831  -0.4204789   0.0000000), wk =   0.0190476
        k(   46) = (   0.3363831  -0.4204789   0.1201368), wk =   0.0380952
        k(   47) = (   0.3363831  -0.4204789   0.2402737), wk =   0.0380952
        k(   48) = (   0.3363831  -0.4204789   0.3604105), wk =   0.0380952

     Largest allocated arrays     est. size (Mb)     dimensions
     Largest temporary arrays     est. size (Mb)     dimensions

     Initial potential from superposition of free atoms

     Starting from uniform charge
     Starting wfc are    0 randomized atomic wfcs

     Writing output data file Prototype-La-cP8-Cr3Si.save

     Self-consistent Calculation

[...]

     iteration # 10     ecut=    40.00 Ry     beta=0.70
     CG style diagonalization
     c_bands:  1 eigenvalues not converged
     ethr =  4.65E-07,  avg # of iterations =  3.6

[...]

     total energy              =   -1121.18296023 Ry
     Harris-Foulkes estimate   =   -1121.18296201 Ry
     estimated scf accuracy    <       0.00000458 Ry

     iteration # 12     ecut=    40.00 Ry     beta=0.70
     CG style diagonalization
     ethr =  3.76E-09,  avg # of iterations =  3.9

     End of self-consistent calculation

[...]

          k = 0.3364-0.4205 0.3604 (  4482 PWs)   bands (ev):

   -51.0098 -51.0098 -23.3744 -23.3504 -23.2747 -23.2743 -23.2016 -23.1760
   -19.3641 -19.3639 -19.3569 -19.3567 -19.3518 -19.3517  -2.5949  -2.4534
    -2.1702  -2.1619  -2.0825  -2.0776  -1.8208  -1.7579  -1.5415  -1.5128
    -1.4297  -1.4160  -1.3130  -1.3005  -1.2795  -1.2635  -1.2600  -1.2320
    17.4568  17.4775  17.5754  17.5848  17.6523  17.6844  17.7399  17.7486
    17.7896  17.8042  19.9601  19.9610  21.0520  21.0770  21.5489  21.5850
    21.6474  21.6670  22.4890  22.5278  22.8410  22.8689  23.1190  23.1255
    23.7449  24.0287  24.5145  24.6544  24.7710  24.9216  25.1456  25.1741
    25.6910  25.7125  26.3960  26.5289  26.6570  26.6739  26.7839  26.9148
    27.2679

     the Fermi energy is    24.6836 ev

!    total energy              =   -1121.18296132 Ry
     Harris-Foulkes estimate   =   -1121.18296150 Ry
     estimated scf accuracy    <       0.00000021 Ry

     The total energy is the sum of the following terms:

     one-electron contribution =     -52.30009938 Ry
     hartree contribution      =     122.24111492 Ry
     xc contribution           =    -123.31930932 Ry
     ewald contribution        =   -1067.39418518 Ry
     smearing contrib. (-TS)   =      -0.41048235 Ry

     convergence has been achieved in  12 iterations

     Forces acting on atoms (Ry/au):

     atom    1 type  1   force =     0.00000000    0.00000000    0.00000000
     atom    2 type  1   force =     0.00000000    0.00000000    0.00000000
     atom    3 type  1   force =     0.00000000    0.00000000    0.00000000
     atom    4 type  1   force =     0.00000000    0.00000000    0.00000000
     atom    5 type  1   force =     0.00000000    0.00000000    0.00000000
     atom    6 type  1   force =     0.00000000    0.00000000    0.00000000
     atom    7 type  2   force =     0.00000000    0.00000000    0.00000000
     atom    8 type  2   force =     0.00000000    0.00000000    0.00000000

     Total force =     0.000000     Total SCF correction =     0.000000

     entering subroutine stress ...

          total   stress  (Ry/bohr**3)                   (kbar)     P=  143.15
   0.00097310   0.00000000   0.00000000        143.15      0.00      0.00
   0.00000000   0.00097310   0.00000000          0.00    143.15      0.00
   0.00000000   0.00000000   0.00097310          0.00      0.00    143.15

     Writing output data file Prototype-La-cP8-Cr3Si.save

     General routines

     Parallel routines

   This run was terminated on:  17:56:49  22Mar2018

   JOB DONE.