     Program PWSCF v.5.0.2 starts on 22Mar2018 at 21:15:13

     Current dimensions of program PWSCF are:
     Max number of different atomic species (ntypx) = 10
     Max number of k-points (npk) =  40000
     Max angular momentum in pseudopotentials (lmaxx) =  3
     Waiting for input...
     Reading input from standard input

     Subspace diagonalization in iterative solution of the eigenvalue problem:
     a serial algorithm will be used

     bravais-lattice index     =            0
     lattice parameter (alat)  =       8.5346  a.u.
     unit-cell volume          =     621.6493 (a.u.)^3
     number of atoms/cell      =            8
     number of atomic types    =            2
     number of electrons       =       134.00
     number of Kohn-Sham states=           80
     kinetic-energy cutoff     =      40.0000  Ry
     charge density cutoff     =     160.0000  Ry
     convergence threshold     =      1.0E-04
     mixing beta               =       0.7000
     number of iterations used =            8  plain     mixing
     Exchange-correlation      = SLA-PZ-NOGX-NOGC ( 1 1 0 0 0)
     EXX-fraction              =        0.00
     nstep                     =           50

     celldm(1)=   8.534573  celldm(2)=   0.000000  celldm(3)=   0.000000
     celldm(4)=   0.000000  celldm(5)=   0.000000  celldm(6)=   0.000000

     crystal axes: (cart. coord. in units of alat)
               a(1) = (   1.000000   0.000000   0.000000 )
               a(2) = (   0.000000   1.000000   0.000000 )
               a(3) = (   0.000000   0.000000   1.000000 )

     reciprocal axes: (cart. coord. in units 2 pi/alat)
               b(1) = (  1.000000  0.000000  0.000000 )
               b(2) = (  0.000000  1.000000  0.000000 )
               b(3) = (  0.000000  0.000000  1.000000 )

     PseudoPot. # 1 for Eu read from file:
     /home/cwx6513/pp.La/Eu.UPF
     MD5 check sum: 5efdbbfc50c6a10138933a6429836ad2
     Pseudo is Norm-conserving, Zval = 17.0
     Generated in analytical, separable form
     Using radial grid of 1261 points,  6 beta functions with:
                l(1) =   0
                l(2) =   0
                l(3) =   1
                l(4) =   1
                l(5) =   2
                l(6) =   3

     PseudoPot. # 2 for Sm read from file:
     /home/cwx6513/pp.La/Sm.UPF
     MD5 check sum: 5079e8b144a06bfcdbc14fb02b96ab09
     Pseudo is Norm-conserving, Zval = 16.0
     Generated in analytical, separable form
     Using radial grid of 1259 points,  6 beta functions with:
                l(1) =   0
                l(2) =   0
                l(3) =   1
                l(4) =   1
                l(5) =   2
                l(6) =   3

     atomic species   valence    mass     pseudopotential
        Cr            17.00    51.99610     Eu( 1.00)
        Si            16.00    28.08550     Sm( 1.00)

     48 Sym. Ops., with inversion, found (24 have fractional translation)

   Cartesian axes

     site n.     atom                  positions (alat units)
         1           Cr  tau(   1) = (   0.0000000   0.5000000   0.2500000  )
         2           Cr  tau(   2) = (   0.0000000   0.5000000   0.7500000  )
         3           Cr  tau(   3) = (   0.5000000   0.7500000   0.0000000  )
         4           Cr  tau(   4) = (   0.5000000   0.2500000   0.0000000  )
         5           Cr  tau(   5) = (   0.7500000   0.0000000   0.5000000  )
         6           Cr  tau(   6) = (   0.2500000   0.0000000   0.5000000  )
         7           Si  tau(   7) = (   0.5000000   0.5000000   0.5000000  )
         8           Si  tau(   8) = (   0.0000000   0.0000000   0.0000000  )

     number of k points=    48  gaussian smearing, width (Ry)=  0.1000
                       cart. coord. in units 2pi/alat
        k(    1) = (   0.0000000   0.0000000   0.0000000), wk =   0.0095238
        k(    2) = (   0.0000000   0.0000000   0.1428571), wk =   0.0190476
        k(    3) = (   0.0000000   0.0000000   0.2857143), wk =   0.0190476
        k(    4) = (   0.0000000   0.0000000   0.4285714), wk =   0.0190476
        k(    5) = (   0.0000000   0.1666667   0.0000000), wk =   0.0190476
        k(    6) = (   0.0000000   0.1666667   0.1428571), wk =   0.0380952
        k(    7) = (   0.0000000   0.1666667   0.2857143), wk =   0.0380952
        k(    8) = (   0.0000000   0.1666667   0.4285714), wk =   0.0380952
        k(    9) = (   0.0000000   0.3333333   0.0000000), wk =   0.0190476
        k(   10) = (   0.0000000   0.3333333   0.1428571), wk =   0.0380952
        k(   11) = (   0.0000000   0.3333333   0.2857143), wk =   0.0380952
        k(   12) = (   0.0000000   0.3333333   0.4285714), wk =   0.0380952
        k(   13) = (   0.0000000  -0.5000000   0.0000000), wk =   0.0095238
        k(   14) = (   0.0000000  -0.5000000   0.1428571), wk =   0.0190476
        k(   15) = (   0.0000000  -0.5000000   0.2857143), wk =   0.0190476
        k(   16) = (   0.0000000  -0.5000000   0.4285714), wk =   0.0190476
        k(   17) = (   0.2000000   0.0000000   0.0000000), wk =   0.0190476
        k(   18) = (   0.2000000   0.0000000   0.1428571), wk =   0.0380952
        k(   19) = (   0.2000000   0.0000000   0.2857143), wk =   0.0380952
        k(   20) = (   0.2000000   0.0000000   0.4285714), wk =   0.0380952
        k(   21) = (   0.2000000   0.1666667   0.0000000), wk =   0.0380952
        k(   22) = (   0.2000000   0.1666667   0.1428571), wk =   0.0761905
        k(   23) = (   0.2000000   0.1666667   0.2857143), wk =   0.0761905
        k(   24) = (   0.2000000   0.1666667   0.4285714), wk =   0.0761905
        k(   25) = (   0.2000000   0.3333333   0.0000000), wk =   0.0380952
        k(   26) = (   0.2000000   0.3333333   0.1428571), wk =   0.0761905
        k(   27) = (   0.2000000   0.3333333   0.2857143), wk =   0.0761905
        k(   28) = (   0.2000000   0.3333333   0.4285714), wk =   0.0761905
        k(   29) = (   0.2000000  -0.5000000   0.0000000), wk =   0.0190476
        k(   30) = (   0.2000000  -0.5000000   0.1428571), wk =   0.0380952
        k(   31) = (   0.2000000  -0.5000000   0.2857143), wk =   0.0380952
        k(   32) = (   0.2000000  -0.5000000   0.4285714), wk =   0.0380952
        k(   33) = (   0.4000000   0.0000000   0.0000000), wk =   0.0190476
        k(   34) = (   0.4000000   0.0000000   0.1428571), wk =   0.0380952
        k(   35) = (   0.4000000   0.0000000   0.2857143), wk =   0.0380952
        k(   36) = (   0.4000000   0.0000000   0.4285714), wk =   0.0380952
        k(   37) = (   0.4000000   0.1666667   0.0000000), wk =   0.0380952
        k(   38) = (   0.4000000   0.1666667   0.1428571), wk =   0.0761905
        k(   39) = (   0.4000000   0.1666667   0.2857143), wk =   0.0761905
        k(   40) = (   0.4000000   0.1666667   0.4285714), wk =   0.0761905
        k(   41) = (   0.4000000   0.3333333   0.0000000), wk =   0.0380952
        k(   42) = (   0.4000000   0.3333333   0.1428571), wk =   0.0761905
        k(   43) = (   0.4000000   0.3333333   0.2857143), wk =   0.0761905
        k(   44) = (   0.4000000   0.3333333   0.4285714), wk =   0.0761905
        k(   45) = (   0.4000000  -0.5000000   0.0000000), wk =   0.0190476
        k(   46) = (   0.4000000  -0.5000000   0.1428571), wk =   0.0380952
        k(   47) = (   0.4000000  -0.5000000   0.2857143), wk =   0.0380952
        k(   48) = (   0.4000000  -0.5000000   0.4285714), wk =   0.0380952

     Largest allocated arrays     est. size (Mb)     dimensions
     Largest temporary arrays     est. size (Mb)     dimensions

     Initial potential from superposition of free atoms

     Starting from uniform charge
     Starting wfc are    0 randomized atomic wfcs

     Self-consistent Calculation

     iteration #  1     ecut=    40.00 Ry     beta=0.70
     CG style diagonalization
     c_bands:  1 eigenvalues not converged
     c_bands:  1 eigenvalues not converged
     c_bands:  1 eigenvalues not converged
     c_bands:  1 eigenvalues not converged
     c_bands:  1 eigenvalues not converged
     ethr =  1.00E-02,  avg # of iterations = 10.7

     total energy              =   -1288.83484595 Ry
     Harris-Foulkes estimate   =   -1453.04815927 Ry
     estimated scf accuracy    <     222.21992413 Ry

     iteration #  2     ecut=    40.00 Ry     beta=0.70
     CG style diagonalization
     ethr =  1.00E-02,  avg # of iterations =  6.5

[...]

     End of self-consistent calculation

          k = 0.0000 0.0000 0.0000 (  2601 PWs)   bands (ev):

   -21.7256 -21.1194 -21.1194 -19.8698 -19.8698 -19.8698 -14.6025 -14.4118
     2.0402   2.0402   2.8283   4.1671   4.1671   4.1671   6.0814   6.0814
     6.0814   6.5498   6.5498   6.5498   7.2200   7.2200   7.2200   9.2366
     9.2366   9.2366  10.5594  10.5594  10.5594  10.6075  10.6075  10.6075
    32.0746  32.0746  32.0756  32.0756  32.0756  32.3912  33.8895  34.8990
    34.8990  34.8990  34.9096  35.7429  35.7429  35.9652  36.1896  36.1896
    36.1896  38.0713  38.0713  38.5533  38.5533  38.5533  40.7769  40.7769
    40.7769  41.5220  41.5220  41.5220  41.5858  41.5858  41.5858  42.7539
    42.7539  43.6801  43.6801  44.9393  44.9393  44.9393  47.8482  47.8482
    47.8482  50.7604  50.7605  50.7607  50.9081  50.9081  50.9082  51.0771

[...]

     the Fermi energy is    44.8007 ev

!    total energy              =   -1348.78379049 Ry
     Harris-Foulkes estimate   =   -1348.78381122 Ry
     estimated scf accuracy    <       0.00002956 Ry

     The total energy is the sum of the following terms:

     one-electron contribution =     242.15632137 Ry
     hartree contribution      =      76.29751500 Ry
     xc contribution           =    -150.69064970 Ry
     ewald contribution        =   -1516.24694932 Ry
     smearing contrib. (-TS)   =      -0.30002785 Ry

     convergence has been achieved in   7 iterations

     Forces acting on atoms (Ry/au):

     atom    1 type  1   force =     0.00000000    0.00000000    0.00000000
     atom    2 type  1   force =     0.00000000    0.00000000    0.00000000
     atom    3 type  1   force =     0.00000000    0.00000000    0.00000000
     atom    4 type  1   force =     0.00000000    0.00000000    0.00000000
     atom    5 type  1   force =     0.00000000    0.00000000    0.00000000
     atom    6 type  1   force =     0.00000000    0.00000000    0.00000000
     atom    7 type  2   force =     0.00000000    0.00000000    0.00000000
     atom    8 type  2   force =     0.00000000    0.00000000    0.00000000

     Total force =     0.000000     Total SCF correction =     0.000000

     entering subroutine stress ...

          total   stress  (Ry/bohr**3)                   (kbar)     P= 4639.26
   0.03153702   0.00000000   0.00000000       4639.26      0.00      0.00
   0.00000000   0.03153702   0.00000000          0.00   4639.26      0.00
   0.00000000   0.00000000   0.03153702          0.00      0.00   4639.26

     BFGS Geometry Optimization

     number of scf cycles    =   1
     number of bfgs steps    =   0

     enthalpy new            =   -1348.7837904936 Ry

     new trust radius        =       0.5000000000 bohr
     new conv_thr            =       0.0001000000 Ry

[...]
        k(   46) = (   0.3635474  -0.4544343   0.1298384), wk =   0.0380952
        k(   47) = (   0.3635474  -0.4544343   0.2596767), wk =   0.0380952
        k(   48) = (   0.3635474  -0.4544343   0.3895151), wk =   0.0380952

[...]

     enthalpy old            =   -1348.7837904936 Ry
     enthalpy new            =   -1351.8183132330 Ry

     CASE: enthalpy_new < enthalpy_old

     small trust_radius: resetting bfgs history

     new trust radius        =       0.4447612365 bohr
     new conv_thr            =       0.0000010000 Ry

[...]

     number of scf cycles    =   3
     number of bfgs steps    =   2

     enthalpy old            =   -1351.8183132330 Ry
     enthalpy new            =   -1351.3062357874 Ry

     CASE: enthalpy_new > enthalpy_old

     new trust radius        =       0.1239001896 bohr

     trust_radius < trust_radius_min

     resetting bfgs history

     Message from routine bfgs:
     history already reset at previous step: stopping
     new conv_thr            =       0.0000010000 Ry

     new unit-cell volume =   1019.31303 a.u.^3 (   151.04661 Ang^3 )

[...]

ATOMIC_POSITIONS (crystal)
Cr       0.000000000   0.500000000   0.250000000
Cr       0.000000000   0.500000000   0.750000000
Cr       0.500000000   0.750000000   0.000000000
Cr       0.500000000   0.250000000   0.000000000
Cr       0.750000000   0.000000000   0.500000000
Cr       0.250000000   0.000000000   0.500000000
Si       0.500000000   0.500000000   0.500000000
Si       0.000000000   0.000000000   0.000000000

     Writing output data file Prototype-La-cP8-Cr3Si.save
     NEW-OLD atomic charge density approx. for the potential
     NEW k-points:
        k(    1) = (   0.0000000   0.0000000   0.0000000), wk =   0.0095238
        k(    2) = (   0.0000000   0.0000000   0.1211475), wk =   0.0190476
        k(    3) = (   0.0000000   0.0000000   0.2422951), wk =   0.0190476
        k(    4) = (   0.0000000   0.0000000   0.3634426), wk =   0.0190476
        k(    5) = (   0.0000000   0.1413388   0.0000000), wk =   0.0190476
        k(    6) = (   0.0000000   0.1413388   0.1211475), wk =   0.0380952
        k(    7) = (   0.0000000   0.1413388   0.2422951), wk =   0.0380952
        k(    8) = (   0.0000000   0.1413388   0.3634426), wk =   0.0380952
        k(    9) = (   0.0000000   0.2826776   0.0000000), wk =   0.0190476
        k(   10) = (   0.0000000   0.2826776   0.1211475), wk =   0.0380952
        k(   11) = (   0.0000000   0.2826776   0.2422951), wk =   0.0380952
        k(   12) = (   0.0000000   0.2826776   0.3634426), wk =   0.0380952
        k(   13) = (   0.0000000  -0.4240164   0.0000000), wk =   0.0095238
        k(   14) = (   0.0000000  -0.4240164   0.1211475), wk =   0.0190476
        k(   15) = (   0.0000000  -0.4240164   0.2422951), wk =   0.0190476
        k(   16) = (   0.0000000  -0.4240164   0.3634426), wk =   0.0190476
        k(   17) = (   0.1696065   0.0000000   0.0000000), wk =   0.0190476
        k(   18) = (   0.1696065   0.0000000   0.1211475), wk =   0.0380952
        k(   19) = (   0.1696065   0.0000000   0.2422951), wk =   0.0380952
        k(   20) = (   0.1696065   0.0000000   0.3634426), wk =   0.0380952
        k(   21) = (   0.1696065   0.1413388   0.0000000), wk =   0.0380952
        k(   22) = (   0.1696065   0.1413388   0.1211475), wk =   0.0761905
        k(   23) = (   0.1696065   0.1413388   0.2422951), wk =   0.0761905
        k(   24) = (   0.1696065   0.1413388   0.3634426), wk =   0.0761905
        k(   25) = (   0.1696065   0.2826776   0.0000000), wk =   0.0380952
        k(   26) = (   0.1696065   0.2826776   0.1211475), wk =   0.0761905
        k(   27) = (   0.1696065   0.2826776   0.2422951), wk =   0.0761905
        k(   28) = (   0.1696065   0.2826776   0.3634426), wk =   0.0761905
        k(   29) = (   0.1696065  -0.4240164   0.0000000), wk =   0.0190476
        k(   30) = (   0.1696065  -0.4240164   0.1211475), wk =   0.0380952
        k(   31) = (   0.1696065  -0.4240164   0.2422951), wk =   0.0380952
        k(   32) = (   0.1696065  -0.4240164   0.3634426), wk =   0.0380952
        k(   33) = (   0.3392131   0.0000000   0.0000000), wk =   0.0190476
        k(   34) = (   0.3392131   0.0000000   0.1211475), wk =   0.0380952
        k(   35) = (   0.3392131   0.0000000   0.2422951), wk =   0.0380952
        k(   36) = (   0.3392131   0.0000000   0.3634426), wk =   0.0380952
        k(   37) = (   0.3392131   0.1413388   0.0000000), wk =   0.0380952
        k(   38) = (   0.3392131   0.1413388   0.1211475), wk =   0.0761905
        k(   39) = (   0.3392131   0.1413388   0.2422951), wk =   0.0761905
        k(   40) = (   0.3392131   0.1413388   0.3634426), wk =   0.0761905
        k(   41) = (   0.3392131   0.2826776   0.0000000), wk =   0.0380952
        k(   42) = (   0.3392131   0.2826776   0.1211475), wk =   0.0761905
        k(   43) = (   0.3392131   0.2826776   0.2422951), wk =   0.0761905
        k(   44) = (   0.3392131   0.2826776   0.3634426), wk =   0.0761905
        k(   45) = (   0.3392131  -0.4240164   0.0000000), wk =   0.0190476
        k(   46) = (   0.3392131  -0.4240164   0.1211475), wk =   0.0380952
        k(   47) = (   0.3392131  -0.4240164   0.2422951), wk =   0.0380952
        k(   48) = (   0.3392131  -0.4240164   0.3634426), wk =   0.0380952

[...]

     The maximum number of steps has been reached.

     End of BFGS Geometry Optimization
Begin final coordinates
     new unit-cell volume =   1019.31303 a.u.^3 (   151.04661 Ang^3 )

CELL_PARAMETERS (alat=  8.53457320)
   1.179199767   0.000000000   0.000000000
   0.000000000   1.179199767   0.000000000
   0.000000000   0.000000000   1.179199767

ATOMIC_POSITIONS (crystal)
Cr       0.000000000   0.500000000   0.250000000
Cr       0.000000000   0.500000000   0.750000000
Cr       0.500000000   0.750000000   0.000000000
Cr       0.500000000   0.250000000   0.000000000
Cr       0.750000000   0.000000000   0.500000000
Cr       0.250000000   0.000000000   0.500000000
Si       0.500000000   0.500000000   0.500000000
Si       0.000000000   0.000000000   0.000000000
End final coordinates

     A final scf calculation at the relaxed structure.
     The G-vectors are recalculated for the final unit cell
     Results may differ from those at the preceding step.

     bravais-lattice index     =            0
     lattice parameter (alat)  =       8.5346  a.u.
     unit-cell volume          =    1019.3130 (a.u.)^3
     number of atoms/cell      =            8
     number of atomic types    =            2
     number of electrons       =       134.00
     number of Kohn-Sham states=           80
     kinetic-energy cutoff     =      40.0000  Ry
     charge density cutoff     =     160.0000  Ry
     convergence threshold     =      1.0E-06
     mixing beta               =       0.7000
     number of iterations used =            8  plain     mixing
     Exchange-correlation      = SLA-PZ-NOGX-NOGC ( 1 1 0 0 0)
     EXX-fraction              =        0.00

     celldm(1)=   8.534573  celldm(2)=   0.000000  celldm(3)=   0.000000
     celldm(4)=   0.000000  celldm(5)=   0.000000  celldm(6)=   0.000000

     crystal axes: (cart. coord. in units of alat)
               a(1) = (   1.179200   0.000000   0.000000 )
               a(2) = (   0.000000   1.179200   0.000000 )
               a(3) = (   0.000000   0.000000   1.179200 )

     reciprocal axes: (cart. coord. in units 2 pi/alat)
               b(1) = (  0.848033  0.000000  0.000000 )
               b(2) = (  0.000000  0.848033  0.000000 )
               b(3) = (  0.000000  0.000000  0.848033 )

     PseudoPot. # 1 for Eu read from file:
     /home/cwx6513/pp.La/Eu.UPF
     MD5 check sum: 5efdbbfc50c6a10138933a6429836ad2
     Pseudo is Norm-conserving, Zval = 17.0
     Generated in analytical, separable form
     Using radial grid of 1261 points,  6 beta functions with:
                l(1) =   0
                l(2) =   0
                l(3) =   1
                l(4) =   1
                l(5) =   2
                l(6) =   3

     PseudoPot. # 2 for Sm read from file:
     /home/cwx6513/pp.La/Sm.UPF
     MD5 check sum: 5079e8b144a06bfcdbc14fb02b96ab09
     Pseudo is Norm-conserving, Zval = 16.0
     Generated in analytical, separable form
     Using radial grid of 1259 points,  6 beta functions with:
                l(1) =   0
                l(2) =   0
                l(3) =   1
                l(4) =   1
                l(5) =   2
                l(6) =   3

     atomic species   valence    mass     pseudopotential
        Cr            17.00    51.99610     Eu( 1.00)
        Si            16.00    28.08550     Sm( 1.00)

     48 Sym. Ops., with inversion, found (24 have fractional translation)

   Cartesian axes

     site n.     atom                  positions (alat units)
         1           Cr  tau(   1) = (   0.0000000   0.5895999   0.2947999  )
         2           Cr  tau(   2) = (   0.0000000   0.5895999   0.8843998  )
         3           Cr  tau(   3) = (   0.5895999   0.8843998   0.0000000  )
         4           Cr  tau(   4) = (   0.5895999   0.2947999   0.0000000  )
         5           Cr  tau(   5) = (   0.8843998   0.0000000   0.5895999  )
         6           Cr  tau(   6) = (   0.2947999   0.0000000   0.5895999  )
         7           Si  tau(   7) = (   0.5895999   0.5895999   0.5895999  )
         8           Si  tau(   8) = (   0.0000000   0.0000000   0.0000000  )

     number of k points=    48  gaussian smearing, width (Ry)=  0.1000
                       cart. coord. in units 2pi/alat
        k(    1) = (   0.0000000   0.0000000   0.0000000), wk =   0.0095238
        k(    2) = (   0.0000000   0.0000000   0.1211475), wk =   0.0190476
        k(    3) = (   0.0000000   0.0000000   0.2422951), wk =   0.0190476
        k(    4) = (   0.0000000   0.0000000   0.3634426), wk =   0.0190476
        k(    5) = (   0.0000000   0.1413388   0.0000000), wk =   0.0190476
        k(    6) = (   0.0000000   0.1413388   0.1211475), wk =   0.0380952
        k(    7) = (   0.0000000   0.1413388   0.2422951), wk =   0.0380952
        k(    8) = (   0.0000000   0.1413388   0.3634426), wk =   0.0380952
        k(    9) = (   0.0000000   0.2826776   0.0000000), wk =   0.0190476
        k(   10) = (   0.0000000   0.2826776   0.1211475), wk =   0.0380952
        k(   11) = (   0.0000000   0.2826776   0.2422951), wk =   0.0380952
        k(   12) = (   0.0000000   0.2826776   0.3634426), wk =   0.0380952
        k(   13) = (   0.0000000  -0.4240164   0.0000000), wk =   0.0095238
        k(   14) = (   0.0000000  -0.4240164   0.1211475), wk =   0.0190476
        k(   15) = (   0.0000000  -0.4240164   0.2422951), wk =   0.0190476
        k(   16) = (   0.0000000  -0.4240164   0.3634426), wk =   0.0190476
        k(   17) = (   0.1696065   0.0000000   0.0000000), wk =   0.0190476
        k(   18) = (   0.1696065   0.0000000   0.1211475), wk =   0.0380952
        k(   19) = (   0.1696065   0.0000000   0.2422951), wk =   0.0380952
        k(   20) = (   0.1696065   0.0000000   0.3634426), wk =   0.0380952
        k(   21) = (   0.1696065   0.1413388   0.0000000), wk =   0.0380952
        k(   22) = (   0.1696065   0.1413388   0.1211475), wk =   0.0761905
        k(   23) = (   0.1696065   0.1413388   0.2422951), wk =   0.0761905
        k(   24) = (   0.1696065   0.1413388   0.3634426), wk =   0.0761905
        k(   25) = (   0.1696065   0.2826776   0.0000000), wk =   0.0380952
        k(   26) = (   0.1696065   0.2826776   0.1211475), wk =   0.0761905
        k(   27) = (   0.1696065   0.2826776   0.2422951), wk =   0.0761905
        k(   28) = (   0.1696065   0.2826776   0.3634426), wk =   0.0761905
        k(   29) = (   0.1696065  -0.4240164   0.0000000), wk =   0.0190476
        k(   30) = (   0.1696065  -0.4240164   0.1211475), wk =   0.0380952
        k(   31) = (   0.1696065  -0.4240164   0.2422951), wk =   0.0380952
        k(   32) = (   0.1696065  -0.4240164   0.3634426), wk =   0.0380952
        k(   33) = (   0.3392131   0.0000000   0.0000000), wk =   0.0190476
        k(   34) = (   0.3392131   0.0000000   0.1211475), wk =   0.0380952
        k(   35) = (   0.3392131   0.0000000   0.2422951), wk =   0.0380952
        k(   36) = (   0.3392131   0.0000000   0.3634426), wk =   0.0380952
        k(   37) = (   0.3392131   0.1413388   0.0000000), wk =   0.0380952
        k(   38) = (   0.3392131   0.1413388   0.1211475), wk =   0.0761905
        k(   39) = (   0.3392131   0.1413388   0.2422951), wk =   0.0761905
        k(   40) = (   0.3392131   0.1413388   0.3634426), wk =   0.0761905
        k(   41) = (   0.3392131   0.2826776   0.0000000), wk =   0.0380952
        k(   42) = (   0.3392131   0.2826776   0.1211475), wk =   0.0761905
        k(   43) = (   0.3392131   0.2826776   0.2422951), wk =   0.0761905
        k(   44) = (   0.3392131   0.2826776   0.3634426), wk =   0.0761905
        k(   45) = (   0.3392131  -0.4240164   0.0000000), wk =   0.0190476
        k(   46) = (   0.3392131  -0.4240164   0.1211475), wk =   0.0380952
        k(   47) = (   0.3392131  -0.4240164   0.2422951), wk =   0.0380952
        k(   48) = (   0.3392131  -0.4240164   0.3634426), wk =   0.0380952

     Largest allocated arrays     est. size (Mb)     dimensions
     Largest temporary arrays     est. size (Mb)     dimensions

     Initial potential from superposition of free atoms

     Starting from uniform charge
     Starting wfc are    0 randomized atomic wfcs

     Writing output data file Prototype-La-cP8-Cr3Si.save

     Self-consistent Calculation

[...]

     iteration # 10     ecut=    40.00 Ry     beta=0.70
     CG style diagonalization
     c_bands:  1 eigenvalues not converged
     ethr =  1.02E-06,  avg # of iterations =  3.8

[...]

     total energy              =   -1353.99015006 Ry
     Harris-Foulkes estimate   =   -1353.99015915 Ry
     estimated scf accuracy    <       0.00003547 Ry

     iteration # 12     ecut=    40.00 Ry     beta=0.70
     CG style diagonalization
     ethr =  2.63E-09,  avg # of iterations =  3.7

     End of self-consistent calculation

[...]

          k = 0.3392-0.4240 0.3634 (  4352 PWs)   bands (ev):

   -38.0768 -38.0663 -38.0378 -38.0378 -38.0097 -37.9990 -32.6006 -32.6006
   -11.3936 -11.3100 -11.0959 -11.0953 -10.9026 -10.8965 -10.8964 -10.8436
   -10.7182 -10.7022 -10.6679 -10.6502 -10.6127 -10.6056 -10.5753 -10.5739
   -10.5622 -10.5614  -7.7256  -7.7232  -7.7179  -7.7176  -7.7164  -7.7158
    18.8131  18.8234  18.9485  18.9972  19.1222  19.1309  19.5582  19.5675
    19.6411  19.6511  19.9734  19.9779  20.2532  20.2695  20.5016  20.6446
    20.8723  20.8927  21.1971  21.3573  21.8669  21.9087  22.4750  22.5864
    22.6894  22.7092  23.2126  23.2217  23.5960  23.7647  24.6251  24.6339
    24.8066  24.8727  25.1908  25.2172  25.5943  25.7459  25.8576  25.9545
    26.0102  26.0736  26.8523  27.0750  27.2218  27.5242  28.2614  28.4862

     the Fermi energy is    25.0502 ev

!    total energy              =   -1353.99015429 Ry
     Harris-Foulkes estimate   =   -1353.99015431 Ry
     estimated scf accuracy    <       0.00000003 Ry

     The total energy is the sum of the following terms:

     one-electron contribution =     -68.58321606 Ry
     hartree contribution      =     143.20686155 Ry
     xc contribution           =    -142.20956243 Ry
     ewald contribution        =   -1285.82704262 Ry
     smearing contrib. (-TS)   =      -0.57719472 Ry

     convergence has been achieved in  12 iterations

     Forces acting on atoms (Ry/au):

     atom    1 type  1   force =     0.00000000    0.00000000    0.00000000
     atom    2 type  1   force =     0.00000000    0.00000000    0.00000000
     atom    3 type  1   force =     0.00000000    0.00000000    0.00000000
     atom    4 type  1   force =     0.00000000    0.00000000    0.00000000
     atom    5 type  1   force =     0.00000000    0.00000000    0.00000000
     atom    6 type  1   force =     0.00000000    0.00000000    0.00000000
     atom    7 type  2   force =     0.00000000    0.00000000    0.00000000
     atom    8 type  2   force =     0.00000000    0.00000000    0.00000000

     Total force =     0.000000     Total SCF correction =     0.000000

     entering subroutine stress ...

          total   stress  (Ry/bohr**3)                   (kbar)     P=  -54.44
  -0.00037004   0.00000000   0.00000000        -54.44      0.00      0.00
   0.00000000  -0.00037004   0.00000000          0.00    -54.44      0.00
   0.00000000   0.00000000  -0.00037004          0.00      0.00    -54.44

     Writing output data file Prototype-La-cP8-Cr3Si.save

     General routines

     Parallel routines

   This run was terminated on:  21:33:15  22Mar2018

   JOB DONE.