     Program PWSCF v.5.0.2 starts on 22Mar2018 at 18:42: 1

     Current dimensions of program PWSCF are:
     Max number of different atomic species (ntypx) = 10
     Max number of k-points (npk) =  40000
     Max angular momentum in pseudopotentials (lmaxx) =  3
     Waiting for input...
     Reading input from standard input

     Subspace diagonalization in iterative solution of the eigenvalue problem:
     a serial algorithm will be used

     bravais-lattice index     =            0
     lattice parameter (alat)  =      12.0168  a.u.
     unit-cell volume          =    1187.3413 (a.u.)^3
     number of atoms/cell      =            8
     number of atomic types    =            2
     number of electrons       =       140.00
     number of Kohn-Sham states=           84
     kinetic-energy cutoff     =      40.0000  Ry
     charge density cutoff     =     160.0000  Ry
     convergence threshold     =      1.0E-04
     mixing beta               =       0.7000
     number of iterations used =            8  plain     mixing
     Exchange-correlation      = SLA-PZ-NOGX-NOGC ( 1 1 0 0 0)
     EXX-fraction              =        0.00
     nstep                     =           50

     celldm(1)=  12.016801  celldm(2)=   0.000000  celldm(3)=   0.000000
     celldm(4)=   0.000000  celldm(5)=   0.000000  celldm(6)=   0.000000

     crystal axes: (cart. coord. in units of alat)
               a(1) = (   1.000000   0.000000   0.000000 )
               a(2) = (  -0.500000   0.866025   0.000000 )
               a(3) = (   0.000000   0.000000   0.790093 )

     reciprocal axes: (cart. coord. in units 2 pi/alat)
               b(1) = (  1.000000  0.577350  0.000000 )
               b(2) = (  0.000000  1.154701  0.000000 )
               b(3) = (  0.000000  0.000000  1.265674 )

     PseudoPot. # 1 for Sm read from file:
     /home/cwx6513/pp.La/Sm.UPF
     MD5 check sum: 5079e8b144a06bfcdbc14fb02b96ab09
     Pseudo is Norm-conserving, Zval = 16.0
     Generated in analytical, separable form
     Using radial grid of 1259 points,  6 beta functions with:
                l(1) =   0
                l(2) =   0
                l(3) =   1
                l(4) =   1
                l(5) =   2
                l(6) =   3

     PseudoPot. # 2 for Er read from file:
     /home/cwx6513/pp.La/Er.UPF
     MD5 check sum: e152ae21b84514339d8526f066caf99b
     Pseudo is Norm-conserving, Zval = 22.0
     Generated in analytical, separable form
     Using radial grid of 1267 points,  6 beta functions with:
                l(1) =   0
                l(2) =   0
                l(3) =   1
                l(4) =   1
                l(5) =   2
                l(6) =   3

     atomic species   valence    mass     pseudopotential
        Mg            16.00    24.30500     Sm( 1.00)
        Cd            22.00   112.41100     Er( 1.00)

     24 Sym. Ops., with inversion, found (12 have fractional translation)

   Cartesian axes

     site n.     atom                  positions (alat units)
         1           Mg  tau(   1) = (   0.2478935   0.7204716   0.1975233  )
         2           Mg  tau(   2) = (   0.7478935   0.1455538   0.5925699  )
         3           Mg  tau(   3) = (   0.2521065   0.1455538   0.5925699  )
         4           Mg  tau(   4) = (  -0.2478935   0.7204716   0.1975233  )
         5           Mg  tau(   5) = (   0.0000000   0.2911075   0.1975233  )
         6           Mg  tau(   6) = (   0.5000000   0.5749179   0.5925699  )
         7           Cd  tau(   7) = (   0.5000005   0.2886748   0.1975233  )
         8           Cd  tau(   8) = (  -0.0000005   0.5773506   0.5925699  )

     number of k points=    64  gaussian smearing, width (Ry)=  0.1000
                       cart. coord. in units 2pi/alat
        k(    1) = (   0.0000000   0.0000000   0.0000000), wk =   0.0095238
        k(    2) = (   0.0000000   0.0000000   0.1808105), wk =   0.0190476
        k(    3) = (   0.0000000   0.0000000   0.3616210), wk =   0.0190476
        k(    4) = (   0.0000000   0.0000000   0.5424315), wk =   0.0190476
        k(    5) = (   0.0000000   0.1924501   0.0000000), wk =   0.0190476
        k(    6) = (   0.0000000   0.1924501   0.1808105), wk =   0.0380952
        k(    7) = (   0.0000000   0.1924501   0.3616210), wk =   0.0380952
        k(    8) = (   0.0000000   0.1924501   0.5424315), wk =   0.0380952
        k(    9) = (   0.0000000   0.3849002   0.0000000), wk =   0.0190476
        k(   10) = (   0.0000000   0.3849002   0.1808105), wk =   0.0380952
        k(   11) = (   0.0000000   0.3849002   0.3616210), wk =   0.0380952
        k(   12) = (   0.0000000   0.3849002   0.5424315), wk =   0.0380952
        k(   13) = (   0.0000000  -0.5773503   0.0000000), wk =   0.0095238
        k(   14) = (   0.0000000  -0.5773503   0.1808105), wk =   0.0190476
        k(   15) = (   0.0000000  -0.5773503   0.3616210), wk =   0.0190476
        k(   16) = (   0.0000000  -0.5773503   0.5424315), wk =   0.0190476
        k(   17) = (   0.2000000   0.1154701   0.0000000), wk =   0.0190476
        k(   18) = (   0.2000000   0.1154701   0.1808105), wk =   0.0380952
        k(   19) = (   0.2000000   0.1154701   0.3616210), wk =   0.0380952
        k(   20) = (   0.2000000   0.1154701   0.5424315), wk =   0.0380952
        k(   21) = (   0.2000000   0.3079201   0.0000000), wk =   0.0190476
        k(   22) = (   0.2000000   0.3079201   0.1808105), wk =   0.0380952
        k(   23) = (   0.2000000   0.3079201   0.3616210), wk =   0.0380952
        k(   24) = (   0.2000000   0.3079201   0.5424315), wk =   0.0380952
        k(   25) = (   0.2000000   0.5003702   0.0000000), wk =   0.0190476
        k(   26) = (   0.2000000   0.5003702   0.1808105), wk =   0.0380952
        k(   27) = (   0.2000000   0.5003702   0.3616210), wk =   0.0380952
        k(   28) = (   0.2000000   0.5003702   0.5424315), wk =   0.0380952
        k(   29) = (   0.2000000  -0.4618802   0.0000000), wk =   0.0190476
        k(   30) = (   0.2000000  -0.4618802   0.1808105), wk =   0.0380952
        k(   31) = (   0.2000000  -0.4618802   0.3616210), wk =   0.0380952
        k(   32) = (   0.2000000  -0.4618802   0.5424315), wk =   0.0380952
        k(   33) = (   0.2000000  -0.2694301   0.0000000), wk =   0.0190476
        k(   34) = (   0.2000000  -0.2694301   0.1808105), wk =   0.0380952
        k(   35) = (   0.2000000  -0.2694301   0.3616210), wk =   0.0380952
        k(   36) = (   0.2000000  -0.2694301   0.5424315), wk =   0.0380952
        k(   37) = (   0.2000000  -0.0769800   0.0000000), wk =   0.0190476
        k(   38) = (   0.2000000  -0.0769800   0.1808105), wk =   0.0380952
        k(   39) = (   0.2000000  -0.0769800   0.3616210), wk =   0.0380952
        k(   40) = (   0.2000000  -0.0769800   0.5424315), wk =   0.0380952
        k(   41) = (   0.4000000   0.2309401   0.0000000), wk =   0.0190476
        k(   42) = (   0.4000000   0.2309401   0.1808105), wk =   0.0380952
        k(   43) = (   0.4000000   0.2309401   0.3616210), wk =   0.0380952
        k(   44) = (   0.4000000   0.2309401   0.5424315), wk =   0.0380952
        k(   45) = (   0.4000000   0.4233902   0.0000000), wk =   0.0190476
        k(   46) = (   0.4000000   0.4233902   0.1808105), wk =   0.0380952
        k(   47) = (   0.4000000   0.4233902   0.3616210), wk =   0.0380952
        k(   48) = (   0.4000000   0.4233902   0.5424315), wk =   0.0380952
        k(   49) = (   0.4000000   0.6158403   0.0000000), wk =   0.0190476
        k(   50) = (   0.4000000   0.6158403   0.1808105), wk =   0.0380952
        k(   51) = (   0.4000000   0.6158403   0.3616210), wk =   0.0380952
        k(   52) = (   0.4000000   0.6158403   0.5424315), wk =   0.0380952
        k(   53) = (   0.4000000  -0.3464102   0.0000000), wk =   0.0190476
        k(   54) = (   0.4000000  -0.3464102   0.1808105), wk =   0.0380952
        k(   55) = (   0.4000000  -0.3464102   0.3616210), wk =   0.0380952
        k(   56) = (   0.4000000  -0.3464102   0.5424315), wk =   0.0380952
        k(   57) = (   0.4000000  -0.1539601   0.0000000), wk =   0.0190476
        k(   58) = (   0.4000000  -0.1539601   0.1808105), wk =   0.0380952
        k(   59) = (   0.4000000  -0.1539601   0.3616210), wk =   0.0380952
        k(   60) = (   0.4000000  -0.1539601   0.5424315), wk =   0.0380952
        k(   61) = (   0.4000000   0.0384900   0.0000000), wk =   0.0190476
        k(   62) = (   0.4000000   0.0384900   0.1808105), wk =   0.0380952
        k(   63) = (   0.4000000   0.0384900   0.3616210), wk =   0.0380952
        k(   64) = (   0.4000000   0.0384900   0.5424315), wk =   0.0380952

     Largest allocated arrays     est. size (Mb)     dimensions
     Largest temporary arrays     est. size (Mb)     dimensions

     Initial potential from superposition of free atoms

     Starting from uniform charge
     Starting wfc are    0 randomized atomic wfcs

     Self-consistent Calculation

     iteration #  1     ecut=    40.00 Ry     beta=0.70
     CG style diagonalization
     ethr =  1.00E-02,  avg # of iterations = 17.1

     total energy              =    -960.09005017 Ry
     Harris-Foulkes estimate   =   -2053.24116179 Ry
     estimated scf accuracy    <    1316.25773630 Ry

     iteration #  2     ecut=    40.00 Ry     beta=0.70
     CG style diagonalization
     c_bands:  4 eigenvalues not converged
     c_bands:  4 eigenvalues not converged
     c_bands:  5 eigenvalues not converged
     c_bands:  4 eigenvalues not converged
     c_bands:  4 eigenvalues not converged
     c_bands:  5 eigenvalues not converged
     c_bands:  5 eigenvalues not converged
     ethr =  1.00E-02,  avg # of iterations = 16.5

[...]

     End of self-consistent calculation

          k = 0.0000 0.0000 0.0000 (  5047 PWs)   bands (ev):

   -78.7667 -78.7610 -40.6945 -40.6883 -40.6764 -40.6763 -40.6672 -40.6672
   -35.3978 -35.3018 -35.3018 -35.2854 -35.2466 -35.2465 -10.8976 -10.8925
   -10.7152 -10.6386 -10.6385 -10.6187 -10.6186 -10.5790 -10.5790 -10.4034
   -10.2460 -10.2459 -10.1192 -10.1131 -10.1130 -10.1050 -10.0948 -10.0948
     6.2796   6.2796   6.2855   6.2865   6.2866   6.2914   6.3285   6.3285
     6.3756   6.3757  12.4192  13.5178  16.3707  16.9904  17.4399  17.4663
    17.4663  17.5220  17.5220  18.2456  18.2458  18.5266  18.6475  18.6475
    18.9155  19.5159  19.5159  19.7821  19.8185  19.8185  21.1501  21.1501
    21.2313  21.3908  21.3908  21.8966  21.8967  21.9465  21.9465  22.4891
    22.9587  23.3848  23.8321  23.8727  24.5492  24.5493  24.6572  24.6572
    26.0629  27.0886  27.6365  27.9686

[...]

     the Fermi energy is    21.9474 ev

!    total energy              =   -1568.40950581 Ry
     Harris-Foulkes estimate   =   -1568.40951020 Ry
     estimated scf accuracy    <       0.00000517 Ry

     The total energy is the sum of the following terms:

     one-electron contribution =    -299.73392510 Ry
     hartree contribution      =     234.73388135 Ry
     xc contribution           =    -153.18443266 Ry
     ewald contribution        =   -1349.66436248 Ry
     smearing contrib. (-TS)   =      -0.56066693 Ry

     convergence has been achieved in  11 iterations

     Forces acting on atoms (Ry/au):

[...]
        k(   13) = (   0.0000000  -0.6073035   0.0000000), wk =   0.0095238
        k(   14) = (   0.0000000  -0.6073035   0.1873315), wk =   0.0190476
        k(   15) = (   0.0000000  -0.6073035   0.3746629), wk =   0.0190476
        k(   16) = (   0.0000000  -0.6073035   0.5619944), wk =   0.0190476
        k(   17) = (   0.2103761   0.1214607   0.0000000), wk =   0.0190476
        k(   18) = (   0.2103761   0.1214607   0.1873315), wk =   0.0380952
        k(   19) = (   0.2103761   0.1214607   0.3746629), wk =   0.0380952
        k(   20) = (   0.2103761   0.1214607   0.5619944), wk =   0.0380952
        k(   21) = (   0.2103761   0.3238952   0.0000000), wk =   0.0190476
        k(   22) = (   0.2103761   0.3238952   0.1873315), wk =   0.0380952
        k(   23) = (   0.2103761   0.3238952   0.3746629), wk =   0.0380952
        k(   24) = (   0.2103761   0.3238952   0.5619944), wk =   0.0380952
        k(   25) = (   0.2103761   0.5263297   0.0000000), wk =   0.0190476
        k(   26) = (   0.2103761   0.5263297   0.1873315), wk =   0.0380952
        k(   27) = (   0.2103761   0.5263297   0.3746629), wk =   0.0380952
        k(   28) = (   0.2103761   0.5263297   0.5619944), wk =   0.0380952
        k(   29) = (   0.2103761  -0.4858428   0.0000000), wk =   0.0190476
        k(   30) = (   0.2103761  -0.4858428   0.1873315), wk =   0.0380952
        k(   31) = (   0.2103761  -0.4858428   0.3746629), wk =   0.0380952
        k(   32) = (   0.2103761  -0.4858428   0.5619944), wk =   0.0380952
        k(   33) = (   0.2103761  -0.2834083   0.0000000), wk =   0.0190476
        k(   34) = (   0.2103761  -0.2834083   0.1873315), wk =   0.0380952
        k(   35) = (   0.2103761  -0.2834083   0.3746629), wk =   0.0380952
        k(   36) = (   0.2103761  -0.2834083   0.5619944), wk =   0.0380952
        k(   37) = (   0.2103761  -0.0809738   0.0000000), wk =   0.0190476
        k(   38) = (   0.2103761  -0.0809738   0.1873315), wk =   0.0380952
        k(   39) = (   0.2103761  -0.0809738   0.3746629), wk =   0.0380952
        k(   40) = (   0.2103761  -0.0809738   0.5619944), wk =   0.0380952
        k(   41) = (   0.4207522   0.2429214   0.0000000), wk =   0.0190476
        k(   42) = (   0.4207522   0.2429214   0.1873315), wk =   0.0380952
        k(   43) = (   0.4207522   0.2429214   0.3746629), wk =   0.0380952
        k(   44) = (   0.4207522   0.2429214   0.5619944), wk =   0.0380952
        k(   45) = (   0.4207522   0.4453559   0.0000000), wk =   0.0190476
        k(   46) = (   0.4207522   0.4453559   0.1873315), wk =   0.0380952
        k(   47) = (   0.4207522   0.4453559   0.3746629), wk =   0.0380952
        k(   48) = (   0.4207522   0.4453559   0.5619944), wk =   0.0380952
        k(   49) = (   0.4207522   0.6477904   0.0000000), wk =   0.0190476
        k(   50) = (   0.4207522   0.6477904   0.1873315), wk =   0.0380952
        k(   51) = (   0.4207522   0.6477904   0.3746629), wk =   0.0380952
        k(   52) = (   0.4207522   0.6477904   0.5619944), wk =   0.0380952
        k(   53) = (   0.4207522  -0.3643821   0.0000000), wk =   0.0190476
        k(   54) = (   0.4207522  -0.3643821   0.1873315), wk =   0.0380952
        k(   55) = (   0.4207522  -0.3643821   0.3746629), wk =   0.0380952
        k(   56) = (   0.4207522  -0.3643821   0.5619944), wk =   0.0380952
        k(   57) = (   0.4207522  -0.1619476   0.0000000), wk =   0.0190476
        k(   58) = (   0.4207522  -0.1619476   0.1873315), wk =   0.0380952
        k(   59) = (   0.4207522  -0.1619476   0.3746629), wk =   0.0380952
        k(   60) = (   0.4207522  -0.1619476   0.5619944), wk =   0.0380952
        k(   61) = (   0.4207522   0.0404869   0.0000000), wk =   0.0190476
        k(   62) = (   0.4207522   0.0404869   0.1873315), wk =   0.0380952
        k(   63) = (   0.4207522   0.0404869   0.3746629), wk =   0.0380952
        k(   64) = (   0.4207522   0.0404869   0.5619944), wk =   0.0380952

[...]

     The maximum number of steps has been reached.

     End of BFGS Geometry Optimization
Begin final coordinates
     new unit-cell volume =   1035.75163 a.u.^3 (   153.48255 Ang^3 )

CELL_PARAMETERS (alat= 12.01680127)
   0.950678265   0.000000000   0.000000000
  -0.475339133   0.823311528   0.000000000
   0.000000000   0.000000000   0.762590211

ATOMIC_POSITIONS (crystal)
Mg       0.670189557   0.835094778   0.250000000
Mg       0.835094778   0.164905222   0.750000000
Mg       0.329810443   0.164905222   0.750000000
Mg       0.164905222   0.835094778   0.250000000
Mg       0.164905222   0.329810443   0.250000000
Mg       0.835094778   0.670189557   0.750000000
Cd       0.666667000   0.333333000   0.250000000
Cd       0.333333000   0.666667000   0.750000000
End final coordinates

     A final scf calculation at the relaxed structure.
     The G-vectors are recalculated for the final unit cell
     Results may differ from those at the preceding step.

     bravais-lattice index     =            0
     lattice parameter (alat)  =      12.0168  a.u.
     unit-cell volume          =    1035.7516 (a.u.)^3
     number of atoms/cell      =            8
     number of atomic types    =            2
     number of electrons       =       140.00
     number of Kohn-Sham states=           84
     kinetic-energy cutoff     =      40.0000  Ry
     charge density cutoff     =     160.0000  Ry
     convergence threshold     =      1.6E-06
     mixing beta               =       0.7000
     number of iterations used =            8  plain     mixing
     Exchange-correlation      = SLA-PZ-NOGX-NOGC ( 1 1 0 0 0)
     EXX-fraction              =        0.00

     celldm(1)=  12.016801  celldm(2)=   0.000000  celldm(3)=   0.000000
     celldm(4)=   0.000000  celldm(5)=   0.000000  celldm(6)=   0.000000

     crystal axes: (cart. coord. in units of alat)
               a(1) = (   0.950678   0.000000   0.000000 )
               a(2) = (  -0.475339   0.823312   0.000000 )
               a(3) = (   0.000000   0.000000   0.762590 )

     reciprocal axes: (cart. coord. in units 2 pi/alat)
               b(1) = (  1.051881  0.607304  0.000000 )
               b(2) = (  0.000000  1.214607  0.000000 )
               b(3) = (  0.000000  0.000000  1.311320 )

     PseudoPot. # 1 for Sm read from file:
     /home/cwx6513/pp.La/Sm.UPF
     MD5 check sum: 5079e8b144a06bfcdbc14fb02b96ab09
     Pseudo is Norm-conserving, Zval = 16.0
     Generated in analytical, separable form
     Using radial grid of 1259 points,  6 beta functions with:
                l(1) =   0
                l(2) =   0
                l(3) =   1
                l(4) =   1
                l(5) =   2
                l(6) =   3

     PseudoPot. # 2 for Er read from file:
     /home/cwx6513/pp.La/Er.UPF
     MD5 check sum: e152ae21b84514339d8526f066caf99b
     Pseudo is Norm-conserving, Zval = 22.0
     Generated in analytical, separable form
     Using radial grid of 1267 points,  6 beta functions with:
                l(1) =   0
                l(2) =   0
                l(3) =   1
                l(4) =   1
                l(5) =   2
                l(6) =   3

     atomic species   valence    mass     pseudopotential
        Mg            16.00    24.30500     Sm( 1.00)
        Cd            22.00   112.41100     Er( 1.00)

     24 Sym. Ops., with inversion, found (12 have fractional translation)

   Cartesian axes

     site n.     atom                  positions (alat units)
         1           Mg  tau(   1) = (   0.2401814   0.6875432   0.1906476  )
         2           Mg  tau(   2) = (   0.7155206   0.1357684   0.5719427  )
         3           Mg  tau(   3) = (   0.2351577   0.1357684   0.5719427  )
         4           Mg  tau(   4) = (  -0.2401814   0.6875432   0.1906476  )
         5           Mg  tau(   5) = (   0.0000000   0.2715367   0.1906476  )
         6           Mg  tau(   6) = (   0.4753391   0.5517748   0.5719427  )
         7           Cd  tau(   7) = (   0.4753396   0.2744369   0.1906476  )
         8           Cd  tau(   8) = (  -0.0000005   0.5488746   0.5719427  )

     number of k points=    64  gaussian smearing, width (Ry)=  0.1000
                       cart. coord. in units 2pi/alat
        k(    1) = (   0.0000000   0.0000000   0.0000000), wk =   0.0095238
        k(    2) = (   0.0000000   0.0000000   0.1873315), wk =   0.0190476
        k(    3) = (   0.0000000   0.0000000   0.3746629), wk =   0.0190476
        k(    4) = (   0.0000000   0.0000000   0.5619944), wk =   0.0190476
        k(    5) = (   0.0000000   0.2024345   0.0000000), wk =   0.0190476
        k(    6) = (   0.0000000   0.2024345   0.1873315), wk =   0.0380952
        k(    7) = (   0.0000000   0.2024345   0.3746629), wk =   0.0380952
        k(    8) = (   0.0000000   0.2024345   0.5619944), wk =   0.0380952
        k(    9) = (   0.0000000   0.4048690   0.0000000), wk =   0.0190476
        k(   10) = (   0.0000000   0.4048690   0.1873315), wk =   0.0380952
        k(   11) = (   0.0000000   0.4048690   0.3746629), wk =   0.0380952
        k(   12) = (   0.0000000   0.4048690   0.5619944), wk =   0.0380952
        k(   13) = (   0.0000000  -0.6073035   0.0000000), wk =   0.0095238
        k(   14) = (   0.0000000  -0.6073035   0.1873315), wk =   0.0190476
        k(   15) = (   0.0000000  -0.6073035   0.3746629), wk =   0.0190476
        k(   16) = (   0.0000000  -0.6073035   0.5619944), wk =   0.0190476
        k(   17) = (   0.2103761   0.1214607   0.0000000), wk =   0.0190476
        k(   18) = (   0.2103761   0.1214607   0.1873315), wk =   0.0380952
        k(   19) = (   0.2103761   0.1214607   0.3746629), wk =   0.0380952
        k(   20) = (   0.2103761   0.1214607   0.5619944), wk =   0.0380952
        k(   21) = (   0.2103761   0.3238952   0.0000000), wk =   0.0190476
        k(   22) = (   0.2103761   0.3238952   0.1873315), wk =   0.0380952
        k(   23) = (   0.2103761   0.3238952   0.3746629), wk =   0.0380952
        k(   24) = (   0.2103761   0.3238952   0.5619944), wk =   0.0380952
        k(   25) = (   0.2103761   0.5263297   0.0000000), wk =   0.0190476
        k(   26) = (   0.2103761   0.5263297   0.1873315), wk =   0.0380952
        k(   27) = (   0.2103761   0.5263297   0.3746629), wk =   0.0380952
        k(   28) = (   0.2103761   0.5263297   0.5619944), wk =   0.0380952
        k(   29) = (   0.2103761  -0.4858428   0.0000000), wk =   0.0190476
        k(   30) = (   0.2103761  -0.4858428   0.1873315), wk =   0.0380952
        k(   31) = (   0.2103761  -0.4858428   0.3746629), wk =   0.0380952
        k(   32) = (   0.2103761  -0.4858428   0.5619944), wk =   0.0380952
        k(   33) = (   0.2103761  -0.2834083   0.0000000), wk =   0.0190476
        k(   34) = (   0.2103761  -0.2834083   0.1873315), wk =   0.0380952
        k(   35) = (   0.2103761  -0.2834083   0.3746629), wk =   0.0380952
        k(   36) = (   0.2103761  -0.2834083   0.5619944), wk =   0.0380952
        k(   37) = (   0.2103761  -0.0809738   0.0000000), wk =   0.0190476
        k(   38) = (   0.2103761  -0.0809738   0.1873315), wk =   0.0380952
        k(   39) = (   0.2103761  -0.0809738   0.3746629), wk =   0.0380952
        k(   40) = (   0.2103761  -0.0809738   0.5619944), wk =   0.0380952
        k(   41) = (   0.4207522   0.2429214   0.0000000), wk =   0.0190476
        k(   42) = (   0.4207522   0.2429214   0.1873315), wk =   0.0380952
        k(   43) = (   0.4207522   0.2429214   0.3746629), wk =   0.0380952
        k(   44) = (   0.4207522   0.2429214   0.5619944), wk =   0.0380952
        k(   45) = (   0.4207522   0.4453559   0.0000000), wk =   0.0190476
        k(   46) = (   0.4207522   0.4453559   0.1873315), wk =   0.0380952
        k(   47) = (   0.4207522   0.4453559   0.3746629), wk =   0.0380952
        k(   48) = (   0.4207522   0.4453559   0.5619944), wk =   0.0380952
        k(   49) = (   0.4207522   0.6477904   0.0000000), wk =   0.0190476
        k(   50) = (   0.4207522   0.6477904   0.1873315), wk =   0.0380952
        k(   51) = (   0.4207522   0.6477904   0.3746629), wk =   0.0380952
        k(   52) = (   0.4207522   0.6477904   0.5619944), wk =   0.0380952
        k(   53) = (   0.4207522  -0.3643821   0.0000000), wk =   0.0190476
        k(   54) = (   0.4207522  -0.3643821   0.1873315), wk =   0.0380952
        k(   55) = (   0.4207522  -0.3643821   0.3746629), wk =   0.0380952
        k(   56) = (   0.4207522  -0.3643821   0.5619944), wk =   0.0380952
        k(   57) = (   0.4207522  -0.1619476   0.0000000), wk =   0.0190476
        k(   58) = (   0.4207522  -0.1619476   0.1873315), wk =   0.0380952
        k(   59) = (   0.4207522  -0.1619476   0.3746629), wk =   0.0380952
        k(   60) = (   0.4207522  -0.1619476   0.5619944), wk =   0.0380952
        k(   61) = (   0.4207522   0.0404869   0.0000000), wk =   0.0190476
        k(   62) = (   0.4207522   0.0404869   0.1873315), wk =   0.0380952
        k(   63) = (   0.4207522   0.0404869   0.3746629), wk =   0.0380952
        k(   64) = (   0.4207522   0.0404869   0.5619944), wk =   0.0380952

     Largest allocated arrays     est. size (Mb)     dimensions
     Largest temporary arrays     est. size (Mb)     dimensions

     Initial potential from superposition of free atoms

     Starting from uniform charge
     Starting wfc are    0 randomized atomic wfcs

     Writing output data file Prototype-La-hP8-Mg3Cd.save

     Self-consistent Calculation

[...]

     iteration # 10     ecut=    40.00 Ry     beta=0.70
     CG style diagonalization
     c_bands:  1 eigenvalues not converged
     c_bands:  1 eigenvalues not converged
     c_bands:  1 eigenvalues not converged
     c_bands:  1 eigenvalues not converged
     c_bands:  1 eigenvalues not converged
     ethr =  2.61E-07,  avg # of iterations =  4.3

[...]

     total energy              =   -1568.22111137 Ry
     Harris-Foulkes estimate   =   -1568.22111415 Ry
     estimated scf accuracy    <       0.00000631 Ry

     iteration # 12     ecut=    40.00 Ry     beta=0.70
     CG style diagonalization
     ethr =  4.51E-09,  avg # of iterations =  3.5

     End of self-consistent calculation

[...]

          k = 0.4208 0.0405 0.5620 (  4430 PWs)   bands (ev):

   -75.0228 -75.0176 -36.9667 -36.9624 -36.9573 -36.9542 -36.9473 -36.9417
   -31.5714 -31.5303 -31.4907 -31.4724 -31.4548 -31.4407  -7.3197  -7.2846
    -7.2575  -7.2396  -7.1452  -7.1200  -6.7933  -6.6996  -6.6281  -6.6032
    -6.5182  -6.4535  -6.4007  -6.3828  -6.3567  -6.2954  -6.2507  -6.2413
     9.8587   9.8737   9.8758   9.8887   9.9042   9.9101   9.9393   9.9479
     9.9802   9.9935  16.8178  16.8569  19.7679  19.9582  20.4406  20.5138
    20.7958  20.9632  21.0674  21.2101  21.4269  21.5691  21.8935  21.9457
    22.2808  22.3424  22.7486  22.7808  23.3815  23.5019  23.5417  24.4399
    24.5680  24.7408  25.2031  25.3437  25.4330  25.5315  25.9000  25.9705
    26.6688  26.7530  27.1581  27.4234  27.7571  27.9055  29.5094  29.6215
    31.1493  31.4240  33.2144  33.8263

     the Fermi energy is    25.9409 ev

!    total energy              =   -1568.22111220 Ry
     Harris-Foulkes estimate   =   -1568.22111258 Ry
     estimated scf accuracy    <       0.00000045 Ry

     The total energy is the sum of the following terms:

     one-electron contribution =    -206.36373642 Ry
     hartree contribution      =     207.51007821 Ry
     xc contribution           =    -154.70340138 Ry
     ewald contribution        =   -1414.18336013 Ry
     smearing contrib. (-TS)   =      -0.48069249 Ry

     convergence has been achieved in  12 iterations

     Forces acting on atoms (Ry/au):

     atom    1 type  1   force =     0.00369863    0.00213541    0.00000000
     atom    2 type  1   force =     0.00369863   -0.00213541    0.00000000
     atom    3 type  1   force =    -0.00369863   -0.00213541    0.00000000
     atom    4 type  1   force =    -0.00369863    0.00213541    0.00000000
     atom    5 type  1   force =     0.00000000   -0.00427081    0.00000000
     atom    6 type  1   force =     0.00000000    0.00427081    0.00000000
     atom    7 type  2   force =     0.00000000    0.00000000    0.00000000
     atom    8 type  2   force =     0.00000000    0.00000000    0.00000000

     Total force =     0.010461     Total SCF correction =     0.000000

     entering subroutine stress ...

          total   stress  (Ry/bohr**3)                   (kbar)     P=    5.67
  -0.00003184   0.00000000   0.00000000         -4.68      0.00      0.00
   0.00000000  -0.00003184   0.00000000          0.00     -4.68      0.00
   0.00000000   0.00000000   0.00017924          0.00      0.00     26.37

     Writing output data file Prototype-La-hP8-Mg3Cd.save

     General routines

     Parallel routines

   This run was terminated on:  19:39:53  22Mar2018

   JOB DONE.