     Program PWSCF v.5.0.2 starts on 22Mar2018 at 18:42: 0

     Current dimensions of program PWSCF are:
     Max number of different atomic species (ntypx) = 10
     Max number of k-points (npk) =  40000
     Max angular momentum in pseudopotentials (lmaxx) =  3
     Waiting for input...
     Reading input from standard input

     Subspace diagonalization in iterative solution of the eigenvalue problem:
     a serial algorithm will be used

     bravais-lattice index     =            0
     lattice parameter (alat)  =       8.5346  a.u.
     unit-cell volume          =     621.6493 (a.u.)^3
     number of atoms/cell      =            8
     number of atomic types    =            2
     number of electrons       =       140.00
     number of Kohn-Sham states=           84
     kinetic-energy cutoff     =      40.0000  Ry
     charge density cutoff     =     160.0000  Ry
     convergence threshold     =      1.0E-04
     mixing beta               =       0.7000
     number of iterations used =            8  plain     mixing
     Exchange-correlation      = SLA-PZ-NOGX-NOGC ( 1 1 0 0 0)
     EXX-fraction              =        0.00
     nstep                     =           50

     celldm(1)=   8.534573  celldm(2)=   0.000000  celldm(3)=   0.000000
     celldm(4)=   0.000000  celldm(5)=   0.000000  celldm(6)=   0.000000

     crystal axes: (cart. coord. in units of alat)
               a(1) = (   1.000000   0.000000   0.000000 )
               a(2) = (   0.000000   1.000000   0.000000 )
               a(3) = (   0.000000   0.000000   1.000000 )

     reciprocal axes: (cart. coord. in units 2 pi/alat)
               b(1) = (  1.000000  0.000000  0.000000 )
               b(2) = (  0.000000  1.000000  0.000000 )
               b(3) = (  0.000000  0.000000  1.000000 )

     PseudoPot. # 1 for Sm read from file:
     /home/cwx6513/pp.La/Sm.UPF
     MD5 check sum: 5079e8b144a06bfcdbc14fb02b96ab09
     Pseudo is Norm-conserving, Zval = 16.0
     Generated in analytical, separable form
     Using radial grid of 1259 points,  6 beta functions with:
                l(1) =   0
                l(2) =   0
                l(3) =   1
                l(4) =   1
                l(5) =   2
                l(6) =   3

     PseudoPot. # 2 for Er read from file:
     /home/cwx6513/pp.La/Er.UPF
     MD5 check sum: e152ae21b84514339d8526f066caf99b
     Pseudo is Norm-conserving, Zval = 22.0
     Generated in analytical, separable form
     Using radial grid of 1267 points,  6 beta functions with:
                l(1) =   0
                l(2) =   0
                l(3) =   1
                l(4) =   1
                l(5) =   2
                l(6) =   3

     atomic species   valence    mass     pseudopotential
        Cr            16.00    51.99610     Sm( 1.00)
        Si            22.00    28.08550     Er( 1.00)

     48 Sym. Ops., with inversion, found (24 have fractional translation)

   Cartesian axes

     site n.     atom                  positions (alat units)
         1           Cr  tau(   1) = (   0.0000000   0.5000000   0.2500000  )
         2           Cr  tau(   2) = (   0.0000000   0.5000000   0.7500000  )
         3           Cr  tau(   3) = (   0.5000000   0.7500000   0.0000000  )
         4           Cr  tau(   4) = (   0.5000000   0.2500000   0.0000000  )
         5           Cr  tau(   5) = (   0.7500000   0.0000000   0.5000000  )
         6           Cr  tau(   6) = (   0.2500000   0.0000000   0.5000000  )
         7           Si  tau(   7) = (   0.5000000   0.5000000   0.5000000  )
         8           Si  tau(   8) = (   0.0000000   0.0000000   0.0000000  )

     number of k points=    48  gaussian smearing, width (Ry)=  0.1000
                       cart. coord. in units 2pi/alat
        k(    1) = (   0.0000000   0.0000000   0.0000000), wk =   0.0095238
        k(    2) = (   0.0000000   0.0000000   0.1428571), wk =   0.0190476
        k(    3) = (   0.0000000   0.0000000   0.2857143), wk =   0.0190476
        k(    4) = (   0.0000000   0.0000000   0.4285714), wk =   0.0190476
        k(    5) = (   0.0000000   0.1666667   0.0000000), wk =   0.0190476
        k(    6) = (   0.0000000   0.1666667   0.1428571), wk =   0.0380952
        k(    7) = (   0.0000000   0.1666667   0.2857143), wk =   0.0380952
        k(    8) = (   0.0000000   0.1666667   0.4285714), wk =   0.0380952
        k(    9) = (   0.0000000   0.3333333   0.0000000), wk =   0.0190476
        k(   10) = (   0.0000000   0.3333333   0.1428571), wk =   0.0380952
        k(   11) = (   0.0000000   0.3333333   0.2857143), wk =   0.0380952
        k(   12) = (   0.0000000   0.3333333   0.4285714), wk =   0.0380952
        k(   13) = (   0.0000000  -0.5000000   0.0000000), wk =   0.0095238
        k(   14) = (   0.0000000  -0.5000000   0.1428571), wk =   0.0190476
        k(   15) = (   0.0000000  -0.5000000   0.2857143), wk =   0.0190476
        k(   16) = (   0.0000000  -0.5000000   0.4285714), wk =   0.0190476
        k(   17) = (   0.2000000   0.0000000   0.0000000), wk =   0.0190476
        k(   18) = (   0.2000000   0.0000000   0.1428571), wk =   0.0380952
        k(   19) = (   0.2000000   0.0000000   0.2857143), wk =   0.0380952
        k(   20) = (   0.2000000   0.0000000   0.4285714), wk =   0.0380952
        k(   21) = (   0.2000000   0.1666667   0.0000000), wk =   0.0380952
        k(   22) = (   0.2000000   0.1666667   0.1428571), wk =   0.0761905
        k(   23) = (   0.2000000   0.1666667   0.2857143), wk =   0.0761905
        k(   24) = (   0.2000000   0.1666667   0.4285714), wk =   0.0761905
        k(   25) = (   0.2000000   0.3333333   0.0000000), wk =   0.0380952
        k(   26) = (   0.2000000   0.3333333   0.1428571), wk =   0.0761905
        k(   27) = (   0.2000000   0.3333333   0.2857143), wk =   0.0761905
        k(   28) = (   0.2000000   0.3333333   0.4285714), wk =   0.0761905
        k(   29) = (   0.2000000  -0.5000000   0.0000000), wk =   0.0190476
        k(   30) = (   0.2000000  -0.5000000   0.1428571), wk =   0.0380952
        k(   31) = (   0.2000000  -0.5000000   0.2857143), wk =   0.0380952
        k(   32) = (   0.2000000  -0.5000000   0.4285714), wk =   0.0380952
        k(   33) = (   0.4000000   0.0000000   0.0000000), wk =   0.0190476
        k(   34) = (   0.4000000   0.0000000   0.1428571), wk =   0.0380952
        k(   35) = (   0.4000000   0.0000000   0.2857143), wk =   0.0380952
        k(   36) = (   0.4000000   0.0000000   0.4285714), wk =   0.0380952
        k(   37) = (   0.4000000   0.1666667   0.0000000), wk =   0.0380952
        k(   38) = (   0.4000000   0.1666667   0.1428571), wk =   0.0761905
        k(   39) = (   0.4000000   0.1666667   0.2857143), wk =   0.0761905
        k(   40) = (   0.4000000   0.1666667   0.4285714), wk =   0.0761905
        k(   41) = (   0.4000000   0.3333333   0.0000000), wk =   0.0380952
        k(   42) = (   0.4000000   0.3333333   0.1428571), wk =   0.0761905
        k(   43) = (   0.4000000   0.3333333   0.2857143), wk =   0.0761905
        k(   44) = (   0.4000000   0.3333333   0.4285714), wk =   0.0761905
        k(   45) = (   0.4000000  -0.5000000   0.0000000), wk =   0.0190476
        k(   46) = (   0.4000000  -0.5000000   0.1428571), wk =   0.0380952
        k(   47) = (   0.4000000  -0.5000000   0.2857143), wk =   0.0380952
        k(   48) = (   0.4000000  -0.5000000   0.4285714), wk =   0.0380952

     Largest allocated arrays     est. size (Mb)     dimensions
     Largest temporary arrays     est. size (Mb)     dimensions

     Initial potential from superposition of free atoms

     Starting from uniform charge
     Starting wfc are    0 randomized atomic wfcs

     Self-consistent Calculation

     iteration #  1     ecut=    40.00 Ry     beta=0.70
     CG style diagonalization
     c_bands:  1 eigenvalues not converged
     c_bands:  1 eigenvalues not converged
     ethr =  1.00E-02,  avg # of iterations = 11.5

     total energy              =   -1101.04756000 Ry
     Harris-Foulkes estimate   =   -1832.83589299 Ry
     estimated scf accuracy    <     882.70436979 Ry

[...]

     iteration #  4     ecut=    40.00 Ry     beta=0.70
     CG style diagonalization
     ethr =  1.00E-02,  avg # of iterations =  3.6

[...]

     End of self-consistent calculation

          k = 0.0000 0.0000 0.0000 (  2601 PWs)   bands (ev):

   -56.8378 -56.7874 -19.1109 -19.1109 -19.1109 -19.0646 -19.0646 -19.0646
   -14.5832 -13.8349 -13.8349 -12.2054 -12.2054 -12.2054   6.3310   6.3310
     7.1460   9.3353   9.3353   9.3353  11.2159  11.2159  11.2159  11.7960
    11.7960  11.7960  12.1931  12.1931  12.1931  15.1165  15.1165  15.1165
    26.3700  26.3700  27.0235  27.0235  27.2504  27.2504  27.2504  27.3349
    27.3349  27.3349  31.5754  32.4526  33.3605  33.3605  33.3605  35.5854
    35.9096  35.9096  35.9096  36.3373  36.5048  36.5048  40.0711  40.0711
    40.0711  40.4369  40.4369  42.0836  42.0836  42.0836  43.1725  43.1725
    43.1725  46.7845  46.7845  47.5345  47.5345  47.5345  47.9786  48.3036
    48.3036  48.3036  50.3983  50.3984  50.3984  51.0739  51.0739  51.0740
    53.2667  53.2668  53.8700  53.8701

[...]

     the Fermi energy is    46.4497 ev

!    total energy              =   -1561.86625331 Ry
     Harris-Foulkes estimate   =   -1561.86625799 Ry
     estimated scf accuracy    <       0.00000536 Ry

     The total energy is the sum of the following terms:

     one-electron contribution =     148.83954221 Ry
     hartree contribution      =     126.19021261 Ry
     xc contribution           =    -163.61304854 Ry
     ewald contribution        =   -1673.01017711 Ry
     smearing contrib. (-TS)   =      -0.27278248 Ry

     convergence has been achieved in   9 iterations

     Forces acting on atoms (Ry/au):

     atom    1 type  1   force =     0.00000000    0.00000000    0.00000000
     atom    2 type  1   force =     0.00000000    0.00000000    0.00000000
     atom    3 type  1   force =     0.00000000    0.00000000    0.00000000
     atom    4 type  1   force =     0.00000000    0.00000000    0.00000000
     atom    5 type  1   force =     0.00000000    0.00000000    0.00000000
     atom    6 type  1   force =     0.00000000    0.00000000    0.00000000
     atom    7 type  2   force =     0.00000000    0.00000000    0.00000000
     atom    8 type  2   force =     0.00000000    0.00000000    0.00000000

     Total force =     0.000000     Total SCF correction =     0.000000

     entering subroutine stress ...

          total   stress  (Ry/bohr**3)                   (kbar)     P= 5053.58
   0.03435358   0.00000000   0.00000000       5053.58      0.00      0.00
   0.00000000   0.03435358   0.00000000          0.00   5053.58      0.00
   0.00000000   0.00000000   0.03435358          0.00      0.00   5053.58

     BFGS Geometry Optimization

     number of scf cycles    =   1
     number of bfgs steps    =   0

     enthalpy new            =   -1561.8662533136 Ry

     new trust radius        =       0.5000000000 bohr
     new conv_thr            =       0.0001000000 Ry

     new unit-cell volume =    828.02266 a.u.^3 (   122.70030 Ang^3 )

CELL_PARAMETERS (alat=  8.53457320)
[...]

     new trust radius        =       0.7667109083 bohr
     new conv_thr            =       0.0000010000 Ry

[...]

          total   stress  (Ry/bohr**3)                   (kbar)     P=-1291.12
  -0.00877683   0.00000000   0.00000000      -1291.12      0.00      0.00
   0.00000000  -0.00877683   0.00000000          0.00  -1291.12      0.00
   0.00000000   0.00000000  -0.00877683          0.00      0.00  -1291.12

     number of scf cycles    =   3
     number of bfgs steps    =   2

     enthalpy old            =   -1565.4238360378 Ry
     enthalpy new            =   -1564.0561270126 Ry

     CASE: enthalpy_new > enthalpy_old

     new trust radius        =       0.2298406191 bohr

     trust_radius < trust_radius_min

     resetting bfgs history

     Message from routine bfgs:
     history already reset at previous step: stopping
     new conv_thr            =       0.0000010000 Ry

     new unit-cell volume =   1047.75158 a.u.^3 (   155.26076 Ang^3 )

[...]

ATOMIC_POSITIONS (crystal)
Cr       0.000000000   0.500000000   0.250000000
Cr       0.000000000   0.500000000   0.750000000
Cr       0.500000000   0.750000000   0.000000000
Cr       0.500000000   0.250000000   0.000000000
Cr       0.750000000   0.000000000   0.500000000
Cr       0.250000000   0.000000000   0.500000000
Si       0.500000000   0.500000000   0.500000000
Si       0.000000000   0.000000000   0.000000000

     Writing output data file Prototype-La-cP8-Cr3Si.save
     NEW-OLD atomic charge density approx. for the potential
     NEW k-points:
        k(    1) = (   0.0000000   0.0000000   0.0000000), wk =   0.0095238
        k(    2) = (   0.0000000   0.0000000   0.1200414), wk =   0.0190476
        k(    3) = (   0.0000000   0.0000000   0.2400828), wk =   0.0190476
        k(    4) = (   0.0000000   0.0000000   0.3601242), wk =   0.0190476
        k(    5) = (   0.0000000   0.1400483   0.0000000), wk =   0.0190476
        k(    6) = (   0.0000000   0.1400483   0.1200414), wk =   0.0380952
        k(    7) = (   0.0000000   0.1400483   0.2400828), wk =   0.0380952
        k(    8) = (   0.0000000   0.1400483   0.3601242), wk =   0.0380952
        k(    9) = (   0.0000000   0.2800966   0.0000000), wk =   0.0190476
        k(   10) = (   0.0000000   0.2800966   0.1200414), wk =   0.0380952
        k(   11) = (   0.0000000   0.2800966   0.2400828), wk =   0.0380952
        k(   12) = (   0.0000000   0.2800966   0.3601242), wk =   0.0380952
        k(   13) = (   0.0000000  -0.4201448   0.0000000), wk =   0.0095238
        k(   14) = (   0.0000000  -0.4201448   0.1200414), wk =   0.0190476
        k(   15) = (   0.0000000  -0.4201448   0.2400828), wk =   0.0190476
        k(   16) = (   0.0000000  -0.4201448   0.3601242), wk =   0.0190476
        k(   17) = (   0.1680579   0.0000000   0.0000000), wk =   0.0190476
        k(   18) = (   0.1680579   0.0000000   0.1200414), wk =   0.0380952
        k(   19) = (   0.1680579   0.0000000   0.2400828), wk =   0.0380952
        k(   20) = (   0.1680579   0.0000000   0.3601242), wk =   0.0380952
        k(   21) = (   0.1680579   0.1400483   0.0000000), wk =   0.0380952
        k(   22) = (   0.1680579   0.1400483   0.1200414), wk =   0.0761905
        k(   23) = (   0.1680579   0.1400483   0.2400828), wk =   0.0761905
        k(   24) = (   0.1680579   0.1400483   0.3601242), wk =   0.0761905
        k(   25) = (   0.1680579   0.2800966   0.0000000), wk =   0.0380952
        k(   26) = (   0.1680579   0.2800966   0.1200414), wk =   0.0761905
        k(   27) = (   0.1680579   0.2800966   0.2400828), wk =   0.0761905
        k(   28) = (   0.1680579   0.2800966   0.3601242), wk =   0.0761905
        k(   29) = (   0.1680579  -0.4201448   0.0000000), wk =   0.0190476
        k(   30) = (   0.1680579  -0.4201448   0.1200414), wk =   0.0380952
        k(   31) = (   0.1680579  -0.4201448   0.2400828), wk =   0.0380952
        k(   32) = (   0.1680579  -0.4201448   0.3601242), wk =   0.0380952
        k(   33) = (   0.3361159   0.0000000   0.0000000), wk =   0.0190476
        k(   34) = (   0.3361159   0.0000000   0.1200414), wk =   0.0380952
        k(   35) = (   0.3361159   0.0000000   0.2400828), wk =   0.0380952
        k(   36) = (   0.3361159   0.0000000   0.3601242), wk =   0.0380952
        k(   37) = (   0.3361159   0.1400483   0.0000000), wk =   0.0380952
        k(   38) = (   0.3361159   0.1400483   0.1200414), wk =   0.0761905
        k(   39) = (   0.3361159   0.1400483   0.2400828), wk =   0.0761905
        k(   40) = (   0.3361159   0.1400483   0.3601242), wk =   0.0761905
        k(   41) = (   0.3361159   0.2800966   0.0000000), wk =   0.0380952
        k(   42) = (   0.3361159   0.2800966   0.1200414), wk =   0.0761905
        k(   43) = (   0.3361159   0.2800966   0.2400828), wk =   0.0761905
        k(   44) = (   0.3361159   0.2800966   0.3601242), wk =   0.0761905
        k(   45) = (   0.3361159  -0.4201448   0.0000000), wk =   0.0190476
        k(   46) = (   0.3361159  -0.4201448   0.1200414), wk =   0.0380952
        k(   47) = (   0.3361159  -0.4201448   0.2400828), wk =   0.0380952
        k(   48) = (   0.3361159  -0.4201448   0.3601242), wk =   0.0380952

[...]

     The maximum number of steps has been reached.

     End of BFGS Geometry Optimization
Begin final coordinates
     new unit-cell volume =   1047.75158 a.u.^3 (   155.26076 Ang^3 )

CELL_PARAMETERS (alat=  8.53457320)
   1.190065779   0.000000000   0.000000000
   0.000000000   1.190065779   0.000000000
   0.000000000   0.000000000   1.190065779

ATOMIC_POSITIONS (crystal)
Cr       0.000000000   0.500000000   0.250000000
Cr       0.000000000   0.500000000   0.750000000
Cr       0.500000000   0.750000000   0.000000000
Cr       0.500000000   0.250000000   0.000000000
Cr       0.750000000   0.000000000   0.500000000
Cr       0.250000000   0.000000000   0.500000000
Si       0.500000000   0.500000000   0.500000000
Si       0.000000000   0.000000000   0.000000000
End final coordinates

     A final scf calculation at the relaxed structure.
     The G-vectors are recalculated for the final unit cell
     Results may differ from those at the preceding step.

     bravais-lattice index     =            0
     lattice parameter (alat)  =       8.5346  a.u.
     unit-cell volume          =    1047.7516 (a.u.)^3
     number of atoms/cell      =            8
     number of atomic types    =            2
     number of electrons       =       140.00
     number of Kohn-Sham states=           84
     kinetic-energy cutoff     =      40.0000  Ry
     charge density cutoff     =     160.0000  Ry
     convergence threshold     =      1.0E-06
     mixing beta               =       0.7000
     number of iterations used =            8  plain     mixing
     Exchange-correlation      = SLA-PZ-NOGX-NOGC ( 1 1 0 0 0)
     EXX-fraction              =        0.00

     celldm(1)=   8.534573  celldm(2)=   0.000000  celldm(3)=   0.000000
     celldm(4)=   0.000000  celldm(5)=   0.000000  celldm(6)=   0.000000

     crystal axes: (cart. coord. in units of alat)
               a(1) = (   1.190066   0.000000   0.000000 )
               a(2) = (   0.000000   1.190066   0.000000 )
               a(3) = (   0.000000   0.000000   1.190066 )

     reciprocal axes: (cart. coord. in units 2 pi/alat)
               b(1) = (  0.840290  0.000000  0.000000 )
               b(2) = (  0.000000  0.840290  0.000000 )
               b(3) = (  0.000000  0.000000  0.840290 )

     PseudoPot. # 1 for Sm read from file:
     /home/cwx6513/pp.La/Sm.UPF
     MD5 check sum: 5079e8b144a06bfcdbc14fb02b96ab09
     Pseudo is Norm-conserving, Zval = 16.0
     Generated in analytical, separable form
     Using radial grid of 1259 points,  6 beta functions with:
                l(1) =   0
                l(2) =   0
                l(3) =   1
                l(4) =   1
                l(5) =   2
                l(6) =   3

     PseudoPot. # 2 for Er read from file:
     /home/cwx6513/pp.La/Er.UPF
     MD5 check sum: e152ae21b84514339d8526f066caf99b
     Pseudo is Norm-conserving, Zval = 22.0
     Generated in analytical, separable form
     Using radial grid of 1267 points,  6 beta functions with:
                l(1) =   0
                l(2) =   0
                l(3) =   1
                l(4) =   1
                l(5) =   2
                l(6) =   3

     atomic species   valence    mass     pseudopotential
        Cr            16.00    51.99610     Sm( 1.00)
        Si            22.00    28.08550     Er( 1.00)

     48 Sym. Ops., with inversion, found (24 have fractional translation)

   Cartesian axes

     site n.     atom                  positions (alat units)
         1           Cr  tau(   1) = (   0.0000000   0.5950329   0.2975164  )
         2           Cr  tau(   2) = (   0.0000000   0.5950329   0.8925493  )
         3           Cr  tau(   3) = (   0.5950329   0.8925493   0.0000000  )
         4           Cr  tau(   4) = (   0.5950329   0.2975164   0.0000000  )
         5           Cr  tau(   5) = (   0.8925493   0.0000000   0.5950329  )
         6           Cr  tau(   6) = (   0.2975164   0.0000000   0.5950329  )
         7           Si  tau(   7) = (   0.5950329   0.5950329   0.5950329  )
         8           Si  tau(   8) = (   0.0000000   0.0000000   0.0000000  )

     number of k points=    48  gaussian smearing, width (Ry)=  0.1000
                       cart. coord. in units 2pi/alat
        k(    1) = (   0.0000000   0.0000000   0.0000000), wk =   0.0095238
        k(    2) = (   0.0000000   0.0000000   0.1200414), wk =   0.0190476
        k(    3) = (   0.0000000   0.0000000   0.2400828), wk =   0.0190476
        k(    4) = (   0.0000000   0.0000000   0.3601242), wk =   0.0190476
        k(    5) = (   0.0000000   0.1400483   0.0000000), wk =   0.0190476
        k(    6) = (   0.0000000   0.1400483   0.1200414), wk =   0.0380952
        k(    7) = (   0.0000000   0.1400483   0.2400828), wk =   0.0380952
        k(    8) = (   0.0000000   0.1400483   0.3601242), wk =   0.0380952
        k(    9) = (   0.0000000   0.2800966   0.0000000), wk =   0.0190476
        k(   10) = (   0.0000000   0.2800966   0.1200414), wk =   0.0380952
        k(   11) = (   0.0000000   0.2800966   0.2400828), wk =   0.0380952
        k(   12) = (   0.0000000   0.2800966   0.3601242), wk =   0.0380952
        k(   13) = (   0.0000000  -0.4201448   0.0000000), wk =   0.0095238
        k(   14) = (   0.0000000  -0.4201448   0.1200414), wk =   0.0190476
        k(   15) = (   0.0000000  -0.4201448   0.2400828), wk =   0.0190476
        k(   16) = (   0.0000000  -0.4201448   0.3601242), wk =   0.0190476
        k(   17) = (   0.1680579   0.0000000   0.0000000), wk =   0.0190476
        k(   18) = (   0.1680579   0.0000000   0.1200414), wk =   0.0380952
        k(   19) = (   0.1680579   0.0000000   0.2400828), wk =   0.0380952
        k(   20) = (   0.1680579   0.0000000   0.3601242), wk =   0.0380952
        k(   21) = (   0.1680579   0.1400483   0.0000000), wk =   0.0380952
        k(   22) = (   0.1680579   0.1400483   0.1200414), wk =   0.0761905
        k(   23) = (   0.1680579   0.1400483   0.2400828), wk =   0.0761905
        k(   24) = (   0.1680579   0.1400483   0.3601242), wk =   0.0761905
        k(   25) = (   0.1680579   0.2800966   0.0000000), wk =   0.0380952
        k(   26) = (   0.1680579   0.2800966   0.1200414), wk =   0.0761905
        k(   27) = (   0.1680579   0.2800966   0.2400828), wk =   0.0761905
        k(   28) = (   0.1680579   0.2800966   0.3601242), wk =   0.0761905
        k(   29) = (   0.1680579  -0.4201448   0.0000000), wk =   0.0190476
        k(   30) = (   0.1680579  -0.4201448   0.1200414), wk =   0.0380952
        k(   31) = (   0.1680579  -0.4201448   0.2400828), wk =   0.0380952
        k(   32) = (   0.1680579  -0.4201448   0.3601242), wk =   0.0380952
        k(   33) = (   0.3361159   0.0000000   0.0000000), wk =   0.0190476
        k(   34) = (   0.3361159   0.0000000   0.1200414), wk =   0.0380952
        k(   35) = (   0.3361159   0.0000000   0.2400828), wk =   0.0380952
        k(   36) = (   0.3361159   0.0000000   0.3601242), wk =   0.0380952
        k(   37) = (   0.3361159   0.1400483   0.0000000), wk =   0.0380952
        k(   38) = (   0.3361159   0.1400483   0.1200414), wk =   0.0761905
        k(   39) = (   0.3361159   0.1400483   0.2400828), wk =   0.0761905
        k(   40) = (   0.3361159   0.1400483   0.3601242), wk =   0.0761905
        k(   41) = (   0.3361159   0.2800966   0.0000000), wk =   0.0380952
        k(   42) = (   0.3361159   0.2800966   0.1200414), wk =   0.0761905
        k(   43) = (   0.3361159   0.2800966   0.2400828), wk =   0.0761905
        k(   44) = (   0.3361159   0.2800966   0.3601242), wk =   0.0761905
        k(   45) = (   0.3361159  -0.4201448   0.0000000), wk =   0.0190476
        k(   46) = (   0.3361159  -0.4201448   0.1200414), wk =   0.0380952
        k(   47) = (   0.3361159  -0.4201448   0.2400828), wk =   0.0380952
        k(   48) = (   0.3361159  -0.4201448   0.3601242), wk =   0.0380952

     Largest allocated arrays     est. size (Mb)     dimensions
     Largest temporary arrays     est. size (Mb)     dimensions

     Initial potential from superposition of free atoms

     Starting from uniform charge
     Starting wfc are    0 randomized atomic wfcs

     Writing output data file Prototype-La-cP8-Cr3Si.save

     Self-consistent Calculation

[...]

     iteration #  8     ecut=    40.00 Ry     beta=0.70
     CG style diagonalization
     c_bands:  1 eigenvalues not converged
     c_bands:  1 eigenvalues not converged
     c_bands:  1 eigenvalues not converged
     c_bands:  1 eigenvalues not converged
     ethr =  2.06E-06,  avg # of iterations =  3.8

[...]

     total energy              =   -1568.05202268 Ry
     Harris-Foulkes estimate   =   -1568.05206188 Ry
     estimated scf accuracy    <       0.00007050 Ry

     iteration # 10     ecut=    40.00 Ry     beta=0.70
     CG style diagonalization
     ethr =  5.04E-08,  avg # of iterations =  3.6

     End of self-consistent calculation

[...]

          k = 0.3361-0.4201 0.3601 (  4492 PWs)   bands (ev):

   -75.3597 -75.3595 -37.2968 -37.2967 -37.2942 -37.2940 -37.2891 -37.2891
   -31.8800 -31.8669 -31.8295 -31.8292 -31.7926 -31.7790  -7.6534  -7.5599
    -7.3289  -7.3243  -7.2756  -7.2729  -7.1281  -7.0838  -6.9758  -6.9578
    -6.9181  -6.9070  -6.8562  -6.8441  -6.8343  -6.8233  -6.8211  -6.8150
     9.5412   9.5413   9.5488   9.5495   9.5538   9.5594   9.5679   9.5683
     9.5767   9.5793  16.9927  16.9929  20.0791  20.2070  20.4614  20.5196
    20.6629  20.6909  21.3140  21.3206  21.4621  21.4745  21.5951  21.6686
    22.2349  22.4592  22.7450  22.8079  22.9286  22.9854  23.1568  23.1938
    23.7362  23.7766  24.7961  24.8853  24.9954  25.0475  25.1886  25.3272
    25.5669  25.6029  26.1923  26.3310  26.5429  26.7829  27.3530  27.4212
    31.6819  31.6855  34.0036  34.1561

     the Fermi energy is    25.7786 ev

!    total energy              =   -1568.05203571 Ry
     Harris-Foulkes estimate   =   -1568.05203620 Ry
     estimated scf accuracy    <       0.00000060 Ry

     The total energy is the sum of the following terms:

     one-electron contribution =    -219.33560352 Ry
     hartree contribution      =     212.33961431 Ry
     xc contribution           =    -154.73163319 Ry
     ewald contribution        =   -1405.81319691 Ry
     smearing contrib. (-TS)   =      -0.51121641 Ry

     convergence has been achieved in  10 iterations

     Forces acting on atoms (Ry/au):

     atom    1 type  1   force =     0.00000000    0.00000000    0.00000000
     atom    2 type  1   force =     0.00000000    0.00000000    0.00000000
     atom    3 type  1   force =     0.00000000    0.00000000    0.00000000
     atom    4 type  1   force =     0.00000000    0.00000000    0.00000000
     atom    5 type  1   force =     0.00000000    0.00000000    0.00000000
     atom    6 type  1   force =     0.00000000    0.00000000    0.00000000
     atom    7 type  2   force =     0.00000000    0.00000000    0.00000000
     atom    8 type  2   force =     0.00000000    0.00000000    0.00000000

     Total force =     0.000000     Total SCF correction =     0.000000

     entering subroutine stress ...

          total   stress  (Ry/bohr**3)                   (kbar)     P=   26.26
   0.00017853   0.00000000   0.00000000         26.26      0.00      0.00
   0.00000000   0.00017853   0.00000000          0.00     26.26      0.00
   0.00000000   0.00000000   0.00017853          0.00      0.00     26.26

     Writing output data file Prototype-La-cP8-Cr3Si.save

     General routines

     Parallel routines

   This run was terminated on:  19: 5:38  22Mar2018

   JOB DONE.