     Program PWSCF v.5.0.2 starts on 22Mar2018 at 12: 9:35

     Current dimensions of program PWSCF are:
     Max number of different atomic species (ntypx) = 10
     Max number of k-points (npk) =  40000
     Max angular momentum in pseudopotentials (lmaxx) =  3
     Waiting for input...
     Reading input from standard input

     Subspace diagonalization in iterative solution of the eigenvalue problem:
     a serial algorithm will be used

     bravais-lattice index     =            0
     lattice parameter (alat)  =      13.3930  a.u.
     unit-cell volume          =    1134.0956 (a.u.)^3
     number of atoms/cell      =            4
     number of atomic types    =            2
     number of electrons       =        84.00
     number of Kohn-Sham states=           50
     kinetic-energy cutoff     =      40.0000  Ry
     charge density cutoff     =     160.0000  Ry
     convergence threshold     =      1.0E-04
     mixing beta               =       0.7000
     number of iterations used =            8  plain     mixing
     Exchange-correlation      = SLA-PZ-NOGX-NOGC ( 1 1 0 0 0)
     EXX-fraction              =        0.00
     nstep                     =           50

     celldm(1)=  13.392972  celldm(2)=   0.000000  celldm(3)=   0.000000
     celldm(4)=   0.000000  celldm(5)=   0.000000  celldm(6)=   0.000000

     crystal axes: (cart. coord. in units of alat)
               a(1) = (   1.000000   0.000000   0.000000 )
               a(2) = (  -0.776311   0.630350   0.000000 )
               a(3) = (   0.000000   0.000000   0.748922 )

     reciprocal axes: (cart. coord. in units 2 pi/alat)
               b(1) = (  1.000000  1.231554  0.000000 )
               b(2) = (  0.000000  1.586419  0.000000 )
               b(3) = (  0.000000  0.000000  1.335252 )

     PseudoPot. # 1 for Yb read from file:
     /home/jld5415/pp.La/Yb.UPF
     MD5 check sum: 3e859b81cc28c53ec6aa3a2e888efcdf
     Pseudo is Norm-conserving, Zval = 24.0
     Generated in analytical, separable form
     Using radial grid of 1269 points,  6 beta functions with:
                l(1) =   0
                l(2) =   0
                l(3) =   1
                l(4) =   1
                l(5) =   2
                l(6) =   3

     PseudoPot. # 2 for Gd read from file:
     /home/jld5415/pp.La/Gd.UPF
     MD5 check sum: 09a8be538722f05520810cb6aac0efd2
     Pseudo is Norm-conserving, Zval = 18.0
     Generated in analytical, separable form
     Using radial grid of 1263 points,  6 beta functions with:
                l(1) =   0
                l(2) =   0
                l(3) =   1
                l(4) =   1
                l(5) =   2
                l(6) =   3

     atomic species   valence    mass     pseudopotential
        Tl            24.00   204.38300     Yb( 1.00)
        I             18.00   126.90400     Gd( 1.00)

      2 Sym. Ops., with inversion, found
          (note:  2 additional sym.ops. were found but ignored
           their fractional translations are incommensurate with FFT grid)

   Cartesian axes

     site n.     atom                  positions (alat units)
         1           Tl  tau(   1) = (  -0.0906317   0.3870269   0.5616917  )
         2           Tl  tau(   2) = (   0.3143210   0.2433234   0.1872306  )
         3           I   tau(   3) = (  -0.5408004   0.5467760   0.5616917  )
         4           I   tau(   4) = (   0.7644896   0.0835744   0.1872306  )

     number of k points=   106  gaussian smearing, width (Ry)=  0.1000

     Number of k-points >= 100: set verbosity='high' to print them.

     Largest allocated arrays     est. size (Mb)     dimensions
     Largest temporary arrays     est. size (Mb)     dimensions

     Initial potential from superposition of free atoms

     Starting from uniform charge
     Starting wfc are    0 randomized atomic wfcs

     Self-consistent Calculation

     iteration #  1     ecut=    40.00 Ry     beta=0.70
     CG style diagonalization
     ethr =  1.00E-02,  avg # of iterations = 22.0

     total energy              =    -836.90311677 Ry
     Harris-Foulkes estimate   =   -1804.13616155 Ry
     estimated scf accuracy    <    1169.95323212 Ry

     iteration #  2     ecut=    40.00 Ry     beta=0.70
     CG style diagonalization
     c_bands:  1 eigenvalues not converged
     c_bands:  1 eigenvalues not converged
     c_bands:  1 eigenvalues not converged
     c_bands:  1 eigenvalues not converged
     ethr =  1.00E-02,  avg # of iterations = 12.6

[...]

     End of self-consistent calculation

     Number of k-points >= 100: set verbosity='high' to print the bands.

     the Fermi energy is     9.8458 ev

!    total energy              =   -1222.10397974 Ry
     Harris-Foulkes estimate   =   -1222.10399947 Ry
     estimated scf accuracy    <       0.00002243 Ry

     The total energy is the sum of the following terms:

     one-electron contribution =    -679.23816860 Ry
     hartree contribution      =     335.10713984 Ry
     xc contribution           =    -101.75676087 Ry
     ewald contribution        =    -775.95035336 Ry
     smearing contrib. (-TS)   =      -0.26583674 Ry

     convergence has been achieved in  11 iterations

     Forces acting on atoms (Ry/au):

     atom    1 type  1   force =    -0.01324861    0.00492178    0.00060251
     atom    2 type  1   force =     0.01324861   -0.00492178   -0.00060251
     atom    3 type  2   force =     0.00141321   -0.00021588    0.00035666
     atom    4 type  2   force =    -0.00141321    0.00021588   -0.00035666

     Total force =     0.020114     Total SCF correction =     0.000000

     entering subroutine stress ...

          total   stress  (Ry/bohr**3)                   (kbar)     P= -450.43
  -0.00300364  -0.00002126  -0.00000003       -441.85     -3.13      0.00
  -0.00002126  -0.00305574   0.00000004         -3.13   -449.51      0.01
  -0.00000003   0.00000004  -0.00312650          0.00      0.01   -459.92

     BFGS Geometry Optimization

     number of scf cycles    =   1
     number of bfgs steps    =   0

     enthalpy new            =   -1222.1039797386 Ry

     new trust radius        =       0.5000000000 bohr
     new conv_thr            =       0.0001000000 Ry

     new unit-cell volume =    904.28244 a.u.^3 (   134.00083 Ang^3 )

CELL_PARAMETERS (alat= 13.39297219)
   0.928681046  -0.000504816  -0.000000599
  -0.721263291   0.585006670   0.000001030
  -0.000000449   0.000000671   0.693325154

ATOMIC_POSITIONS (crystal)
Tl       0.385503320   0.614540707   0.750057051
Tl       0.614496680   0.385459293   0.249942949
I        0.132665364   0.867391713   0.750033772
I        0.867334636   0.132608287   0.249966228

     Writing output data file Prototype-La-oS8-TlI.save
     NEW-OLD atomic charge density approx. for the potential
     NEW k-points: (use verbosity='high' to print them)

[...]

     enthalpy old            =   -1222.1039797386 Ry
     enthalpy new            =   -1222.7037134812 Ry

     CASE: enthalpy_new < enthalpy_old

     small trust_radius: resetting bfgs history

[...]

     number of scf cycles    =   3
     number of bfgs steps    =   2

     enthalpy old            =   -1222.7037134812 Ry
     enthalpy new            =   -1222.9167647671 Ry

     CASE: enthalpy_new < enthalpy_old

     Message from routine bfgs:
     history already reset at previous step: stopping
     small trust_radius: resetting bfgs history

     new trust radius        =       0.1451201368 bohr
     new conv_thr            =       0.0000379477 Ry

     new unit-cell volume =    717.91902 a.u.^3 (   106.38462 Ang^3 )

[...]

ATOMIC_POSITIONS (crystal)
Tl       0.380536448   0.619531134   0.748374449
Tl       0.619463552   0.380468866   0.251625551
I        0.132667496   0.867346741   0.748625826
I        0.867332504   0.132653259   0.251374174

     Writing output data file Prototype-La-oS8-TlI.save
     NEW-OLD atomic charge density approx. for the potential
     NEW k-points: (use verbosity='high' to print them)

[...]

     The maximum number of steps has been reached.

     End of BFGS Geometry Optimization
Begin final coordinates
     new unit-cell volume =    717.91902 a.u.^3 (   106.38462 Ang^3 )

CELL_PARAMETERS (alat= 13.39297219)
   0.864626820  -0.003334152  -0.000010729
  -0.673320784   0.542446620   0.000011713
  -0.000008004   0.000004008   0.640239713

ATOMIC_POSITIONS (crystal)
Tl       0.380536448   0.619531134   0.748374449
Tl       0.619463552   0.380468866   0.251625551
I        0.132667496   0.867346741   0.748625826
I        0.867332504   0.132653259   0.251374174
End final coordinates

     A final scf calculation at the relaxed structure.
     The G-vectors are recalculated for the final unit cell
     Results may differ from those at the preceding step.

     bravais-lattice index     =            0
     lattice parameter (alat)  =      13.3930  a.u.
     unit-cell volume          =     717.9190 (a.u.)^3
     number of atoms/cell      =            4
     number of atomic types    =            2
     number of electrons       =        84.00
     number of Kohn-Sham states=           50
     kinetic-energy cutoff     =      40.0000  Ry
     charge density cutoff     =     160.0000  Ry
     convergence threshold     =      3.8E-05
     mixing beta               =       0.7000
     number of iterations used =            8  plain     mixing
     Exchange-correlation      = SLA-PZ-NOGX-NOGC ( 1 1 0 0 0)
     EXX-fraction              =        0.00

     celldm(1)=  13.392972  celldm(2)=   0.000000  celldm(3)=   0.000000
     celldm(4)=   0.000000  celldm(5)=   0.000000  celldm(6)=   0.000000

     crystal axes: (cart. coord. in units of alat)
               a(1) = (   0.864627  -0.003334  -0.000011 )
               a(2) = (  -0.673321   0.542447   0.000012 )
               a(3) = (  -0.000008   0.000004   0.640240 )

     reciprocal axes: (cart. coord. in units 2 pi/alat)
               b(1) = (  1.162131  1.442514  0.000005 )
               b(2) = (  0.007143  1.852366 -0.000012 )
               b(3) = (  0.000019 -0.000010  1.561915 )

     PseudoPot. # 1 for Yb read from file:
     /home/jld5415/pp.La/Yb.UPF
     MD5 check sum: 3e859b81cc28c53ec6aa3a2e888efcdf
     Pseudo is Norm-conserving, Zval = 24.0
     Generated in analytical, separable form
     Using radial grid of 1269 points,  6 beta functions with:
                l(1) =   0
                l(2) =   0
                l(3) =   1
                l(4) =   1
                l(5) =   2
                l(6) =   3

     PseudoPot. # 2 for Gd read from file:
     /home/jld5415/pp.La/Gd.UPF
     MD5 check sum: 09a8be538722f05520810cb6aac0efd2
     Pseudo is Norm-conserving, Zval = 18.0
     Generated in analytical, separable form
     Using radial grid of 1263 points,  6 beta functions with:
                l(1) =   0
                l(2) =   0
                l(3) =   1
                l(4) =   1
                l(5) =   2
                l(6) =   3

     atomic species   valence    mass     pseudopotential
        Tl            24.00   204.38300     Yb( 1.00)
        I             18.00   126.90400     Gd( 1.00)

      2 Sym. Ops., with inversion, found
          (note:  2 additional sym.ops. were found but ignored
           their fractional translations are incommensurate with FFT grid)

   Cartesian axes

     site n.     atom                  positions (alat units)
         1           Tl  tau(   1) = (  -0.0881272   0.3347968   0.4791422  )
         2           Tl  tau(   2) = (   0.2794252   0.2043197   0.1610985  )
         3           I   tau(   3) = (  -0.4693007   0.4700500   0.4793087  )
         4           I   tau(   4) = (   0.6605987   0.0690665   0.1609320  )

     number of k points=   106  gaussian smearing, width (Ry)=  0.1000

     Number of k-points >= 100: set verbosity='high' to print them.

     Largest allocated arrays     est. size (Mb)     dimensions
     Largest temporary arrays     est. size (Mb)     dimensions

     Initial potential from superposition of free atoms

     Starting from uniform charge
     Starting wfc are    0 randomized atomic wfcs

     Writing output data file Prototype-La-oS8-TlI.save

     Self-consistent Calculation

[...]

     iteration #  9     ecut=    40.00 Ry     beta=0.70
     CG style diagonalization
     c_bands:  1 eigenvalues not converged
     c_bands:  1 eigenvalues not converged
     c_bands:  1 eigenvalues not converged
     c_bands:  1 eigenvalues not converged
     ethr =  1.54E-06,  avg # of iterations =  4.4

     total energy              =   -1222.23421129 Ry
     Harris-Foulkes estimate   =   -1222.23436518 Ry
     estimated scf accuracy    <       0.00030940 Ry

     iteration # 10     ecut=    40.00 Ry     beta=0.70
     CG style diagonalization
     ethr =  3.68E-07,  avg # of iterations =  3.6

     End of self-consistent calculation

     Number of k-points >= 100: set verbosity='high' to print the bands.

     the Fermi energy is    19.2875 ev

!    total energy              =   -1222.23424704 Ry
     Harris-Foulkes estimate   =   -1222.23426920 Ry
     estimated scf accuracy    <       0.00002694 Ry

     The total energy is the sum of the following terms:

     one-electron contribution =    -475.14900822 Ry
     hartree contribution      =     259.50387714 Ry
     xc contribution           =    -103.02387414 Ry
     ewald contribution        =    -903.41533555 Ry
     smearing contrib. (-TS)   =      -0.14990628 Ry

     convergence has been achieved in  10 iterations

     Forces acting on atoms (Ry/au):

     atom    1 type  1   force =    -0.00163919    0.00128236    0.01585463
     atom    2 type  1   force =     0.00163919   -0.00128236   -0.01585463
     atom    3 type  2   force =    -0.05345158    0.01968967    0.01278007
     atom    4 type  2   force =     0.05345158   -0.01968967   -0.01278007

     Total force =     0.085601     Total SCF correction =     0.000000

     entering subroutine stress ...

          total   stress  (Ry/bohr**3)                   (kbar)     P= -422.32
  -0.00271404  -0.00011155  -0.00000098       -399.25    -16.41     -0.14
  -0.00011155  -0.00298419   0.00000032        -16.41   -438.99      0.05
  -0.00000098   0.00000032  -0.00291438         -0.14      0.05   -428.72

     Writing output data file Prototype-La-oS8-TlI.save

     General routines

     Parallel routines

   This run was terminated on:  12:59:46  22Mar2018

   JOB DONE.