     Program PWSCF v.5.0.2 starts on 22Mar2018 at 12: 7:54

     Current dimensions of program PWSCF are:
     Max number of different atomic species (ntypx) = 10
     Max number of k-points (npk) =  40000
     Max angular momentum in pseudopotentials (lmaxx) =  3
     Waiting for input...
     Reading input from standard input

     Subspace diagonalization in iterative solution of the eigenvalue problem:
     a serial algorithm will be used

     bravais-lattice index     =            0
     lattice parameter (alat)  =       8.5346  a.u.
     unit-cell volume          =     621.6493 (a.u.)^3
     number of atoms/cell      =            8
     number of atomic types    =            2
     number of electrons       =       180.00
     number of Kohn-Sham states=          108
     kinetic-energy cutoff     =      40.0000  Ry
     charge density cutoff     =     160.0000  Ry
     convergence threshold     =      1.0E-04
     mixing beta               =       0.7000
     number of iterations used =            8  plain     mixing
     Exchange-correlation      = SLA-PZ-NOGX-NOGC ( 1 1 0 0 0)
     EXX-fraction              =        0.00
     nstep                     =           50

     celldm(1)=   8.534573  celldm(2)=   0.000000  celldm(3)=   0.000000
     celldm(4)=   0.000000  celldm(5)=   0.000000  celldm(6)=   0.000000

     crystal axes: (cart. coord. in units of alat)
               a(1) = (   1.000000   0.000000   0.000000 )
               a(2) = (   0.000000   1.000000   0.000000 )
               a(3) = (   0.000000   0.000000   1.000000 )

     reciprocal axes: (cart. coord. in units 2 pi/alat)
               b(1) = (  1.000000  0.000000  0.000000 )
               b(2) = (  0.000000  1.000000  0.000000 )
               b(3) = (  0.000000  0.000000  1.000000 )

     PseudoPot. # 1 for Yb read from file:
     /home/jld5415/pp.La/Yb.UPF
     MD5 check sum: 3e859b81cc28c53ec6aa3a2e888efcdf
     Pseudo is Norm-conserving, Zval = 24.0
     Generated in analytical, separable form
     Using radial grid of 1269 points,  6 beta functions with:
                l(1) =   0
                l(2) =   0
                l(3) =   1
                l(4) =   1
                l(5) =   2
                l(6) =   3

     PseudoPot. # 2 for Gd read from file:
     /home/jld5415/pp.La/Gd.UPF
     MD5 check sum: 09a8be538722f05520810cb6aac0efd2
     Pseudo is Norm-conserving, Zval = 18.0
     Generated in analytical, separable form
     Using radial grid of 1263 points,  6 beta functions with:
                l(1) =   0
                l(2) =   0
                l(3) =   1
                l(4) =   1
                l(5) =   2
                l(6) =   3

     atomic species   valence    mass     pseudopotential
        Cr            24.00    51.99610     Yb( 1.00)
        Si            18.00    28.08550     Gd( 1.00)

     48 Sym. Ops., with inversion, found (24 have fractional translation)

   Cartesian axes

     site n.     atom                  positions (alat units)
         1           Cr  tau(   1) = (   0.0000000   0.5000000   0.2500000  )
         2           Cr  tau(   2) = (   0.0000000   0.5000000   0.7500000  )
         3           Cr  tau(   3) = (   0.5000000   0.7500000   0.0000000  )
         4           Cr  tau(   4) = (   0.5000000   0.2500000   0.0000000  )
         5           Cr  tau(   5) = (   0.7500000   0.0000000   0.5000000  )
         6           Cr  tau(   6) = (   0.2500000   0.0000000   0.5000000  )
         7           Si  tau(   7) = (   0.5000000   0.5000000   0.5000000  )
         8           Si  tau(   8) = (   0.0000000   0.0000000   0.0000000  )

     number of k points=    48  gaussian smearing, width (Ry)=  0.1000
                       cart. coord. in units 2pi/alat
        k(    1) = (   0.0000000   0.0000000   0.0000000), wk =   0.0095238
        k(    2) = (   0.0000000   0.0000000   0.1428571), wk =   0.0190476
        k(    3) = (   0.0000000   0.0000000   0.2857143), wk =   0.0190476
        k(    4) = (   0.0000000   0.0000000   0.4285714), wk =   0.0190476
        k(    5) = (   0.0000000   0.1666667   0.0000000), wk =   0.0190476
        k(    6) = (   0.0000000   0.1666667   0.1428571), wk =   0.0380952
        k(    7) = (   0.0000000   0.1666667   0.2857143), wk =   0.0380952
        k(    8) = (   0.0000000   0.1666667   0.4285714), wk =   0.0380952
        k(    9) = (   0.0000000   0.3333333   0.0000000), wk =   0.0190476
        k(   10) = (   0.0000000   0.3333333   0.1428571), wk =   0.0380952
        k(   11) = (   0.0000000   0.3333333   0.2857143), wk =   0.0380952
        k(   12) = (   0.0000000   0.3333333   0.4285714), wk =   0.0380952
        k(   13) = (   0.0000000  -0.5000000   0.0000000), wk =   0.0095238
        k(   14) = (   0.0000000  -0.5000000   0.1428571), wk =   0.0190476
        k(   15) = (   0.0000000  -0.5000000   0.2857143), wk =   0.0190476
        k(   16) = (   0.0000000  -0.5000000   0.4285714), wk =   0.0190476
        k(   17) = (   0.2000000   0.0000000   0.0000000), wk =   0.0190476
        k(   18) = (   0.2000000   0.0000000   0.1428571), wk =   0.0380952
        k(   19) = (   0.2000000   0.0000000   0.2857143), wk =   0.0380952
        k(   20) = (   0.2000000   0.0000000   0.4285714), wk =   0.0380952
        k(   21) = (   0.2000000   0.1666667   0.0000000), wk =   0.0380952
        k(   22) = (   0.2000000   0.1666667   0.1428571), wk =   0.0761905
        k(   23) = (   0.2000000   0.1666667   0.2857143), wk =   0.0761905
        k(   24) = (   0.2000000   0.1666667   0.4285714), wk =   0.0761905
        k(   25) = (   0.2000000   0.3333333   0.0000000), wk =   0.0380952
        k(   26) = (   0.2000000   0.3333333   0.1428571), wk =   0.0761905
        k(   27) = (   0.2000000   0.3333333   0.2857143), wk =   0.0761905
        k(   28) = (   0.2000000   0.3333333   0.4285714), wk =   0.0761905
        k(   29) = (   0.2000000  -0.5000000   0.0000000), wk =   0.0190476
        k(   30) = (   0.2000000  -0.5000000   0.1428571), wk =   0.0380952
        k(   31) = (   0.2000000  -0.5000000   0.2857143), wk =   0.0380952
        k(   32) = (   0.2000000  -0.5000000   0.4285714), wk =   0.0380952
        k(   33) = (   0.4000000   0.0000000   0.0000000), wk =   0.0190476
        k(   34) = (   0.4000000   0.0000000   0.1428571), wk =   0.0380952
        k(   35) = (   0.4000000   0.0000000   0.2857143), wk =   0.0380952
        k(   36) = (   0.4000000   0.0000000   0.4285714), wk =   0.0380952
        k(   37) = (   0.4000000   0.1666667   0.0000000), wk =   0.0380952
        k(   38) = (   0.4000000   0.1666667   0.1428571), wk =   0.0761905
        k(   39) = (   0.4000000   0.1666667   0.2857143), wk =   0.0761905
        k(   40) = (   0.4000000   0.1666667   0.4285714), wk =   0.0761905
        k(   41) = (   0.4000000   0.3333333   0.0000000), wk =   0.0380952
        k(   42) = (   0.4000000   0.3333333   0.1428571), wk =   0.0761905
        k(   43) = (   0.4000000   0.3333333   0.2857143), wk =   0.0761905
        k(   44) = (   0.4000000   0.3333333   0.4285714), wk =   0.0761905
        k(   45) = (   0.4000000  -0.5000000   0.0000000), wk =   0.0190476
        k(   46) = (   0.4000000  -0.5000000   0.1428571), wk =   0.0380952
        k(   47) = (   0.4000000  -0.5000000   0.2857143), wk =   0.0380952
        k(   48) = (   0.4000000  -0.5000000   0.4285714), wk =   0.0380952

     Largest allocated arrays     est. size (Mb)     dimensions
     Largest temporary arrays     est. size (Mb)     dimensions

     Initial potential from superposition of free atoms

     Starting from uniform charge
     Starting wfc are    0 randomized atomic wfcs

     Self-consistent Calculation

     iteration #  1     ecut=    40.00 Ry     beta=0.70
     CG style diagonalization
     c_bands:  5 eigenvalues not converged
     c_bands:  4 eigenvalues not converged
     c_bands:  5 eigenvalues not converged
     c_bands:  5 eigenvalues not converged
     c_bands:  5 eigenvalues not converged
     c_bands:  5 eigenvalues not converged
     c_bands:  2 eigenvalues not converged
     c_bands:  5 eigenvalues not converged
     c_bands:  4 eigenvalues not converged
     ethr =  1.00E-02,  avg # of iterations = 16.9

     total energy              =   -2398.53854376 Ry
     Harris-Foulkes estimate   =   -3398.62577249 Ry
     estimated scf accuracy    <    1234.97256826 Ry

[...]

     iteration #  4     ecut=    40.00 Ry     beta=0.70
     CG style diagonalization
     ethr =  1.00E-02,  avg # of iterations =  4.9

[...]

     End of self-consistent calculation

          k = 0.0000 0.0000 0.0000 (  2601 PWs)   bands (ev):

   -72.7418 -72.7418 -72.5103 -72.3462 -72.3462 -72.3462 -32.5508 -32.5508
   -32.4983 -31.5963 -31.5963 -31.5963 -31.4310 -31.4310 -31.4310 -31.3729
   -31.3729 -31.3729 -31.3346 -31.3346 -31.3346 -31.2282 -31.2282 -31.2282
   -19.6993 -19.6987   8.5019   8.5019   8.5019   8.5023   8.5023   8.5023
    20.8198  20.8326  20.8326  22.6053  22.6053  22.6053  24.2239  24.3304
    24.3304  24.3304  24.9665  24.9665  25.0450  25.0450  25.0450  25.2141
    26.2435  26.2435  26.2435  27.0485  27.0485  27.2412  27.2412  27.2412
    27.2740  27.2740  27.2740  28.2856  28.2856  28.2856  28.3281  34.4455
    34.4455  39.5716  39.5716  39.5716  39.8684  39.8684  40.5389  40.5389
    40.5389  41.2744  41.2744  41.2744  43.4505  46.9125  46.9125  46.9125
    47.9666  47.9666  49.7732  49.7732  50.3961  50.3961  50.3961  52.1894
    54.0608  54.3947  54.3947  54.3947  54.6567  54.6567  54.6567  55.3758
    55.3758  55.3758  55.8725  55.8725  55.8725  58.0797  59.5318  59.5318
    59.5318  60.0602  62.1516  62.1517

[...]

     the Fermi energy is    53.6682 ev

!    total energy              =   -2849.09047896 Ry
     Harris-Foulkes estimate   =   -2849.09049816 Ry
     estimated scf accuracy    <       0.00002421 Ry

     The total energy is the sum of the following terms:

     one-electron contribution =    -171.13759128 Ry
     hartree contribution      =     318.06144440 Ry
     xc contribution           =    -242.04923206 Ry
     ewald contribution        =   -2753.59207983 Ry
     smearing contrib. (-TS)   =      -0.37302018 Ry

     convergence has been achieved in   9 iterations

     Forces acting on atoms (Ry/au):

     atom    1 type  1   force =     0.00000000    0.00000000    0.00000000
     atom    2 type  1   force =     0.00000000    0.00000000    0.00000000
     atom    3 type  1   force =     0.00000000    0.00000000    0.00000000
     atom    4 type  1   force =     0.00000000    0.00000000    0.00000000
     atom    5 type  1   force =     0.00000000    0.00000000    0.00000000
     atom    6 type  1   force =     0.00000000    0.00000000    0.00000000
     atom    7 type  2   force =     0.00000000    0.00000000    0.00000000
     atom    8 type  2   force =     0.00000000    0.00000000    0.00000000

     Total force =     0.000000     Total SCF correction =     0.000000

     entering subroutine stress ...

          total   stress  (Ry/bohr**3)                   (kbar)     P= 5830.28
   0.03963344   0.00000000   0.00000000       5830.28      0.00      0.00
[...]

     number of scf cycles    =   6
     number of bfgs steps    =   2

     enthalpy old            =   -2853.4359445564 Ry
     enthalpy new            =   -2848.6343276665 Ry

     CASE: enthalpy_new > enthalpy_old

     new trust radius        =       0.1847742160 bohr

     trust_radius < trust_radius_min

     resetting bfgs history

     Message from routine bfgs:
     history already reset at previous step: stopping
     new conv_thr            =       0.0000010000 Ry

     new unit-cell volume =   1044.49419 a.u.^3 (   154.77807 Ang^3 )

[...]

ATOMIC_POSITIONS (crystal)
Cr       0.000000000   0.500000000   0.250000000
Cr       0.000000000   0.500000000   0.750000000
Cr       0.500000000   0.750000000   0.000000000
Cr       0.500000000   0.250000000   0.000000000
Cr       0.750000000   0.000000000   0.500000000
Cr       0.250000000   0.000000000   0.500000000
Si       0.500000000   0.500000000   0.500000000
Si       0.000000000   0.000000000   0.000000000

     Writing output data file Prototype-La-cP8-Cr3Si.save
     NEW-OLD atomic charge density approx. for the potential
     NEW k-points:
        k(    1) = (   0.0000000   0.0000000   0.0000000), wk =   0.0095238
        k(    2) = (   0.0000000   0.0000000   0.1201660), wk =   0.0190476
        k(    3) = (   0.0000000   0.0000000   0.2403321), wk =   0.0190476
        k(    4) = (   0.0000000   0.0000000   0.3604981), wk =   0.0190476
        k(    5) = (   0.0000000   0.1401937   0.0000000), wk =   0.0190476
        k(    6) = (   0.0000000   0.1401937   0.1201660), wk =   0.0380952
        k(    7) = (   0.0000000   0.1401937   0.2403321), wk =   0.0380952
        k(    8) = (   0.0000000   0.1401937   0.3604981), wk =   0.0380952
        k(    9) = (   0.0000000   0.2803874   0.0000000), wk =   0.0190476
        k(   10) = (   0.0000000   0.2803874   0.1201660), wk =   0.0380952
        k(   11) = (   0.0000000   0.2803874   0.2403321), wk =   0.0380952
        k(   12) = (   0.0000000   0.2803874   0.3604981), wk =   0.0380952
        k(   13) = (   0.0000000  -0.4205811   0.0000000), wk =   0.0095238
        k(   14) = (   0.0000000  -0.4205811   0.1201660), wk =   0.0190476
        k(   15) = (   0.0000000  -0.4205811   0.2403321), wk =   0.0190476
        k(   16) = (   0.0000000  -0.4205811   0.3604981), wk =   0.0190476
        k(   17) = (   0.1682325   0.0000000   0.0000000), wk =   0.0190476
        k(   18) = (   0.1682325   0.0000000   0.1201660), wk =   0.0380952
        k(   19) = (   0.1682325   0.0000000   0.2403321), wk =   0.0380952
        k(   20) = (   0.1682325   0.0000000   0.3604981), wk =   0.0380952
        k(   21) = (   0.1682325   0.1401937   0.0000000), wk =   0.0380952
        k(   22) = (   0.1682325   0.1401937   0.1201660), wk =   0.0761905
        k(   23) = (   0.1682325   0.1401937   0.2403321), wk =   0.0761905
        k(   24) = (   0.1682325   0.1401937   0.3604981), wk =   0.0761905
        k(   25) = (   0.1682325   0.2803874   0.0000000), wk =   0.0380952
        k(   26) = (   0.1682325   0.2803874   0.1201660), wk =   0.0761905
        k(   27) = (   0.1682325   0.2803874   0.2403321), wk =   0.0761905
        k(   28) = (   0.1682325   0.2803874   0.3604981), wk =   0.0761905
        k(   29) = (   0.1682325  -0.4205811   0.0000000), wk =   0.0190476
        k(   30) = (   0.1682325  -0.4205811   0.1201660), wk =   0.0380952
        k(   31) = (   0.1682325  -0.4205811   0.2403321), wk =   0.0380952
        k(   32) = (   0.1682325  -0.4205811   0.3604981), wk =   0.0380952
        k(   33) = (   0.3364649   0.0000000   0.0000000), wk =   0.0190476
        k(   34) = (   0.3364649   0.0000000   0.1201660), wk =   0.0380952
        k(   35) = (   0.3364649   0.0000000   0.2403321), wk =   0.0380952
        k(   36) = (   0.3364649   0.0000000   0.3604981), wk =   0.0380952
        k(   37) = (   0.3364649   0.1401937   0.0000000), wk =   0.0380952
        k(   38) = (   0.3364649   0.1401937   0.1201660), wk =   0.0761905
        k(   39) = (   0.3364649   0.1401937   0.2403321), wk =   0.0761905
        k(   40) = (   0.3364649   0.1401937   0.3604981), wk =   0.0761905
        k(   41) = (   0.3364649   0.2803874   0.0000000), wk =   0.0380952
        k(   42) = (   0.3364649   0.2803874   0.1201660), wk =   0.0761905
        k(   43) = (   0.3364649   0.2803874   0.2403321), wk =   0.0761905
        k(   44) = (   0.3364649   0.2803874   0.3604981), wk =   0.0761905
        k(   45) = (   0.3364649  -0.4205811   0.0000000), wk =   0.0190476
        k(   46) = (   0.3364649  -0.4205811   0.1201660), wk =   0.0380952
        k(   47) = (   0.3364649  -0.4205811   0.2403321), wk =   0.0380952
        k(   48) = (   0.3364649  -0.4205811   0.3604981), wk =   0.0380952

[...]

          total   stress  (Ry/bohr**3)                   (kbar)     P=-1457.34
  -0.00990680   0.00000000   0.00000000      -1457.34      0.00      0.00
   0.00000000  -0.00990680   0.00000000          0.00  -1457.34      0.00
   0.00000000   0.00000000  -0.00990680          0.00      0.00  -1457.34

     The maximum number of steps has been reached.

     End of BFGS Geometry Optimization
Begin final coordinates
     new unit-cell volume =   1044.49419 a.u.^3 (   154.77807 Ang^3 )

CELL_PARAMETERS (alat=  8.53457320)
   1.188831220   0.000000000   0.000000000
   0.000000000   1.188831220   0.000000000
   0.000000000   0.000000000   1.188831220

ATOMIC_POSITIONS (crystal)
Cr       0.000000000   0.500000000   0.250000000
Cr       0.000000000   0.500000000   0.750000000
Cr       0.500000000   0.750000000   0.000000000
Cr       0.500000000   0.250000000   0.000000000
Cr       0.750000000   0.000000000   0.500000000
Cr       0.250000000   0.000000000   0.500000000
Si       0.500000000   0.500000000   0.500000000
Si       0.000000000   0.000000000   0.000000000
End final coordinates

     A final scf calculation at the relaxed structure.
     The G-vectors are recalculated for the final unit cell
     Results may differ from those at the preceding step.

     bravais-lattice index     =            0
     lattice parameter (alat)  =       8.5346  a.u.
     unit-cell volume          =    1044.4942 (a.u.)^3
     number of atoms/cell      =            8
     number of atomic types    =            2
     number of electrons       =       180.00
     number of Kohn-Sham states=          108
     kinetic-energy cutoff     =      40.0000  Ry
     charge density cutoff     =     160.0000  Ry
     convergence threshold     =      1.0E-06
     mixing beta               =       0.7000
     number of iterations used =            8  plain     mixing
     Exchange-correlation      = SLA-PZ-NOGX-NOGC ( 1 1 0 0 0)
     EXX-fraction              =        0.00

     celldm(1)=   8.534573  celldm(2)=   0.000000  celldm(3)=   0.000000
     celldm(4)=   0.000000  celldm(5)=   0.000000  celldm(6)=   0.000000

     crystal axes: (cart. coord. in units of alat)
               a(1) = (   1.188831   0.000000   0.000000 )
               a(2) = (   0.000000   1.188831   0.000000 )
               a(3) = (   0.000000   0.000000   1.188831 )

     reciprocal axes: (cart. coord. in units 2 pi/alat)
               b(1) = (  0.841162  0.000000  0.000000 )
               b(2) = (  0.000000  0.841162  0.000000 )
               b(3) = (  0.000000  0.000000  0.841162 )

     PseudoPot. # 1 for Yb read from file:
     /home/jld5415/pp.La/Yb.UPF
     MD5 check sum: 3e859b81cc28c53ec6aa3a2e888efcdf
     Pseudo is Norm-conserving, Zval = 24.0
     Generated in analytical, separable form
     Using radial grid of 1269 points,  6 beta functions with:
                l(1) =   0
                l(2) =   0
                l(3) =   1
                l(4) =   1
                l(5) =   2
                l(6) =   3

     PseudoPot. # 2 for Gd read from file:
     /home/jld5415/pp.La/Gd.UPF
     MD5 check sum: 09a8be538722f05520810cb6aac0efd2
     Pseudo is Norm-conserving, Zval = 18.0
     Generated in analytical, separable form
     Using radial grid of 1263 points,  6 beta functions with:
                l(1) =   0
                l(2) =   0
                l(3) =   1
                l(4) =   1
                l(5) =   2
                l(6) =   3

     atomic species   valence    mass     pseudopotential
        Cr            24.00    51.99610     Yb( 1.00)
        Si            18.00    28.08550     Gd( 1.00)

     48 Sym. Ops., with inversion, found (24 have fractional translation)

   Cartesian axes

     site n.     atom                  positions (alat units)
         1           Cr  tau(   1) = (   0.0000000   0.5944156   0.2972078  )
         2           Cr  tau(   2) = (   0.0000000   0.5944156   0.8916234  )
         3           Cr  tau(   3) = (   0.5944156   0.8916234   0.0000000  )
         4           Cr  tau(   4) = (   0.5944156   0.2972078   0.0000000  )
         5           Cr  tau(   5) = (   0.8916234   0.0000000   0.5944156  )
         6           Cr  tau(   6) = (   0.2972078   0.0000000   0.5944156  )
         7           Si  tau(   7) = (   0.5944156   0.5944156   0.5944156  )
         8           Si  tau(   8) = (   0.0000000   0.0000000   0.0000000  )

     number of k points=    48  gaussian smearing, width (Ry)=  0.1000
                       cart. coord. in units 2pi/alat
        k(    1) = (   0.0000000   0.0000000   0.0000000), wk =   0.0095238
        k(    2) = (   0.0000000   0.0000000   0.1201660), wk =   0.0190476
        k(    3) = (   0.0000000   0.0000000   0.2403321), wk =   0.0190476
        k(    4) = (   0.0000000   0.0000000   0.3604981), wk =   0.0190476
        k(    5) = (   0.0000000   0.1401937   0.0000000), wk =   0.0190476
        k(    6) = (   0.0000000   0.1401937   0.1201660), wk =   0.0380952
        k(    7) = (   0.0000000   0.1401937   0.2403321), wk =   0.0380952
        k(    8) = (   0.0000000   0.1401937   0.3604981), wk =   0.0380952
        k(    9) = (   0.0000000   0.2803874   0.0000000), wk =   0.0190476
        k(   10) = (   0.0000000   0.2803874   0.1201660), wk =   0.0380952
        k(   11) = (   0.0000000   0.2803874   0.2403321), wk =   0.0380952
        k(   12) = (   0.0000000   0.2803874   0.3604981), wk =   0.0380952
        k(   13) = (   0.0000000  -0.4205811   0.0000000), wk =   0.0095238
        k(   14) = (   0.0000000  -0.4205811   0.1201660), wk =   0.0190476
        k(   15) = (   0.0000000  -0.4205811   0.2403321), wk =   0.0190476
        k(   16) = (   0.0000000  -0.4205811   0.3604981), wk =   0.0190476
        k(   17) = (   0.1682325   0.0000000   0.0000000), wk =   0.0190476
        k(   18) = (   0.1682325   0.0000000   0.1201660), wk =   0.0380952
        k(   19) = (   0.1682325   0.0000000   0.2403321), wk =   0.0380952
        k(   20) = (   0.1682325   0.0000000   0.3604981), wk =   0.0380952
        k(   21) = (   0.1682325   0.1401937   0.0000000), wk =   0.0380952
        k(   22) = (   0.1682325   0.1401937   0.1201660), wk =   0.0761905
        k(   23) = (   0.1682325   0.1401937   0.2403321), wk =   0.0761905
        k(   24) = (   0.1682325   0.1401937   0.3604981), wk =   0.0761905
        k(   25) = (   0.1682325   0.2803874   0.0000000), wk =   0.0380952
        k(   26) = (   0.1682325   0.2803874   0.1201660), wk =   0.0761905
        k(   27) = (   0.1682325   0.2803874   0.2403321), wk =   0.0761905
        k(   28) = (   0.1682325   0.2803874   0.3604981), wk =   0.0761905
        k(   29) = (   0.1682325  -0.4205811   0.0000000), wk =   0.0190476
        k(   30) = (   0.1682325  -0.4205811   0.1201660), wk =   0.0380952
        k(   31) = (   0.1682325  -0.4205811   0.2403321), wk =   0.0380952
        k(   32) = (   0.1682325  -0.4205811   0.3604981), wk =   0.0380952
        k(   33) = (   0.3364649   0.0000000   0.0000000), wk =   0.0190476
        k(   34) = (   0.3364649   0.0000000   0.1201660), wk =   0.0380952
        k(   35) = (   0.3364649   0.0000000   0.2403321), wk =   0.0380952
        k(   36) = (   0.3364649   0.0000000   0.3604981), wk =   0.0380952
        k(   37) = (   0.3364649   0.1401937   0.0000000), wk =   0.0380952
        k(   38) = (   0.3364649   0.1401937   0.1201660), wk =   0.0761905
        k(   39) = (   0.3364649   0.1401937   0.2403321), wk =   0.0761905
        k(   40) = (   0.3364649   0.1401937   0.3604981), wk =   0.0761905
        k(   41) = (   0.3364649   0.2803874   0.0000000), wk =   0.0380952
        k(   42) = (   0.3364649   0.2803874   0.1201660), wk =   0.0761905
        k(   43) = (   0.3364649   0.2803874   0.2403321), wk =   0.0761905
        k(   44) = (   0.3364649   0.2803874   0.3604981), wk =   0.0761905
        k(   45) = (   0.3364649  -0.4205811   0.0000000), wk =   0.0190476
        k(   46) = (   0.3364649  -0.4205811   0.1201660), wk =   0.0380952
        k(   47) = (   0.3364649  -0.4205811   0.2403321), wk =   0.0380952
        k(   48) = (   0.3364649  -0.4205811   0.3604981), wk =   0.0380952

     Largest allocated arrays     est. size (Mb)     dimensions
     Largest temporary arrays     est. size (Mb)     dimensions

     Initial potential from superposition of free atoms

     Starting from uniform charge
     Starting wfc are    0 randomized atomic wfcs

     Writing output data file Prototype-La-cP8-Cr3Si.save

     Self-consistent Calculation

[...]

     iteration #  4     ecut=    40.00 Ry     beta=0.70
     CG style diagonalization
     ethr =  1.00E-02,  avg # of iterations =  5.7

[...]

     total energy              =   -2859.12399704 Ry
     Harris-Foulkes estimate   =   -2859.12399837 Ry
     estimated scf accuracy    <       0.00000311 Ry

     iteration # 10     ecut=    40.00 Ry     beta=0.70
     CG style diagonalization
     c_bands:  1 eigenvalues not converged
     c_bands:  2 eigenvalues not converged
     ethr =  1.73E-09,  avg # of iterations =  3.9

     End of self-consistent calculation

[...]

          k = 0.3365-0.4206 0.3605 (  4478 PWs)   bands (ev):

   -93.9825 -93.9760 -93.9699 -93.9682 -93.9628 -93.9569 -52.8980 -52.8933
   -52.8744 -52.8743 -52.8518 -52.8429 -52.7190 -52.7186 -52.7179 -52.7177
   -52.7175 -52.7163 -52.7157 -52.7151 -52.7136 -52.7126 -52.7102 -52.7096
   -38.6611 -38.6611  -9.7885  -9.7884  -9.7863  -9.7862  -9.7848  -9.7846
     4.4248   4.5260   4.7814   4.7823   4.8654   4.8707   4.8928   4.9048
     4.9829   4.9846   5.0155   5.0416   5.0460   5.0681   5.1060   5.1138
     5.2404   5.2406   5.3152   5.3178   5.3291   5.3398   5.3515   5.3706
     5.4395   5.4439   5.4614   5.4615   5.4833   5.4957  15.9456  15.9522
    16.6152  16.6155  17.1857  17.1963  21.1857  21.1858  23.8262  23.8265
    23.8757  23.8775  24.8155  24.8281  24.9793  25.0432  25.1337  25.1388
    27.0859  27.1990  27.8507  27.9148  28.7668  29.1770  30.2594  30.2994
    30.8563  30.8691  31.4693  31.7319  32.3752  32.3876  32.4928  32.5036
    33.2883  33.3072  34.4330  34.4712  34.9793  35.1296  35.2812  35.2920
    38.0539  38.2100  38.4862  38.5751

     the Fermi energy is    30.8204 ev

!    total energy              =   -2859.12399787 Ry
     Harris-Foulkes estimate   =   -2859.12399819 Ry
     estimated scf accuracy    <       0.00000046 Ry

     The total energy is the sum of the following terms:

     one-electron contribution =    -804.20680873 Ry
     hartree contribution      =     494.38307672 Ry
     xc contribution           =    -232.73572806 Ry
     ewald contribution        =   -2316.21783993 Ry
     smearing contrib. (-TS)   =      -0.34669786 Ry

     convergence has been achieved in  10 iterations

     Forces acting on atoms (Ry/au):

     atom    1 type  1   force =     0.00000000    0.00000000    0.00000000
     atom    2 type  1   force =     0.00000000    0.00000000    0.00000000
     atom    3 type  1   force =     0.00000000    0.00000000    0.00000000
     atom    4 type  1   force =     0.00000000    0.00000000    0.00000000
     atom    5 type  1   force =     0.00000000    0.00000000    0.00000000
     atom    6 type  1   force =     0.00000000    0.00000000    0.00000000
     atom    7 type  2   force =     0.00000000    0.00000000    0.00000000
     atom    8 type  2   force =     0.00000000    0.00000000    0.00000000

     Total force =     0.000000     Total SCF correction =     0.000000

     entering subroutine stress ...

          total   stress  (Ry/bohr**3)                   (kbar)     P=  324.09
   0.00220309   0.00000000   0.00000000        324.09      0.00      0.00
   0.00000000   0.00220309   0.00000000          0.00    324.09      0.00
   0.00000000   0.00000000   0.00220309          0.00      0.00    324.09

     Writing output data file Prototype-La-cP8-Cr3Si.save

     General routines

     Parallel routines

   This run was terminated on:  13: 6:24  22Mar2018

   JOB DONE.