     Program PWSCF v.5.0.2 starts on 12Mar2018 at 20:33:29

     Current dimensions of program PWSCF are:
     Max number of different atomic species (ntypx) = 10
     Max number of k-points (npk) =  40000
     Max angular momentum in pseudopotentials (lmaxx) =  3
     Waiting for input...
     Reading input from standard input
               file Na.pbe-spn-kjpaw_psl.0.2.UPF: wavefunction(s)  2P 3P renormalized
               file Cl.pbe-n-kjpaw_psl.0.1.UPF: wavefunction(s)  3S 3P renormalized

     bravais-lattice index     =            0
     lattice parameter (alat)  =       9.7174  a.u.
     unit-cell volume          =     304.1680 (a.u.)^3
     number of atoms/cell      =            2
     number of atomic types    =            2
     number of electrons       =        16.00
     number of Kohn-Sham states=            8
     kinetic-energy cutoff     =      60.0000  Ry
     charge density cutoff     =     240.0000  Ry
     convergence threshold     =      1.0E-08
     mixing beta               =       0.7000
     number of iterations used =            8  plain     mixing
     Exchange-correlation      =  SLA  PW   PBX  PBC ( 1 4 3 4 0)
     EXX-fraction              =        0.00
     nstep                     =           50

     celldm(1)=   9.717443  celldm(2)=   0.000000  celldm(3)=   0.000000
     celldm(4)=   0.000000  celldm(5)=   0.000000  celldm(6)=   0.000000

     crystal axes: (cart. coord. in units of alat)
               a(1) = (   1.000000   0.000000   0.000000 )
               a(2) = (  -0.260805   0.706713   0.000000 )
               a(3) = (   0.446298   0.164709   0.469045 )

     reciprocal axes: (cart. coord. in units 2 pi/alat)
               b(1) = (  1.000000  0.369039 -1.081094 )
               b(2) = (  0.000000  1.415002 -0.496890 )
               b(3) = (  0.000000  0.000000  2.131992 )

     PseudoPot. # 1 for Na read from file:
     /projects/e20438/bin/espresso/pseudo/Na.pbe-spn-kjpaw_psl.0.2.UPF
     MD5 check sum: af6cebf537ceac8ff9d4cdfd6fc7ff14
     Pseudo is Projector augmented-wave, Zval =  9.0
     Generated using "atomic" code by A. Dal Corso  v.5.0.2 svn rev. 9415
     Shape of augmentation charge: PSQ
     Using radial grid of 1121 points,  4 beta functions with:
                l(1) =   0
                l(2) =   0
                l(3) =   1
                l(4) =   1
     Q(r) pseudized with 0 coefficients

     PseudoPot. # 2 for Cl read from file:
     /projects/e20438/bin/espresso/pseudo/Cl.pbe-n-kjpaw_psl.0.1.UPF
     MD5 check sum: 39501d8aaca1fada178cfed307344fc1
     Pseudo is Projector augmented-wave + core cor, Zval =  7.0
     Generated using "atomic" code by A. Dal Corso  v.5.0.2 svn rev. 9415
     Shape of augmentation charge: PSQ
     Using radial grid of 1157 points,  4 beta functions with:
                l(1) =   0
                l(2) =   0
                l(3) =   1
                l(4) =   1
     Q(r) pseudized with 0 coefficients

     atomic species   valence    mass     pseudopotential
        Na             9.00    22.98977     Na( 1.00)
        Cl             7.00    35.45270     Cl( 1.00)

     No symmetry found

   Cartesian axes

     site n.     atom                  positions (alat units)
         1           Na  tau(   1) = (   0.8670662   0.7173499   0.3640573  )
         2           Cl  tau(   2) = (   0.3670662   0.5003894   0.4402499  )

     number of k points=   162

     Number of k-points >= 100: set verbosity='high' to print them.

     Largest allocated arrays     est. size (Mb)     dimensions
     Largest temporary arrays     est. size (Mb)     dimensions

     Check: negative/imaginary core charge=   -0.000006    0.000000

     Initial potential from superposition of free atoms

     starting charge   15.49915, renormalised to   16.00000
     Starting wfc are   12 randomized atomic wfcs
     Checking if some PAW data can be deallocated...

     Self-consistent Calculation

     iteration #  1     ecut=    60.00 Ry     beta=0.70
     CG style diagonalization
     ethr =  1.00E-02,  avg # of iterations =  2.0

     total energy              =    -188.75538800 Ry
     Harris-Foulkes estimate   =    -188.91292229 Ry
     estimated scf accuracy    <       0.18943128 Ry

[...]

     iteration #  8     ecut=    60.00 Ry     beta=0.70
     CG style diagonalization
     c_bands:  1 eigenvalues not converged
     c_bands:  1 eigenvalues not converged
     c_bands:  1 eigenvalues not converged
     ethr =  1.59E-07,  avg # of iterations =  7.6

[...]

     End of self-consistent calculation

     Number of k-points >= 100: set verbosity='high' to print the bands.

!    total energy              =    -188.83902844 Ry
     Harris-Foulkes estimate   =    -188.83902845 Ry
     estimated scf accuracy    <          8.0E-09 Ry

     total all-electron energy =     -1248.126021 Ry

     The total energy is the sum of the following terms:

     one-electron contribution =     -82.09946342 Ry
     hartree contribution      =      42.80096934 Ry
     xc contribution           =     -24.68678641 Ry
     ewald contribution        =     -68.23213266 Ry
     one-center paw contrib.   =     -56.62161530 Ry

     convergence has been achieved in  29 iterations

     Forces acting on atoms (Ry/au):

     atom    1 type  1   force =     0.00032392   -0.00061213   -0.00010716
     atom    2 type  2   force =    -0.00032392    0.00061213    0.00010716

     Total force =     0.000991     Total SCF correction =     0.000016

     entering subroutine stress ...

          total   stress  (Ry/bohr**3)                   (kbar)     P=   14.33
   0.00013417   0.00001292   0.00008573         19.74      1.90     12.61
   0.00001292   0.00003088   0.00005728          1.90      4.54      8.43
   0.00008573   0.00005728   0.00012723         12.61      8.43     18.72

     BFGS Geometry Optimization

     number of scf cycles    =   1
     number of bfgs steps    =   0

     enthalpy new            =    -188.8390284441 Ry

     new trust radius        =       0.0142808017 bohr
     new conv_thr            =       0.0000000100 Ry

     new unit-cell volume =    306.39331 a.u.^3 (    45.40280 Ang^3 )

CELL_PARAMETERS (alat=  9.71744334)
   1.003354177   0.000322978   0.002143245
  -0.261451061   0.707174334   0.000453109
   0.448852959   0.165652267   0.471729267

ATOMIC_POSITIONS (crystal)
Na       0.738238090   0.834071199   0.776143671
Cl       0.075755785   0.489379588   0.938632821

     Writing output data file NaCl_pegs+pwscf.save
     NEW-OLD atomic charge density approx. for the potential
     NEW k-points: (use verbosity='high' to print them)

     Check: negative/imaginary core charge=   -0.000005    0.000000
     extrapolated charge   16.11257, renormalised to   16.00000

[...]

     enthalpy old            =    -188.8390284441 Ry
     enthalpy new            =    -188.8394257217 Ry

     CASE: enthalpy_new < enthalpy_old

     WARNING: bfgs curvature condition failed, Theta= 0.948
     new trust radius        =       0.0213802726 bohr
     new conv_thr            =            1.0E-10 Ry

[...]

     number of scf cycles    =  14
     number of bfgs steps    =  13

     enthalpy old            =    -188.8407734269 Ry
     enthalpy new            =    -188.8407780916 Ry

     CASE: enthalpy_new < enthalpy_old

     new trust radius        =       0.0051598490 bohr
     new conv_thr            =            1.0E-10 Ry

     new unit-cell volume =    318.28363 a.u.^3 (    47.16477 Ang^3 )

[...]

ATOMIC_POSITIONS (crystal)
Na       0.740024091   0.828728656   0.774315926
Cl       0.073969784   0.494722131   0.940460566

     Writing output data file NaCl_pegs+pwscf.save
     NEW-OLD atomic charge density approx. for the potential
     NEW k-points: (use verbosity='high' to print them)

     Check: negative/imaginary core charge=   -0.000004    0.000000
     extrapolated charge   16.04612, renormalised to   16.00000

[...]

     bfgs converged in  15 scf cycles and  14 bfgs steps
     (criteria: energy < 0.10E-03, force < 0.10E-02, cell < 0.50E+00)

     End of BFGS Geometry Optimization

     Final enthalpy =    -188.8407827644 Ry
Begin final coordinates
     new unit-cell volume =    318.28363 a.u.^3 (    47.16477 Ang^3 )

CELL_PARAMETERS (alat=  9.71744334)
   1.029495345  -0.007636750   0.015219541
  -0.273914134   0.706753975   0.012456497
   0.465342562   0.171736102   0.489079575

ATOMIC_POSITIONS (crystal)
Na       0.740024091   0.828728656   0.774315926
Cl       0.073969784   0.494722131   0.940460566
End final coordinates

     A final scf calculation at the relaxed structure.
     The G-vectors are recalculated for the final unit cell
     Results may differ from those at the preceding step.

     bravais-lattice index     =            0
     lattice parameter (alat)  =       9.7174  a.u.
     unit-cell volume          =     318.2836 (a.u.)^3
     number of atoms/cell      =            2
     number of atomic types    =            2
     number of electrons       =        16.00
     number of Kohn-Sham states=            8
     kinetic-energy cutoff     =      60.0000  Ry
     charge density cutoff     =     240.0000  Ry
     convergence threshold     =      1.0E-10
     mixing beta               =       0.7000
     number of iterations used =            8  plain     mixing
     Exchange-correlation      =  SLA  PW   PBX  PBC ( 1 4 3 4 0)
     EXX-fraction              =        0.00

     celldm(1)=   9.717443  celldm(2)=   0.000000  celldm(3)=   0.000000
     celldm(4)=   0.000000  celldm(5)=   0.000000  celldm(6)=   0.000000

     crystal axes: (cart. coord. in units of alat)
               a(1) = (   1.029495  -0.007637   0.015220 )
               a(2) = (  -0.273914   0.706754   0.012456 )
               a(3) = (   0.465343   0.171736   0.489080 )

     reciprocal axes: (cart. coord. in units 2 pi/alat)
               b(1) = (  0.990361  0.402932 -1.083781 )
               b(2) = (  0.018303  1.431178 -0.519961 )
               b(3) = ( -0.031285 -0.048990  2.091626 )

     PseudoPot. # 1 for Na read from file:
     /projects/e20438/bin/espresso/pseudo/Na.pbe-spn-kjpaw_psl.0.2.UPF
     MD5 check sum: af6cebf537ceac8ff9d4cdfd6fc7ff14
     Pseudo is Projector augmented-wave, Zval =  9.0
     Generated using "atomic" code by A. Dal Corso  v.5.0.2 svn rev. 9415
     Shape of augmentation charge: PSQ
     Using radial grid of 1121 points,  4 beta functions with:
                l(1) =   0
                l(2) =   0
                l(3) =   1
                l(4) =   1
     Q(r) pseudized with 0 coefficients

     PseudoPot. # 2 for Cl read from file:
     /projects/e20438/bin/espresso/pseudo/Cl.pbe-n-kjpaw_psl.0.1.UPF
     MD5 check sum: 39501d8aaca1fada178cfed307344fc1
     Pseudo is Projector augmented-wave + core cor, Zval =  7.0
     Generated using "atomic" code by A. Dal Corso  v.5.0.2 svn rev. 9415
     Shape of augmentation charge: PSQ
     Using radial grid of 1157 points,  4 beta functions with:
                l(1) =   0
                l(2) =   0
                l(3) =   1
                l(4) =   1
     Q(r) pseudized with 0 coefficients

     atomic species   valence    mass     pseudopotential
        Na             9.00    22.98977     Na( 1.00)
        Cl             7.00    35.45270     Cl( 1.00)

     No symmetry found

   Cartesian axes

     site n.     atom                  positions (alat units)
         1           Na  tau(   1) = (   0.8951730   0.7130339   0.4002880  )
         2           Cl  tau(   2) = (   0.3782765   0.5105930   0.4672483  )

     number of k points=   162

     Number of k-points >= 100: set verbosity='high' to print them.

     Largest allocated arrays     est. size (Mb)     dimensions
     Largest temporary arrays     est. size (Mb)     dimensions

     Check: negative/imaginary core charge=   -0.000005    0.000000

     Initial potential from superposition of free atoms

     starting charge   15.49915, renormalised to   16.00000
     Starting wfc are   12 randomized atomic wfcs
     Checking if some PAW data can be deallocated...

     Writing output data file NaCl_pegs+pwscf.save

     Self-consistent Calculation

[...]

     iteration # 27     ecut=    60.00 Ry     beta=0.70
     CG style diagonalization
     c_bands:  1 eigenvalues not converged
     c_bands:  1 eigenvalues not converged
     c_bands:  1 eigenvalues not converged
     ethr =  1.00E-12,  avg # of iterations =  6.7

[...]

     total energy              =    -188.84080495 Ry
     Harris-Foulkes estimate   =    -188.84080495 Ry
     estimated scf accuracy    <          7.2E-10 Ry

     iteration # 29     ecut=    60.00 Ry     beta=0.70
     CG style diagonalization
     ethr =  1.00E-12,  avg # of iterations =  4.5

     End of self-consistent calculation

     Number of k-points >= 100: set verbosity='high' to print the bands.

!    total energy              =    -188.84080495 Ry
     Harris-Foulkes estimate   =    -188.84080495 Ry
     estimated scf accuracy    <          5.4E-11 Ry

     total all-electron energy =     -1248.127797 Ry

     The total energy is the sum of the following terms:

     one-electron contribution =     -83.49934114 Ry
     hartree contribution      =      43.28119164 Ry
     xc contribution           =     -24.66691270 Ry
     ewald contribution        =     -67.33668552 Ry
     one-center paw contrib.   =     -56.61905722 Ry

     convergence has been achieved in  29 iterations

     Forces acting on atoms (Ry/au):

     atom    1 type  1   force =     0.00011001   -0.00011529   -0.00002667
     atom    2 type  2   force =    -0.00011001    0.00011529    0.00002667

     Total force =     0.000228     Total SCF correction =     0.000001

     entering subroutine stress ...

          total   stress  (Ry/bohr**3)                   (kbar)     P=    0.16
   0.00000154   0.00000100   0.00000276          0.23      0.15      0.41
   0.00000100  -0.00000015   0.00000079          0.15     -0.02      0.12
   0.00000276   0.00000079   0.00000183          0.41      0.12      0.27

     Writing output data file NaCl_pegs+pwscf.save

     General routines

     Parallel routines

     PAW routines

   This run was terminated on:  20:45:12  12Mar2018

   JOB DONE.