     Program PWSCF v.5.0.2 starts on 12Mar2018 at 20:26:23

     Current dimensions of program PWSCF are:
     Max number of different atomic species (ntypx) = 10
     Max number of k-points (npk) =  40000
     Max angular momentum in pseudopotentials (lmaxx) =  3
     Waiting for input...
     Reading input from standard input
               file Na.pbe-spn-kjpaw_psl.0.2.UPF: wavefunction(s)  2P 3P renormalized
               file Cl.pbe-n-kjpaw_psl.0.1.UPF: wavefunction(s)  3S 3P renormalized

     bravais-lattice index     =            0
     lattice parameter (alat)  =       7.2188  a.u.
     unit-cell volume          =     312.6565 (a.u.)^3
     number of atoms/cell      =            2
     number of atomic types    =            2
     number of electrons       =        16.00
     number of Kohn-Sham states=            8
     kinetic-energy cutoff     =      60.0000  Ry
     charge density cutoff     =     240.0000  Ry
     convergence threshold     =      1.0E-08
     mixing beta               =       0.7000
     number of iterations used =            8  plain     mixing
     Exchange-correlation      =  SLA  PW   PBX  PBC ( 1 4 3 4 0)
     EXX-fraction              =        0.00
     nstep                     =           50

     celldm(1)=   7.218790  celldm(2)=   0.000000  celldm(3)=   0.000000
     celldm(4)=   0.000000  celldm(5)=   0.000000  celldm(6)=   0.000000

     crystal axes: (cart. coord. in units of alat)
               a(1) = (   1.000000   0.000000   0.000000 )
               a(2) = (  -0.412600   0.943681   0.000000 )
               a(3) = (   1.412588  -0.297822   0.880743 )

     reciprocal axes: (cart. coord. in units 2 pi/alat)
               b(1) = (  1.000000  0.437224 -1.456013 )
               b(2) = (  0.000000  1.059681  0.358330 )
               b(3) = (  0.000000  0.000000  1.135405 )

     PseudoPot. # 1 for Na read from file:
     /projects/e20438/bin/espresso/pseudo/Na.pbe-spn-kjpaw_psl.0.2.UPF
     MD5 check sum: af6cebf537ceac8ff9d4cdfd6fc7ff14
     Pseudo is Projector augmented-wave, Zval =  9.0
     Generated using "atomic" code by A. Dal Corso  v.5.0.2 svn rev. 9415
     Shape of augmentation charge: PSQ
     Using radial grid of 1121 points,  4 beta functions with:
                l(1) =   0
                l(2) =   0
                l(3) =   1
                l(4) =   1
     Q(r) pseudized with 0 coefficients

     PseudoPot. # 2 for Cl read from file:
     /projects/e20438/bin/espresso/pseudo/Cl.pbe-n-kjpaw_psl.0.1.UPF
     MD5 check sum: 39501d8aaca1fada178cfed307344fc1
     Pseudo is Projector augmented-wave + core cor, Zval =  7.0
     Generated using "atomic" code by A. Dal Corso  v.5.0.2 svn rev. 9415
     Shape of augmentation charge: PSQ
     Using radial grid of 1157 points,  4 beta functions with:
                l(1) =   0
                l(2) =   0
                l(3) =   1
                l(4) =   1
     Q(r) pseudized with 0 coefficients

     atomic species   valence    mass     pseudopotential
        Na             9.00    22.98977     Na( 1.00)
        Cl             7.00    35.45270     Cl( 1.00)

     No symmetry found

   Cartesian axes

     site n.     atom                  positions (alat units)
         1           Na  tau(   1) = (   0.9168526   0.4251785   0.4641768  )
         2           Cl  tau(   2) = (   0.4168640   0.1227475   0.0087484  )

     number of k points=   101

     Number of k-points >= 100: set verbosity='high' to print them.

     Largest allocated arrays     est. size (Mb)     dimensions
     Largest temporary arrays     est. size (Mb)     dimensions

     Check: negative/imaginary core charge=   -0.000006    0.000000

     Initial potential from superposition of free atoms

     starting charge   15.49915, renormalised to   16.00000
     Starting wfc are   12 randomized atomic wfcs
     Checking if some PAW data can be deallocated...

     Self-consistent Calculation

     iteration #  1     ecut=    60.00 Ry     beta=0.70
     CG style diagonalization
     ethr =  1.00E-02,  avg # of iterations =  2.0

     total energy              =    -188.77054265 Ry
     Harris-Foulkes estimate   =    -188.92266515 Ry
     estimated scf accuracy    <       0.18272172 Ry

[...]

     iteration #  5     ecut=    60.00 Ry     beta=0.70
     CG style diagonalization
     c_bands:  1 eigenvalues not converged
     c_bands:  1 eigenvalues not converged
     ethr =  9.77E-07,  avg # of iterations =  7.3

[...]

     End of self-consistent calculation

     Number of k-points >= 100: set verbosity='high' to print the bands.

!    total energy              =    -188.84841203 Ry
     Harris-Foulkes estimate   =    -188.84841203 Ry
     estimated scf accuracy    <          5.7E-09 Ry

     total all-electron energy =     -1248.135404 Ry

     The total energy is the sum of the following terms:

     one-electron contribution =     -82.13450845 Ry
     hartree contribution      =      42.66935536 Ry
     xc contribution           =     -24.66825030 Ry
     ewald contribution        =     -68.09589948 Ry
     one-center paw contrib.   =     -56.61910916 Ry

     convergence has been achieved in  12 iterations

     Forces acting on atoms (Ry/au):

     atom    1 type  1   force =     0.00020019    0.00209826   -0.00149742
     atom    2 type  2   force =    -0.00020019   -0.00209826    0.00149742

     Total force =     0.003657     Total SCF correction =     0.000031

     entering subroutine stress ...

          total   stress  (Ry/bohr**3)                   (kbar)     P=   -0.14
   0.00007797  -0.00006147   0.00004652         11.47     -9.04      6.84
  -0.00006147  -0.00005243  -0.00001503         -9.04     -7.71     -2.21
   0.00004652  -0.00001503  -0.00002843          6.84     -2.21     -4.18

     BFGS Geometry Optimization

     number of scf cycles    =   1
     number of bfgs steps    =   0

     enthalpy new            =    -188.8484120298 Ry

     new trust radius        =       0.0096934303 bohr
     new conv_thr            =       0.0000000100 Ry

     new unit-cell volume =    312.63178 a.u.^3 (    46.32725 Ang^3 )

CELL_PARAMETERS (alat=  7.21879047)
   1.001949173  -0.001536728   0.001162944
  -0.414854068   0.943077830  -0.000834308
   1.416823495  -0.299933303   0.881871511

ATOMIC_POSITIONS (crystal)
Na       0.427360004   0.617115305   0.526793194
Cl       0.457337520   0.132974235   0.010168487

     Writing output data file NaCl_pegs+pwscf.save
     NEW-OLD atomic charge density approx. for the potential
     NEW k-points: (use verbosity='high' to print them)

     Check: negative/imaginary core charge=   -0.000006    0.000000
     extrapolated charge   15.99877, renormalised to   16.00000

[...]

     enthalpy old            =    -188.8484120298 Ry
     enthalpy new            =    -188.8485945660 Ry

     CASE: enthalpy_new < enthalpy_old

     WARNING: bfgs curvature condition failed, Theta= 0.823
     new trust radius        =       0.0145026065 bohr
     new conv_thr            =       0.0000000002 Ry

[...]

     Threshold (ethr) on eigenvalues was too large:
     Diagonalizing with lowered threshold

     CG style diagonalization
     ethr =  7.52E-08,  avg # of iterations =  4.9

[...]

     Total force =     0.000020     Total SCF correction =     0.000012
     SCF correction compared to forces is large: reduce conv_thr to get better values

[...]

     number of scf cycles    =  15
     number of bfgs steps    =  14

     enthalpy old            =    -188.8513898417 Ry
     enthalpy new            =    -188.8513912671 Ry

     CASE: enthalpy_new < enthalpy_old

     new trust radius        =       0.0024162727 bohr
     new conv_thr            =            1.0E-10 Ry

     new unit-cell volume =    311.76026 a.u.^3 (    46.19810 Ang^3 )

[...]

ATOMIC_POSITIONS (crystal)
Na       0.442475083   0.625165563   0.518376696
Cl       0.442222442   0.124923977   0.018584986

     Writing output data file NaCl_pegs+pwscf.save
     NEW-OLD atomic charge density approx. for the potential
     NEW k-points: (use verbosity='high' to print them)

     Check: negative/imaginary core charge=   -0.000006    0.000000
     extrapolated charge   15.99164, renormalised to   16.00000

[...]

     Threshold (ethr) on eigenvalues was too large:
     Diagonalizing with lowered threshold

     CG style diagonalization
     ethr =  5.67E-08,  avg # of iterations =  4.3

[...]

     bfgs converged in  16 scf cycles and  15 bfgs steps
     (criteria: energy < 0.10E-03, force < 0.10E-02, cell < 0.50E+00)

     End of BFGS Geometry Optimization

     Final enthalpy =    -188.8513922586 Ry
Begin final coordinates
     new unit-cell volume =    311.76026 a.u.^3 (    46.19810 Ang^3 )

CELL_PARAMETERS (alat=  7.21879047)
   1.053726695  -0.050437268   0.036897396
  -0.483187968   0.936378812  -0.026873815
   1.536512041  -0.370945100   0.918255038

ATOMIC_POSITIONS (crystal)
Na       0.442475083   0.625165563   0.518376696
Cl       0.442222442   0.124923977   0.018584986
End final coordinates

     A final scf calculation at the relaxed structure.
     The G-vectors are recalculated for the final unit cell
     Results may differ from those at the preceding step.

     bravais-lattice index     =            0
     lattice parameter (alat)  =       7.2188  a.u.
     unit-cell volume          =     311.7603 (a.u.)^3
     number of atoms/cell      =            2
     number of atomic types    =            2
     number of electrons       =        16.00
     number of Kohn-Sham states=            8
     kinetic-energy cutoff     =      60.0000  Ry
     charge density cutoff     =     240.0000  Ry
     convergence threshold     =      1.0E-10
     mixing beta               =       0.7000
     number of iterations used =            8  plain     mixing
     Exchange-correlation      =  SLA  PW   PBX  PBC ( 1 4 3 4 0)
     EXX-fraction              =        0.00

     celldm(1)=   7.218790  celldm(2)=   0.000000  celldm(3)=   0.000000
     celldm(4)=   0.000000  celldm(5)=   0.000000  celldm(6)=   0.000000

     crystal axes: (cart. coord. in units of alat)
               a(1) = (   1.053727  -0.050437   0.036897 )
               a(2) = (  -0.483188   0.936379  -0.026874 )
               a(3) = (   1.536512  -0.370945   0.918255 )

     reciprocal axes: (cart. coord. in units 2 pi/alat)
               b(1) = (  1.025470  0.485544 -1.519771 )
               b(2) = (  0.039369  1.099111  0.378129 )
               b(3) = ( -0.040053  0.012657  1.161156 )

     PseudoPot. # 1 for Na read from file:
     /projects/e20438/bin/espresso/pseudo/Na.pbe-spn-kjpaw_psl.0.2.UPF
     MD5 check sum: af6cebf537ceac8ff9d4cdfd6fc7ff14
     Pseudo is Projector augmented-wave, Zval =  9.0
     Generated using "atomic" code by A. Dal Corso  v.5.0.2 svn rev. 9415
     Shape of augmentation charge: PSQ
     Using radial grid of 1121 points,  4 beta functions with:
                l(1) =   0
                l(2) =   0
                l(3) =   1
                l(4) =   1
     Q(r) pseudized with 0 coefficients

     PseudoPot. # 2 for Cl read from file:
     /projects/e20438/bin/espresso/pseudo/Cl.pbe-n-kjpaw_psl.0.1.UPF
     MD5 check sum: 39501d8aaca1fada178cfed307344fc1
     Pseudo is Projector augmented-wave + core cor, Zval =  7.0
     Generated using "atomic" code by A. Dal Corso  v.5.0.2 svn rev. 9415
     Shape of augmentation charge: PSQ
     Using radial grid of 1157 points,  4 beta functions with:
                l(1) =   0
                l(2) =   0
                l(3) =   1
                l(4) =   1
     Q(r) pseudized with 0 coefficients

     atomic species   valence    mass     pseudopotential
        Na             9.00    22.98977     Na( 1.00)
        Cl             7.00    35.45270     Cl( 1.00)

     No symmetry found

   Cartesian axes

     site n.     atom                  positions (alat units)
         1           Na  tau(   1) = (   0.9606674   0.3707853   0.4755276  )
         2           Cl  tau(   2) = (   0.4341759   0.0877777   0.0300254  )

     number of k points=   101

     Number of k-points >= 100: set verbosity='high' to print them.

     Largest allocated arrays     est. size (Mb)     dimensions
     Largest temporary arrays     est. size (Mb)     dimensions

     Check: negative/imaginary core charge=   -0.000006    0.000000

     Initial potential from superposition of free atoms

     starting charge   15.49915, renormalised to   16.00000
     Starting wfc are   12 randomized atomic wfcs
     Checking if some PAW data can be deallocated...

     Writing output data file NaCl_pegs+pwscf.save

     Self-consistent Calculation

[...]

     iteration # 19     ecut=    60.00 Ry     beta=0.70
     CG style diagonalization
     c_bands:  1 eigenvalues not converged
     c_bands:  1 eigenvalues not converged
     c_bands:  1 eigenvalues not converged
     c_bands:  1 eigenvalues not converged
     c_bands:  1 eigenvalues not converged
     c_bands:  1 eigenvalues not converged
     ethr =  5.26E-10,  avg # of iterations =  8.0

[...]

     total energy              =    -188.85140011 Ry
     Harris-Foulkes estimate   =    -188.85140011 Ry
     estimated scf accuracy    <          2.1E-10 Ry

     iteration # 32     ecut=    60.00 Ry     beta=0.70
     CG style diagonalization
     ethr =  1.31E-12,  avg # of iterations =  4.4

     End of self-consistent calculation

     Number of k-points >= 100: set verbosity='high' to print the bands.

!    total energy              =    -188.85140011 Ry
     Harris-Foulkes estimate   =    -188.85140011 Ry
     estimated scf accuracy    <          9.7E-11 Ry

     total all-electron energy =     -1248.138393 Ry

     The total energy is the sum of the following terms:

     one-electron contribution =     -82.09309705 Ry
     hartree contribution      =      42.66142775 Ry
     xc contribution           =     -24.66963321 Ry
     ewald contribution        =     -68.13092264 Ry
     one-center paw contrib.   =     -56.61917497 Ry

     convergence has been achieved in  32 iterations

     Forces acting on atoms (Ry/au):

     atom    1 type  1   force =     0.00003087   -0.00005335    0.00003319
     atom    2 type  2   force =    -0.00003087    0.00005335   -0.00003319

     Total force =     0.000099     Total SCF correction =     0.000008

     entering subroutine stress ...

          total   stress  (Ry/bohr**3)                   (kbar)     P=   -0.26
  -0.00000380   0.00000034  -0.00000027         -0.56      0.05     -0.04
   0.00000034  -0.00000007   0.00000083          0.05     -0.01      0.12
  -0.00000027   0.00000083  -0.00000134         -0.04      0.12     -0.20

     Writing output data file NaCl_pegs+pwscf.save

     General routines

     Parallel routines

     PAW routines

   This run was terminated on:  20:33:27  12Mar2018

   JOB DONE.