     Program PWSCF v.5.0.2 starts on 12Mar2018 at 20: 2:15

     Current dimensions of program PWSCF are:
     Max number of different atomic species (ntypx) = 10
     Max number of k-points (npk) =  40000
     Max angular momentum in pseudopotentials (lmaxx) =  3
     Waiting for input...
     Reading input from standard input
               file Na.pbe-spn-kjpaw_psl.0.2.UPF: wavefunction(s)  2P 3P renormalized
               file Cl.pbe-n-kjpaw_psl.0.1.UPF: wavefunction(s)  3S 3P renormalized

     bravais-lattice index     =            0
     lattice parameter (alat)  =       7.6357  a.u.
     unit-cell volume          =     305.8885 (a.u.)^3
     number of atoms/cell      =            2
     number of atomic types    =            2
     number of electrons       =        16.00
     number of Kohn-Sham states=            8
     kinetic-energy cutoff     =      60.0000  Ry
     charge density cutoff     =     240.0000  Ry
     convergence threshold     =      1.0E-08
     mixing beta               =       0.7000
     number of iterations used =            8  plain     mixing
     Exchange-correlation      =  SLA  PW   PBX  PBC ( 1 4 3 4 0)
     EXX-fraction              =        0.00
     nstep                     =           50

     celldm(1)=   7.635728  celldm(2)=   0.000000  celldm(3)=   0.000000
     celldm(4)=   0.000000  celldm(5)=   0.000000  celldm(6)=   0.000000

     crystal axes: (cart. coord. in units of alat)
               a(1) = (   1.000000   0.000000   0.000000 )
               a(2) = (   0.507768   0.855937   0.000000 )
               a(3) = (   0.492224  -0.292208   0.802731 )

     reciprocal axes: (cart. coord. in units 2 pi/alat)
               b(1) = (  1.000000 -0.593230 -0.829133 )
               b(2) = (  0.000000  1.168310  0.425286 )
               b(3) = (  0.000000  0.000000  1.245748 )

     PseudoPot. # 1 for Na read from file:
     /projects/e20438/bin/espresso/pseudo/Na.pbe-spn-kjpaw_psl.0.2.UPF
     MD5 check sum: af6cebf537ceac8ff9d4cdfd6fc7ff14
     Pseudo is Projector augmented-wave, Zval =  9.0
     Generated using "atomic" code by A. Dal Corso  v.5.0.2 svn rev. 9415
     Shape of augmentation charge: PSQ
     Using radial grid of 1121 points,  4 beta functions with:
                l(1) =   0
                l(2) =   0
                l(3) =   1
                l(4) =   1
     Q(r) pseudized with 0 coefficients

     PseudoPot. # 2 for Cl read from file:
     /projects/e20438/bin/espresso/pseudo/Cl.pbe-n-kjpaw_psl.0.1.UPF
     MD5 check sum: 39501d8aaca1fada178cfed307344fc1
     Pseudo is Projector augmented-wave + core cor, Zval =  7.0
     Generated using "atomic" code by A. Dal Corso  v.5.0.2 svn rev. 9415
     Shape of augmentation charge: PSQ
     Using radial grid of 1157 points,  4 beta functions with:
                l(1) =   0
                l(2) =   0
                l(3) =   1
                l(4) =   1
     Q(r) pseudized with 0 coefficients

     atomic species   valence    mass     pseudopotential
        Na             9.00    22.98977     Na( 1.00)
        Cl             7.00    35.45270     Cl( 1.00)

     No symmetry found

   Cartesian axes

     site n.     atom                  positions (alat units)
         1           Na  tau(   1) = (   1.2680793  -0.1361677   0.7204884  )
         2           Cl  tau(   2) = (   1.2758583   0.4377976   0.3191930  )

     number of k points=   112

     Number of k-points >= 100: set verbosity='high' to print them.

     Largest allocated arrays     est. size (Mb)     dimensions
     Largest temporary arrays     est. size (Mb)     dimensions

     Check: negative/imaginary core charge=   -0.000006    0.000000

     Initial potential from superposition of free atoms

     starting charge   15.49915, renormalised to   16.00000
     Starting wfc are   12 randomized atomic wfcs
     Checking if some PAW data can be deallocated...

     Self-consistent Calculation

     iteration #  1     ecut=    60.00 Ry     beta=0.70
     CG style diagonalization
     ethr =  1.00E-02,  avg # of iterations =  2.0

     total energy              =    -188.77426570 Ry
     Harris-Foulkes estimate   =    -188.92459015 Ry
     estimated scf accuracy    <       0.18056040 Ry

[...]

     iteration #  5     ecut=    60.00 Ry     beta=0.70
     CG style diagonalization
     c_bands:  1 eigenvalues not converged
     c_bands:  1 eigenvalues not converged
     c_bands:  1 eigenvalues not converged
     ethr =  8.49E-07,  avg # of iterations =  7.6

[...]

     End of self-consistent calculation

     Number of k-points >= 100: set verbosity='high' to print the bands.

!    total energy              =    -188.85124901 Ry
     Harris-Foulkes estimate   =    -188.85124901 Ry
     estimated scf accuracy    <          1.3E-09 Ry

     total all-electron energy =     -1248.138241 Ry

     The total energy is the sum of the following terms:

     one-electron contribution =     -81.38938522 Ry
     hartree contribution      =      42.40065392 Ry
     xc contribution           =     -24.67654140 Ry
     ewald contribution        =     -68.56593561 Ry
     one-center paw contrib.   =     -56.62004070 Ry

     convergence has been achieved in  22 iterations

     Forces acting on atoms (Ry/au):

     atom    1 type  1   force =    -0.00000452   -0.00002504    0.00001070
     atom    2 type  2   force =     0.00000452    0.00002504   -0.00001070

     Total force =     0.000039     Total SCF correction =     0.000005
     SCF correction compared to forces is large: reduce conv_thr to get better values

     entering subroutine stress ...

          total   stress  (Ry/bohr**3)                   (kbar)     P=    4.74
   0.00001603  -0.00000797   0.00000564          2.36     -1.17      0.83
  -0.00000797   0.00003578   0.00000757         -1.17      5.26      1.11
   0.00000564   0.00000757   0.00004484          0.83      1.11      6.60

     BFGS Geometry Optimization

     number of scf cycles    =   1
     number of bfgs steps    =   0

     enthalpy new            =    -188.8512490121 Ry

     new trust radius        =       0.0040075453 bohr
     new conv_thr            =       0.0000000100 Ry

     new unit-cell volume =    306.62812 a.u.^3 (    45.43760 Ang^3 )

CELL_PARAMETERS (alat=  7.63572815)
   1.000400733  -0.000199270   0.000141051
   0.507800635   0.856601441   0.000233570
   0.492592513  -0.292415845   0.803644885

ATOMIC_POSITIONS (crystal)
Na       0.751477585   0.147323977   0.897548448
Cl       0.751489813   0.647234903   0.397632241

     Writing output data file NaCl_pegs+pwscf.save
     NEW-OLD atomic charge density approx. for the potential
     NEW k-points: (use verbosity='high' to print them)

     Check: negative/imaginary core charge=   -0.000006    0.000000
     extrapolated charge   16.03739, renormalised to   16.00000

[...]

     enthalpy old            =    -188.8512490121 Ry
     enthalpy new            =    -188.8512754565 Ry

     CASE: enthalpy_new < enthalpy_old

     WARNING: bfgs curvature condition failed, Theta= 0.867
     new trust radius        =       0.0044083759 bohr
     new conv_thr            =            1.0E-10 Ry

[...]

     Total force =     0.000035     Total SCF correction =     0.000000

[...]

     Threshold (ethr) on eigenvalues was too large:
     Diagonalizing with lowered threshold

     CG style diagonalization
     ethr =  3.96E-08,  avg # of iterations =  4.4

[...]

     WARNING: bfgs curvature condition failed, Theta= 0.938
     new trust radius        =       0.0028075279 bohr
     new conv_thr            =            1.0E-10 Ry

[...]

     Threshold (ethr) on eigenvalues was too large:
     Diagonalizing with lowered threshold

     CG style diagonalization
     ethr =  8.91E-08,  avg # of iterations =  4.6

[...]

     Total force =     0.000009     Total SCF correction =     0.000001

[...]

     number of scf cycles    =  10
     number of bfgs steps    =   9

     enthalpy old            =    -188.8513906797 Ry
     enthalpy new            =    -188.8513954344 Ry

     CASE: enthalpy_new < enthalpy_old

     new trust radius        =       0.0077783630 bohr
     new conv_thr            =            1.0E-10 Ry

     new unit-cell volume =    311.53606 a.u.^3 (    46.16488 Ang^3 )

[...]

ATOMIC_POSITIONS (crystal)
Na       0.751496253   0.147244799   0.897570047
Cl       0.751471145   0.647314082   0.397610641

     Writing output data file NaCl_pegs+pwscf.save
     NEW-OLD atomic charge density approx. for the potential
     NEW k-points: (use verbosity='high' to print them)

     Check: negative/imaginary core charge=   -0.000005    0.000000
     extrapolated charge   15.97141, renormalised to   16.00000

[...]

     bfgs converged in  11 scf cycles and  10 bfgs steps
     (criteria: energy < 0.10E-03, force < 0.10E-02, cell < 0.50E+00)

     End of BFGS Geometry Optimization

     Final enthalpy =    -188.8513975846 Ry
Begin final coordinates
     new unit-cell volume =    311.53606 a.u.^3 (    46.16488 Ang^3 )

CELL_PARAMETERS (alat=  7.63572815)
   0.996438713  -0.004618487   0.003245845
   0.502005581   0.860720219   0.005379175
   0.494426951  -0.293415763   0.814061877

ATOMIC_POSITIONS (crystal)
Na       0.751496253   0.147244799   0.897570047
Cl       0.751471145   0.647314082   0.397610641
End final coordinates

     A final scf calculation at the relaxed structure.
     The G-vectors are recalculated for the final unit cell
     Results may differ from those at the preceding step.

     bravais-lattice index     =            0
     lattice parameter (alat)  =       7.6357  a.u.
     unit-cell volume          =     311.5361 (a.u.)^3
     number of atoms/cell      =            2
     number of atomic types    =            2
     number of electrons       =        16.00
     number of Kohn-Sham states=            8
     kinetic-energy cutoff     =      60.0000  Ry
     charge density cutoff     =     240.0000  Ry
     convergence threshold     =      1.0E-10
     mixing beta               =       0.7000
     number of iterations used =            8  plain     mixing
     Exchange-correlation      =  SLA  PW   PBX  PBC ( 1 4 3 4 0)
     EXX-fraction              =        0.00

     celldm(1)=   7.635728  celldm(2)=   0.000000  celldm(3)=   0.000000
     celldm(4)=   0.000000  celldm(5)=   0.000000  celldm(6)=   0.000000

     crystal axes: (cart. coord. in units of alat)
               a(1) = (   0.996439  -0.004618   0.003246 )
               a(2) = (   0.502006   0.860720   0.005379 )
               a(3) = (   0.494427  -0.293416   0.814062 )

     reciprocal axes: (cart. coord. in units 2 pi/alat)
               b(1) = (  1.003551 -0.580194 -0.818637 )
               b(2) = (  0.004012  1.156887  0.414545 )
               b(3) = ( -0.004028 -0.005331  1.228933 )

     PseudoPot. # 1 for Na read from file:
     /projects/e20438/bin/espresso/pseudo/Na.pbe-spn-kjpaw_psl.0.2.UPF
     MD5 check sum: af6cebf537ceac8ff9d4cdfd6fc7ff14
     Pseudo is Projector augmented-wave, Zval =  9.0
     Generated using "atomic" code by A. Dal Corso  v.5.0.2 svn rev. 9415
     Shape of augmentation charge: PSQ
     Using radial grid of 1121 points,  4 beta functions with:
                l(1) =   0
                l(2) =   0
                l(3) =   1
                l(4) =   1
     Q(r) pseudized with 0 coefficients

     PseudoPot. # 2 for Cl read from file:
     /projects/e20438/bin/espresso/pseudo/Cl.pbe-n-kjpaw_psl.0.1.UPF
     MD5 check sum: 39501d8aaca1fada178cfed307344fc1
     Pseudo is Projector augmented-wave + core cor, Zval =  7.0
     Generated using "atomic" code by A. Dal Corso  v.5.0.2 svn rev. 9415
     Shape of augmentation charge: PSQ
     Using radial grid of 1157 points,  4 beta functions with:
                l(1) =   0
                l(2) =   0
                l(3) =   1
                l(4) =   1
     Q(r) pseudized with 0 coefficients

     atomic species   valence    mass     pseudopotential
        Na             9.00    22.98977     Na( 1.00)
        Cl             7.00    35.45270     Cl( 1.00)

     No symmetry found

   Cartesian axes

     site n.     atom                  positions (alat units)
         1           Na  tau(   1) = (   1.2665205  -0.1400954   0.7339089  )
         2           Cl  tau(   2) = (   1.2703396   0.4370204   0.3296008  )

     number of k points=   112

     Number of k-points >= 100: set verbosity='high' to print them.

     Largest allocated arrays     est. size (Mb)     dimensions
     Largest temporary arrays     est. size (Mb)     dimensions

     Check: negative/imaginary core charge=   -0.000006    0.000000

     Initial potential from superposition of free atoms

     starting charge   15.49915, renormalised to   16.00000
     Starting wfc are   12 randomized atomic wfcs
     Checking if some PAW data can be deallocated...

     Writing output data file NaCl_pegs+pwscf.save

     Self-consistent Calculation

[...]

     iteration # 27     ecut=    60.00 Ry     beta=0.70
     CG style diagonalization
     c_bands:  1 eigenvalues not converged
     ethr =  3.39E-11,  avg # of iterations =  5.5

[...]

     total energy              =    -188.85140483 Ry
     Harris-Foulkes estimate   =    -188.85140483 Ry
     estimated scf accuracy    <          1.5E-10 Ry

     iteration # 37     ecut=    60.00 Ry     beta=0.70
     CG style diagonalization
     ethr =  9.37E-13,  avg # of iterations =  4.4

     End of self-consistent calculation

     Number of k-points >= 100: set verbosity='high' to print the bands.

!    total energy              =    -188.85140483 Ry
     Harris-Foulkes estimate   =    -188.85140483 Ry
     estimated scf accuracy    <          9.1E-11 Ry

     total all-electron energy =     -1248.138397 Ry

     The total energy is the sum of the following terms:

     one-electron contribution =     -82.06669039 Ry
     hartree contribution      =      42.65162372 Ry
     xc contribution           =     -24.66988350 Ry
     ewald contribution        =     -68.14724944 Ry
     one-center paw contrib.   =     -56.61920522 Ry

     convergence has been achieved in  37 iterations

     Forces acting on atoms (Ry/au):

     atom    1 type  1   force =     0.00000140    0.00000207   -0.00000155
     atom    2 type  2   force =    -0.00000140   -0.00000207    0.00000155

     Total force =     0.000004     Total SCF correction =     0.000001
     SCF correction compared to forces is large: reduce conv_thr to get better values

     entering subroutine stress ...

          total   stress  (Ry/bohr**3)                   (kbar)     P=   -0.03
  -0.00000005   0.00000019  -0.00000014         -0.01      0.03     -0.02
   0.00000019  -0.00000023  -0.00000012          0.03     -0.03     -0.02
  -0.00000014  -0.00000012  -0.00000027         -0.02     -0.02     -0.04

     Writing output data file NaCl_pegs+pwscf.save

     General routines

     Parallel routines

     PAW routines

   This run was terminated on:  20: 8: 8  12Mar2018

   JOB DONE.