     Program PWSCF v.5.0.2 starts on 21Mar2018 at 22:59:12

     Current dimensions of program PWSCF are:
     Max number of different atomic species (ntypx) = 10
     Max number of k-points (npk) =  40000
     Max angular momentum in pseudopotentials (lmaxx) =  3
     Waiting for input...
     Reading input from standard input

     bravais-lattice index     =            0
     lattice parameter (alat)  =       6.7324  a.u.
     unit-cell volume          =     408.9522 (a.u.)^3
     number of atoms/cell      =            2
     number of atomic types    =            1
     number of electrons       =        46.00
     number of Kohn-Sham states=           28
     kinetic-energy cutoff     =      40.0000  Ry
     charge density cutoff     =     160.0000  Ry
     convergence threshold     =      1.0E-04
     mixing beta               =       0.7000
     number of iterations used =            8  plain     mixing
     Exchange-correlation      = SLA-PZ-NOGX-NOGC ( 1 1 0 0 0)
     EXX-fraction              =        0.00
     nstep                     =           50

     celldm(1)=   6.732424  celldm(2)=   0.000000  celldm(3)=   0.000000
     celldm(4)=   0.000000  celldm(5)=   0.000000  celldm(6)=   0.000000

     crystal axes: (cart. coord. in units of alat)
               a(1) = (   1.000000   0.000000   0.000000 )
               a(2) = (  -0.500000   0.866025   0.000000 )
               a(3) = (   0.000000   0.000000   1.547489 )

     reciprocal axes: (cart. coord. in units 2 pi/alat)
               b(1) = (  1.000000  0.577350  0.000000 )
               b(2) = (  0.000000  1.154701  0.000000 )
               b(3) = (  0.000000  0.000000  0.646208 )

     PseudoPot. # 1 for Tm read from file:
     /home/cwx6513/pp.La/Tm.UPF
     MD5 check sum: 245516e0878b5372ceeb9443ded2c4e1
     Pseudo is Norm-conserving, Zval = 23.0
     Generated in analytical, separable form
     Using radial grid of 1269 points,  6 beta functions with:
                l(1) =   0
                l(2) =   0
                l(3) =   1
                l(4) =   1
                l(5) =   2
                l(6) =   3

     atomic species   valence    mass     pseudopotential
        Tm            23.00   168.93400     Tm( 1.00)

     12 Sym. Ops., with inversion, found
          (note: 12 additional sym.ops. were found but ignored
           their fractional translations are incommensurate with FFT grid)

   Cartesian axes

     site n.     atom                  positions (alat units)
         1           Tm  tau(   1) = (  -0.0000005   0.5773506   1.1606169  )
         2           Tm  tau(   2) = (   0.5000005   0.2886748   0.3868723  )

     number of k points=   106  gaussian smearing, width (Ry)=  0.1000

     Number of k-points >= 100: set verbosity='high' to print them.

     Largest allocated arrays     est. size (Mb)     dimensions
     Largest temporary arrays     est. size (Mb)     dimensions

     Initial potential from superposition of free atoms

     Starting from uniform charge
     Starting wfc are    0 randomized atomic wfcs

     Self-consistent Calculation

     iteration #  1     ecut=    40.00 Ry     beta=0.70
     CG style diagonalization
     c_bands:  1 eigenvalues not converged
     ethr =  1.00E-02,  avg # of iterations = 13.2

     total energy              =    -648.71843558 Ry
     Harris-Foulkes estimate   =    -985.36678966 Ry
     estimated scf accuracy    <     424.41719378 Ry

     iteration #  2     ecut=    40.00 Ry     beta=0.70
     CG style diagonalization
     ethr =  1.00E-02,  avg # of iterations =  6.9

[...]

     End of self-consistent calculation

     Number of k-points >= 100: set verbosity='high' to print the bands.

     the Fermi energy is    18.8660 ev

!    total energy              =    -734.98638706 Ry
     Harris-Foulkes estimate   =    -734.98638939 Ry
     estimated scf accuracy    <       0.00000410 Ry

     The total energy is the sum of the following terms:

     one-electron contribution =    -327.22638936 Ry
     hartree contribution      =     169.93965918 Ry
     xc contribution           =     -59.15172877 Ry
     ewald contribution        =    -518.46344087 Ry
     smearing contrib. (-TS)   =      -0.08448725 Ry

     convergence has been achieved in  10 iterations

     Forces acting on atoms (Ry/au):

     atom    1 type  1   force =     0.00000000    0.00000000   -0.00342873
     atom    2 type  1   force =     0.00000000    0.00000000    0.00342873

     Total force =     0.004849     Total SCF correction =     0.000000

     entering subroutine stress ...

          total   stress  (Ry/bohr**3)                   (kbar)     P= -627.21
  -0.00431797   0.00000000   0.00000000       -635.20      0.00      0.00
   0.00000000  -0.00431797   0.00000000          0.00   -635.20      0.00
   0.00000000   0.00000000  -0.00415511          0.00      0.00   -611.24

     BFGS Geometry Optimization

     number of scf cycles    =   1
     number of bfgs steps    =   0

     enthalpy new            =    -734.9863870638 Ry

     new trust radius        =       0.4366022996 bohr
     new conv_thr            =       0.0001000000 Ry

     new unit-cell volume =    291.62104 a.u.^3 (    43.21378 Ang^3 )

CELL_PARAMETERS (alat=  6.73242367)
   0.892050721   0.000000000   0.000000000
  -0.446025360   0.772538586   0.000000000
   0.000000000   0.000000000   1.386739284

ATOMIC_POSITIONS (crystal)
Tm       0.333333000   0.666667000   0.749670895
Tm       0.666667000   0.333333000   0.250329105

     Writing output data file Element-Tm.q.save
     NEW-OLD atomic charge density approx. for the potential
     NEW k-points: (use verbosity='high' to print them)

[...]

     enthalpy old            =    -734.9863870638 Ry
     enthalpy new            =    -735.1212001630 Ry

     CASE: enthalpy_new < enthalpy_old

     small trust_radius: resetting bfgs history

     new trust radius        =       0.3075484087 bohr
     new conv_thr            =       0.0000357366 Ry

[...]

     number of scf cycles    =   3
     number of bfgs steps    =   2

     enthalpy old            =    -735.1212001630 Ry
     enthalpy new            =    -735.1226031049 Ry

     CASE: enthalpy_new > enthalpy_old

     new trust radius        =       0.1597154884 bohr

     trust_radius < trust_radius_min

     resetting bfgs history

     Message from routine bfgs:
     history already reset at previous step: stopping
     new conv_thr            =       0.0000357366 Ry

     new unit-cell volume =    363.15050 a.u.^3 (    53.81335 Ang^3 )

[...]

ATOMIC_POSITIONS (crystal)
Tm       0.333333000   0.666667000   0.746449415
Tm       0.666667000   0.333333000   0.253550585

     Writing output data file Element-Tm.q.save
     NEW-OLD atomic charge density approx. for the potential
     NEW k-points: (use verbosity='high' to print them)

[...]

     The maximum number of steps has been reached.

     End of BFGS Geometry Optimization
Begin final coordinates
     new unit-cell volume =    363.15050 a.u.^3 (    53.81335 Ang^3 )

CELL_PARAMETERS (alat=  6.73242367)
   0.955908800   0.000000000   0.000000000
  -0.477954400   0.827841305   0.000000000
   0.000000000   0.000000000   1.503864746

ATOMIC_POSITIONS (crystal)
Tm       0.333333000   0.666667000   0.746449415
Tm       0.666667000   0.333333000   0.253550585
End final coordinates

     A final scf calculation at the relaxed structure.
     The G-vectors are recalculated for the final unit cell
     Results may differ from those at the preceding step.

     bravais-lattice index     =            0
     lattice parameter (alat)  =       6.7324  a.u.
     unit-cell volume          =     363.1505 (a.u.)^3
     number of atoms/cell      =            2
     number of atomic types    =            1
     number of electrons       =        46.00
     number of Kohn-Sham states=           28
     kinetic-energy cutoff     =      40.0000  Ry
     charge density cutoff     =     160.0000  Ry
     convergence threshold     =      3.6E-05
     mixing beta               =       0.7000
     number of iterations used =            8  plain     mixing
     Exchange-correlation      = SLA-PZ-NOGX-NOGC ( 1 1 0 0 0)
     EXX-fraction              =        0.00

     celldm(1)=   6.732424  celldm(2)=   0.000000  celldm(3)=   0.000000
     celldm(4)=   0.000000  celldm(5)=   0.000000  celldm(6)=   0.000000

     crystal axes: (cart. coord. in units of alat)
               a(1) = (   0.955909   0.000000   0.000000 )
               a(2) = (  -0.477954   0.827841   0.000000 )
               a(3) = (   0.000000   0.000000   1.503865 )

     reciprocal axes: (cart. coord. in units 2 pi/alat)
               b(1) = (  1.046125  0.603980  0.000000 )
               b(2) = (  0.000000  1.207961  0.000000 )
               b(3) = (  0.000000  0.000000  0.664953 )

     PseudoPot. # 1 for Tm read from file:
     /home/cwx6513/pp.La/Tm.UPF
     MD5 check sum: 245516e0878b5372ceeb9443ded2c4e1
     Pseudo is Norm-conserving, Zval = 23.0
     Generated in analytical, separable form
     Using radial grid of 1269 points,  6 beta functions with:
                l(1) =   0
                l(2) =   0
                l(3) =   1
                l(4) =   1
                l(5) =   2
                l(6) =   3

     atomic species   valence    mass     pseudopotential
        Tm            23.00   168.93400     Tm( 1.00)

     12 Sym. Ops., with inversion, found
          (note: 12 additional sym.ops. were found but ignored
           their fractional translations are incommensurate with FFT grid)

   Cartesian axes

     site n.     atom                  positions (alat units)
         1           Tm  tau(   1) = (  -0.0000005   0.5518945   1.1225590  )
         2           Tm  tau(   2) = (   0.4779549   0.2759468   0.3813058  )

     number of k points=   106  gaussian smearing, width (Ry)=  0.1000

     Number of k-points >= 100: set verbosity='high' to print them.

     Largest allocated arrays     est. size (Mb)     dimensions
     Largest temporary arrays     est. size (Mb)     dimensions

     Initial potential from superposition of free atoms

     Starting from uniform charge
     Starting wfc are    0 randomized atomic wfcs

     Writing output data file Element-Tm.q.save

     Self-consistent Calculation

[...]

     iteration #  6     ecut=    40.00 Ry     beta=0.70
     CG style diagonalization
     c_bands:  1 eigenvalues not converged
     c_bands:  1 eigenvalues not converged
     c_bands:  1 eigenvalues not converged
     c_bands:  1 eigenvalues not converged
     c_bands:  1 eigenvalues not converged
     c_bands:  1 eigenvalues not converged
     c_bands:  1 eigenvalues not converged
     ethr =  6.84E-06,  avg # of iterations =  4.8

[...]

     total energy              =    -734.91007142 Ry
     Harris-Foulkes estimate   =    -734.91025879 Ry
     estimated scf accuracy    <       0.00027279 Ry

     iteration #  9     ecut=    40.00 Ry     beta=0.70
     CG style diagonalization
     ethr =  5.93E-07,  avg # of iterations =  3.6

     End of self-consistent calculation

     Number of k-points >= 100: set verbosity='high' to print the bands.

     the Fermi energy is    21.8048 ev

!    total energy              =    -734.91014845 Ry
     Harris-Foulkes estimate   =    -734.91015030 Ry
     estimated scf accuracy    <       0.00000206 Ry

     The total energy is the sum of the following terms:

     one-electron contribution =    -294.18508991 Ry
     hartree contribution      =     158.16889840 Ry
     xc contribution           =     -59.38856491 Ry
     ewald contribution        =    -539.42732336 Ry
     smearing contrib. (-TS)   =      -0.07806867 Ry

     convergence has been achieved in   9 iterations

     Forces acting on atoms (Ry/au):

     atom    1 type  1   force =     0.00000000    0.00000000    0.01605077
     atom    2 type  1   force =     0.00000000    0.00000000   -0.01605077

     Total force =     0.022699     Total SCF correction =     0.000000

     entering subroutine stress ...

          total   stress  (Ry/bohr**3)                   (kbar)     P= -554.63
  -0.00382272   0.00000000   0.00000000       -562.34      0.00      0.00
   0.00000000  -0.00382272   0.00000000          0.00   -562.34      0.00
   0.00000000   0.00000000  -0.00366538          0.00      0.00   -539.20

     Writing output data file Element-Tm.q.save

     General routines

     Parallel routines

   This run was terminated on:  23: 2:32  21Mar2018

   JOB DONE.