     Program PWSCF v.5.0.2 starts on 22Mar2018 at 21:32:25

     Current dimensions of program PWSCF are:
     Max number of different atomic species (ntypx) = 10
     Max number of k-points (npk) =  40000
     Max angular momentum in pseudopotentials (lmaxx) =  3
     Waiting for input...
     Reading input from standard input

     Subspace diagonalization in iterative solution of the eigenvalue problem:
     a serial algorithm will be used

     bravais-lattice index     =            0
     lattice parameter (alat)  =      12.0168  a.u.
     unit-cell volume          =    1187.3413 (a.u.)^3
     number of atoms/cell      =            8
     number of atomic types    =            2
     number of electrons       =       178.00
     number of Kohn-Sham states=          107
     kinetic-energy cutoff     =      40.0000  Ry
     charge density cutoff     =     160.0000  Ry
     convergence threshold     =      1.0E-04
     mixing beta               =       0.7000
     number of iterations used =            8  plain     mixing
     Exchange-correlation      = SLA-PZ-NOGX-NOGC ( 1 1 0 0 0)
     EXX-fraction              =        0.00
     nstep                     =           50

     celldm(1)=  12.016801  celldm(2)=   0.000000  celldm(3)=   0.000000
     celldm(4)=   0.000000  celldm(5)=   0.000000  celldm(6)=   0.000000

     crystal axes: (cart. coord. in units of alat)
               a(1) = (   1.000000   0.000000   0.000000 )
               a(2) = (  -0.500000   0.866025   0.000000 )
               a(3) = (   0.000000   0.000000   0.790093 )

     reciprocal axes: (cart. coord. in units 2 pi/alat)
               b(1) = (  1.000000  0.577350  0.000000 )
               b(2) = (  0.000000  1.154701  0.000000 )
               b(3) = (  0.000000  0.000000  1.265674 )

     PseudoPot. # 1 for Tm read from file:
     /home/cwx6513/pp.La/Tm.UPF
     MD5 check sum: 245516e0878b5372ceeb9443ded2c4e1
     Pseudo is Norm-conserving, Zval = 23.0
     Generated in analytical, separable form
     Using radial grid of 1269 points,  6 beta functions with:
                l(1) =   0
                l(2) =   0
                l(3) =   1
                l(4) =   1
                l(5) =   2
                l(6) =   3

     PseudoPot. # 2 for Dy read from file:
     /home/cwx6513/pp.La/Dy.UPF
     MD5 check sum: 9597327bec62616a94a14d07f3fd9936
     Pseudo is Norm-conserving, Zval = 20.0
     Generated in analytical, separable form
     Using radial grid of 1265 points,  6 beta functions with:
                l(1) =   0
                l(2) =   0
                l(3) =   1
                l(4) =   1
                l(5) =   2
                l(6) =   3

     atomic species   valence    mass     pseudopotential
        Mg            23.00    24.30500     Tm( 1.00)
        Cd            20.00   112.41100     Dy( 1.00)

     24 Sym. Ops., with inversion, found (12 have fractional translation)

   Cartesian axes

     site n.     atom                  positions (alat units)
         1           Mg  tau(   1) = (   0.2478935   0.7204716   0.1975233  )
         2           Mg  tau(   2) = (   0.7478935   0.1455538   0.5925699  )
         3           Mg  tau(   3) = (   0.2521065   0.1455538   0.5925699  )
         4           Mg  tau(   4) = (  -0.2478935   0.7204716   0.1975233  )
         5           Mg  tau(   5) = (   0.0000000   0.2911075   0.1975233  )
         6           Mg  tau(   6) = (   0.5000000   0.5749179   0.5925699  )
         7           Cd  tau(   7) = (   0.5000005   0.2886748   0.1975233  )
         8           Cd  tau(   8) = (  -0.0000005   0.5773506   0.5925699  )

     number of k points=    64  gaussian smearing, width (Ry)=  0.1000
                       cart. coord. in units 2pi/alat
        k(    1) = (   0.0000000   0.0000000   0.0000000), wk =   0.0095238
        k(    2) = (   0.0000000   0.0000000   0.1808105), wk =   0.0190476
        k(    3) = (   0.0000000   0.0000000   0.3616210), wk =   0.0190476
        k(    4) = (   0.0000000   0.0000000   0.5424315), wk =   0.0190476
        k(    5) = (   0.0000000   0.1924501   0.0000000), wk =   0.0190476
        k(    6) = (   0.0000000   0.1924501   0.1808105), wk =   0.0380952
        k(    7) = (   0.0000000   0.1924501   0.3616210), wk =   0.0380952
        k(    8) = (   0.0000000   0.1924501   0.5424315), wk =   0.0380952
        k(    9) = (   0.0000000   0.3849002   0.0000000), wk =   0.0190476
        k(   10) = (   0.0000000   0.3849002   0.1808105), wk =   0.0380952
        k(   11) = (   0.0000000   0.3849002   0.3616210), wk =   0.0380952
        k(   12) = (   0.0000000   0.3849002   0.5424315), wk =   0.0380952
        k(   13) = (   0.0000000  -0.5773503   0.0000000), wk =   0.0095238
        k(   14) = (   0.0000000  -0.5773503   0.1808105), wk =   0.0190476
        k(   15) = (   0.0000000  -0.5773503   0.3616210), wk =   0.0190476
        k(   16) = (   0.0000000  -0.5773503   0.5424315), wk =   0.0190476
        k(   17) = (   0.2000000   0.1154701   0.0000000), wk =   0.0190476
        k(   18) = (   0.2000000   0.1154701   0.1808105), wk =   0.0380952
        k(   19) = (   0.2000000   0.1154701   0.3616210), wk =   0.0380952
        k(   20) = (   0.2000000   0.1154701   0.5424315), wk =   0.0380952
        k(   21) = (   0.2000000   0.3079201   0.0000000), wk =   0.0190476
        k(   22) = (   0.2000000   0.3079201   0.1808105), wk =   0.0380952
        k(   23) = (   0.2000000   0.3079201   0.3616210), wk =   0.0380952
        k(   24) = (   0.2000000   0.3079201   0.5424315), wk =   0.0380952
        k(   25) = (   0.2000000   0.5003702   0.0000000), wk =   0.0190476
        k(   26) = (   0.2000000   0.5003702   0.1808105), wk =   0.0380952
        k(   27) = (   0.2000000   0.5003702   0.3616210), wk =   0.0380952
        k(   28) = (   0.2000000   0.5003702   0.5424315), wk =   0.0380952
        k(   29) = (   0.2000000  -0.4618802   0.0000000), wk =   0.0190476
        k(   30) = (   0.2000000  -0.4618802   0.1808105), wk =   0.0380952
        k(   31) = (   0.2000000  -0.4618802   0.3616210), wk =   0.0380952
        k(   32) = (   0.2000000  -0.4618802   0.5424315), wk =   0.0380952
        k(   33) = (   0.2000000  -0.2694301   0.0000000), wk =   0.0190476
        k(   34) = (   0.2000000  -0.2694301   0.1808105), wk =   0.0380952
        k(   35) = (   0.2000000  -0.2694301   0.3616210), wk =   0.0380952
        k(   36) = (   0.2000000  -0.2694301   0.5424315), wk =   0.0380952
        k(   37) = (   0.2000000  -0.0769800   0.0000000), wk =   0.0190476
        k(   38) = (   0.2000000  -0.0769800   0.1808105), wk =   0.0380952
        k(   39) = (   0.2000000  -0.0769800   0.3616210), wk =   0.0380952
        k(   40) = (   0.2000000  -0.0769800   0.5424315), wk =   0.0380952
        k(   41) = (   0.4000000   0.2309401   0.0000000), wk =   0.0190476
        k(   42) = (   0.4000000   0.2309401   0.1808105), wk =   0.0380952
        k(   43) = (   0.4000000   0.2309401   0.3616210), wk =   0.0380952
        k(   44) = (   0.4000000   0.2309401   0.5424315), wk =   0.0380952
        k(   45) = (   0.4000000   0.4233902   0.0000000), wk =   0.0190476
        k(   46) = (   0.4000000   0.4233902   0.1808105), wk =   0.0380952
        k(   47) = (   0.4000000   0.4233902   0.3616210), wk =   0.0380952
        k(   48) = (   0.4000000   0.4233902   0.5424315), wk =   0.0380952
        k(   49) = (   0.4000000   0.6158403   0.0000000), wk =   0.0190476
        k(   50) = (   0.4000000   0.6158403   0.1808105), wk =   0.0380952
        k(   51) = (   0.4000000   0.6158403   0.3616210), wk =   0.0380952
        k(   52) = (   0.4000000   0.6158403   0.5424315), wk =   0.0380952
        k(   53) = (   0.4000000  -0.3464102   0.0000000), wk =   0.0190476
        k(   54) = (   0.4000000  -0.3464102   0.1808105), wk =   0.0380952
        k(   55) = (   0.4000000  -0.3464102   0.3616210), wk =   0.0380952
        k(   56) = (   0.4000000  -0.3464102   0.5424315), wk =   0.0380952
        k(   57) = (   0.4000000  -0.1539601   0.0000000), wk =   0.0190476
        k(   58) = (   0.4000000  -0.1539601   0.1808105), wk =   0.0380952
        k(   59) = (   0.4000000  -0.1539601   0.3616210), wk =   0.0380952
        k(   60) = (   0.4000000  -0.1539601   0.5424315), wk =   0.0380952
        k(   61) = (   0.4000000   0.0384900   0.0000000), wk =   0.0190476
        k(   62) = (   0.4000000   0.0384900   0.1808105), wk =   0.0380952
        k(   63) = (   0.4000000   0.0384900   0.3616210), wk =   0.0380952
        k(   64) = (   0.4000000   0.0384900   0.5424315), wk =   0.0380952

     Largest allocated arrays     est. size (Mb)     dimensions
     Largest temporary arrays     est. size (Mb)     dimensions

     Initial potential from superposition of free atoms

     Starting from uniform charge
     Starting wfc are    0 randomized atomic wfcs

     Self-consistent Calculation

     iteration #  1     ecut=    40.00 Ry     beta=0.70
     CG style diagonalization
     ethr =  1.00E-02,  avg # of iterations = 19.5

     total energy              =   -2185.22603605 Ry
     Harris-Foulkes estimate   =   -3511.08494906 Ry
     estimated scf accuracy    <    1635.03398752 Ry

     iteration #  2     ecut=    40.00 Ry     beta=0.70
     CG style diagonalization
     c_bands:  4 eigenvalues not converged
     c_bands:  5 eigenvalues not converged
     c_bands:  3 eigenvalues not converged
     c_bands:  5 eigenvalues not converged
     c_bands:  2 eigenvalues not converged
     c_bands:  4 eigenvalues not converged
     c_bands:  4 eigenvalues not converged
     c_bands:  4 eigenvalues not converged
     c_bands:  5 eigenvalues not converged
     c_bands:  1 eigenvalues not converged
     c_bands:  5 eigenvalues not converged
     c_bands:  2 eigenvalues not converged
     c_bands:  4 eigenvalues not converged
     c_bands:  3 eigenvalues not converged
     c_bands:  2 eigenvalues not converged
     c_bands:  3 eigenvalues not converged
     c_bands:  4 eigenvalues not converged
     c_bands:  3 eigenvalues not converged
     c_bands:  1 eigenvalues not converged
     c_bands:  4 eigenvalues not converged
     c_bands:  4 eigenvalues not converged
     c_bands:  3 eigenvalues not converged
     c_bands:  2 eigenvalues not converged
     c_bands:  4 eigenvalues not converged
     c_bands:  3 eigenvalues not converged
     c_bands:  5 eigenvalues not converged
     c_bands:  5 eigenvalues not converged
     c_bands:  4 eigenvalues not converged
     c_bands:  5 eigenvalues not converged
     c_bands:  5 eigenvalues not converged
     c_bands:  5 eigenvalues not converged
     c_bands:  2 eigenvalues not converged
     c_bands:  3 eigenvalues not converged
     ethr =  1.00E-02,  avg # of iterations = 14.1

[...]

     End of self-consistent calculation

          k = 0.0000 0.0000 0.0000 (  5047 PWs)   bands (ev):

   -85.1280 -85.1279 -85.1248 -85.0868 -85.0867 -85.0632 -56.7891 -56.7865
   -43.8554 -43.8101 -43.8100 -43.8068 -43.8029 -43.7840 -43.7840 -43.7766
   -43.7765 -43.7642 -43.7546 -43.7545 -43.7265 -43.7259 -43.7258 -43.7196
   -43.7195 -43.7094 -23.7539 -23.7484 -23.7112 -23.7112 -23.7054 -23.7054
[...]
        k(   24) = (   0.2075727   0.3195791   0.5580219), wk =   0.0380952
        k(   25) = (   0.2075727   0.5193160   0.0000000), wk =   0.0190476
        k(   26) = (   0.2075727   0.5193160   0.1860073), wk =   0.0380952
        k(   27) = (   0.2075727   0.5193160   0.3720146), wk =   0.0380952
        k(   28) = (   0.2075727   0.5193160   0.5580219), wk =   0.0380952
        k(   29) = (   0.2075727  -0.4793687   0.0000000), wk =   0.0190476
        k(   30) = (   0.2075727  -0.4793687   0.1860073), wk =   0.0380952
        k(   31) = (   0.2075727  -0.4793687   0.3720146), wk =   0.0380952
        k(   32) = (   0.2075727  -0.4793687   0.5580219), wk =   0.0380952
        k(   33) = (   0.2075727  -0.2796317   0.0000000), wk =   0.0190476
        k(   34) = (   0.2075727  -0.2796317   0.1860073), wk =   0.0380952
        k(   35) = (   0.2075727  -0.2796317   0.3720146), wk =   0.0380952
        k(   36) = (   0.2075727  -0.2796317   0.5580219), wk =   0.0380952
        k(   37) = (   0.2075727  -0.0798948   0.0000000), wk =   0.0190476
        k(   38) = (   0.2075727  -0.0798948   0.1860073), wk =   0.0380952
        k(   39) = (   0.2075727  -0.0798948   0.3720146), wk =   0.0380952
        k(   40) = (   0.2075727  -0.0798948   0.5580219), wk =   0.0380952
        k(   41) = (   0.4151454   0.2396843   0.0000000), wk =   0.0190476
        k(   42) = (   0.4151454   0.2396843   0.1860073), wk =   0.0380952
        k(   43) = (   0.4151454   0.2396843   0.3720146), wk =   0.0380952
        k(   44) = (   0.4151454   0.2396843   0.5580219), wk =   0.0380952
        k(   45) = (   0.4151454   0.4394213   0.0000000), wk =   0.0190476
        k(   46) = (   0.4151454   0.4394213   0.1860073), wk =   0.0380952
        k(   47) = (   0.4151454   0.4394213   0.3720146), wk =   0.0380952
        k(   48) = (   0.4151454   0.4394213   0.5580219), wk =   0.0380952
        k(   49) = (   0.4151454   0.6391582   0.0000000), wk =   0.0190476
        k(   50) = (   0.4151454   0.6391582   0.1860073), wk =   0.0380952
        k(   51) = (   0.4151454   0.6391582   0.3720146), wk =   0.0380952
        k(   52) = (   0.4151454   0.6391582   0.5580219), wk =   0.0380952
        k(   53) = (   0.4151454  -0.3595265   0.0000000), wk =   0.0190476
        k(   54) = (   0.4151454  -0.3595265   0.1860073), wk =   0.0380952
        k(   55) = (   0.4151454  -0.3595265   0.3720146), wk =   0.0380952
        k(   56) = (   0.4151454  -0.3595265   0.5580219), wk =   0.0380952
        k(   57) = (   0.4151454  -0.1597896   0.0000000), wk =   0.0190476
        k(   58) = (   0.4151454  -0.1597896   0.1860073), wk =   0.0380952
        k(   59) = (   0.4151454  -0.1597896   0.3720146), wk =   0.0380952
        k(   60) = (   0.4151454  -0.1597896   0.5580219), wk =   0.0380952
        k(   61) = (   0.4151454   0.0399474   0.0000000), wk =   0.0190476
        k(   62) = (   0.4151454   0.0399474   0.1860073), wk =   0.0380952
        k(   63) = (   0.4151454   0.0399474   0.3720146), wk =   0.0380952
        k(   64) = (   0.4151454   0.0399474   0.5580219), wk =   0.0380952

[...]

     Threshold (ethr) on eigenvalues was too large:
     Diagonalizing with lowered threshold

     CG style diagonalization
     ethr =  9.60E-09,  avg # of iterations =  3.7

[...]

     The maximum number of steps has been reached.

     End of BFGS Geometry Optimization
Begin final coordinates
     new unit-cell volume =   1071.49134 a.u.^3 (   158.77863 Ang^3 )

CELL_PARAMETERS (alat= 12.01680127)
   0.963517771   0.000000000   0.000000000
  -0.481758886   0.834430867   0.000000000
   0.000000000   0.000000000   0.768018951

ATOMIC_POSITIONS (crystal)
Mg       0.664449465   0.832224733   0.250000000
Mg       0.832224733   0.167775267   0.750000000
Mg       0.335550535   0.167775267   0.750000000
Mg       0.167775267   0.832224733   0.250000000
Mg       0.167775267   0.335550535   0.250000000
Mg       0.832224733   0.664449465   0.750000000
Cd       0.666667000   0.333333000   0.250000000
Cd       0.333333000   0.666667000   0.750000000
End final coordinates

     A final scf calculation at the relaxed structure.
     The G-vectors are recalculated for the final unit cell
     Results may differ from those at the preceding step.

     bravais-lattice index     =            0
     lattice parameter (alat)  =      12.0168  a.u.
     unit-cell volume          =    1071.4913 (a.u.)^3
     number of atoms/cell      =            8
     number of atomic types    =            2
     number of electrons       =       178.00
     number of Kohn-Sham states=          107
     kinetic-energy cutoff     =      40.0000  Ry
     charge density cutoff     =     160.0000  Ry
     convergence threshold     =      1.0E-04
     mixing beta               =       0.7000
     number of iterations used =            8  plain     mixing
     Exchange-correlation      = SLA-PZ-NOGX-NOGC ( 1 1 0 0 0)
     EXX-fraction              =        0.00

     celldm(1)=  12.016801  celldm(2)=   0.000000  celldm(3)=   0.000000
     celldm(4)=   0.000000  celldm(5)=   0.000000  celldm(6)=   0.000000

     crystal axes: (cart. coord. in units of alat)
               a(1) = (   0.963518   0.000000   0.000000 )
               a(2) = (  -0.481759   0.834431   0.000000 )
               a(3) = (   0.000000   0.000000   0.768019 )

     reciprocal axes: (cart. coord. in units 2 pi/alat)
               b(1) = (  1.037864  0.599211  0.000000 )
               b(2) = (  0.000000  1.198422  0.000000 )
               b(3) = (  0.000000  0.000000  1.302051 )

     PseudoPot. # 1 for Tm read from file:
     /home/cwx6513/pp.La/Tm.UPF
     MD5 check sum: 245516e0878b5372ceeb9443ded2c4e1
     Pseudo is Norm-conserving, Zval = 23.0
     Generated in analytical, separable form
     Using radial grid of 1269 points,  6 beta functions with:
                l(1) =   0
                l(2) =   0
                l(3) =   1
                l(4) =   1
                l(5) =   2
                l(6) =   3

     PseudoPot. # 2 for Dy read from file:
     /home/cwx6513/pp.La/Dy.UPF
     MD5 check sum: 9597327bec62616a94a14d07f3fd9936
     Pseudo is Norm-conserving, Zval = 20.0
     Generated in analytical, separable form
     Using radial grid of 1265 points,  6 beta functions with:
                l(1) =   0
                l(2) =   0
                l(3) =   1
                l(4) =   1
                l(5) =   2
                l(6) =   3

     atomic species   valence    mass     pseudopotential
        Mg            23.00    24.30500     Tm( 1.00)
        Cd            20.00   112.41100     Dy( 1.00)

     24 Sym. Ops., with inversion, found (12 have fractional translation)

   Cartesian axes

     site n.     atom                  positions (alat units)
         1           Mg  tau(   1) = (   0.2392772   0.6944340   0.1920047  )
         2           Mg  tau(   2) = (   0.7210361   0.1399969   0.5760142  )
         3           Mg  tau(   3) = (   0.2424817   0.1399969   0.5760142  )
         4           Mg  tau(   4) = (  -0.2392772   0.6944340   0.1920047  )
         5           Mg  tau(   5) = (   0.0000000   0.2799937   0.1920047  )
         6           Mg  tau(   6) = (   0.4817589   0.5544371   0.5760142  )
         7           Cd  tau(   7) = (   0.4817594   0.2781433   0.1920047  )
         8           Cd  tau(   8) = (  -0.0000005   0.5562875   0.5760142  )

     number of k points=    64  gaussian smearing, width (Ry)=  0.1000
                       cart. coord. in units 2pi/alat
        k(    1) = (   0.0000000   0.0000000   0.0000000), wk =   0.0095238
        k(    2) = (   0.0000000   0.0000000   0.1860073), wk =   0.0190476
        k(    3) = (   0.0000000   0.0000000   0.3720146), wk =   0.0190476
        k(    4) = (   0.0000000   0.0000000   0.5580219), wk =   0.0190476
        k(    5) = (   0.0000000   0.1997369   0.0000000), wk =   0.0190476
        k(    6) = (   0.0000000   0.1997369   0.1860073), wk =   0.0380952
        k(    7) = (   0.0000000   0.1997369   0.3720146), wk =   0.0380952
        k(    8) = (   0.0000000   0.1997369   0.5580219), wk =   0.0380952
        k(    9) = (   0.0000000   0.3994739   0.0000000), wk =   0.0190476
        k(   10) = (   0.0000000   0.3994739   0.1860073), wk =   0.0380952
        k(   11) = (   0.0000000   0.3994739   0.3720146), wk =   0.0380952
        k(   12) = (   0.0000000   0.3994739   0.5580219), wk =   0.0380952
        k(   13) = (   0.0000000  -0.5992108   0.0000000), wk =   0.0095238
        k(   14) = (   0.0000000  -0.5992108   0.1860073), wk =   0.0190476
        k(   15) = (   0.0000000  -0.5992108   0.3720146), wk =   0.0190476
        k(   16) = (   0.0000000  -0.5992108   0.5580219), wk =   0.0190476
        k(   17) = (   0.2075727   0.1198422   0.0000000), wk =   0.0190476
        k(   18) = (   0.2075727   0.1198422   0.1860073), wk =   0.0380952
        k(   19) = (   0.2075727   0.1198422   0.3720146), wk =   0.0380952
        k(   20) = (   0.2075727   0.1198422   0.5580219), wk =   0.0380952
        k(   21) = (   0.2075727   0.3195791   0.0000000), wk =   0.0190476
        k(   22) = (   0.2075727   0.3195791   0.1860073), wk =   0.0380952
        k(   23) = (   0.2075727   0.3195791   0.3720146), wk =   0.0380952
        k(   24) = (   0.2075727   0.3195791   0.5580219), wk =   0.0380952
        k(   25) = (   0.2075727   0.5193160   0.0000000), wk =   0.0190476
        k(   26) = (   0.2075727   0.5193160   0.1860073), wk =   0.0380952
        k(   27) = (   0.2075727   0.5193160   0.3720146), wk =   0.0380952
        k(   28) = (   0.2075727   0.5193160   0.5580219), wk =   0.0380952
        k(   29) = (   0.2075727  -0.4793687   0.0000000), wk =   0.0190476
        k(   30) = (   0.2075727  -0.4793687   0.1860073), wk =   0.0380952
        k(   31) = (   0.2075727  -0.4793687   0.3720146), wk =   0.0380952
        k(   32) = (   0.2075727  -0.4793687   0.5580219), wk =   0.0380952
        k(   33) = (   0.2075727  -0.2796317   0.0000000), wk =   0.0190476
        k(   34) = (   0.2075727  -0.2796317   0.1860073), wk =   0.0380952
        k(   35) = (   0.2075727  -0.2796317   0.3720146), wk =   0.0380952
        k(   36) = (   0.2075727  -0.2796317   0.5580219), wk =   0.0380952
        k(   37) = (   0.2075727  -0.0798948   0.0000000), wk =   0.0190476
        k(   38) = (   0.2075727  -0.0798948   0.1860073), wk =   0.0380952
        k(   39) = (   0.2075727  -0.0798948   0.3720146), wk =   0.0380952
        k(   40) = (   0.2075727  -0.0798948   0.5580219), wk =   0.0380952
        k(   41) = (   0.4151454   0.2396843   0.0000000), wk =   0.0190476
        k(   42) = (   0.4151454   0.2396843   0.1860073), wk =   0.0380952
        k(   43) = (   0.4151454   0.2396843   0.3720146), wk =   0.0380952
        k(   44) = (   0.4151454   0.2396843   0.5580219), wk =   0.0380952
        k(   45) = (   0.4151454   0.4394213   0.0000000), wk =   0.0190476
        k(   46) = (   0.4151454   0.4394213   0.1860073), wk =   0.0380952
        k(   47) = (   0.4151454   0.4394213   0.3720146), wk =   0.0380952
        k(   48) = (   0.4151454   0.4394213   0.5580219), wk =   0.0380952
        k(   49) = (   0.4151454   0.6391582   0.0000000), wk =   0.0190476
        k(   50) = (   0.4151454   0.6391582   0.1860073), wk =   0.0380952
        k(   51) = (   0.4151454   0.6391582   0.3720146), wk =   0.0380952
        k(   52) = (   0.4151454   0.6391582   0.5580219), wk =   0.0380952
        k(   53) = (   0.4151454  -0.3595265   0.0000000), wk =   0.0190476
        k(   54) = (   0.4151454  -0.3595265   0.1860073), wk =   0.0380952
        k(   55) = (   0.4151454  -0.3595265   0.3720146), wk =   0.0380952
        k(   56) = (   0.4151454  -0.3595265   0.5580219), wk =   0.0380952
        k(   57) = (   0.4151454  -0.1597896   0.0000000), wk =   0.0190476
        k(   58) = (   0.4151454  -0.1597896   0.1860073), wk =   0.0380952
        k(   59) = (   0.4151454  -0.1597896   0.3720146), wk =   0.0380952
        k(   60) = (   0.4151454  -0.1597896   0.5580219), wk =   0.0380952
        k(   61) = (   0.4151454   0.0399474   0.0000000), wk =   0.0190476
        k(   62) = (   0.4151454   0.0399474   0.1860073), wk =   0.0380952
        k(   63) = (   0.4151454   0.0399474   0.3720146), wk =   0.0380952
        k(   64) = (   0.4151454   0.0399474   0.5580219), wk =   0.0380952

     Largest allocated arrays     est. size (Mb)     dimensions
     Largest temporary arrays     est. size (Mb)     dimensions

     Initial potential from superposition of free atoms

     Starting from uniform charge
     Starting wfc are    0 randomized atomic wfcs

     Writing output data file Prototype-La-hP8-Mg3Cd.save

     Self-consistent Calculation

[...]

     iteration #  9     ecut=    40.00 Ry     beta=0.70
     CG style diagonalization
     c_bands:  2 eigenvalues not converged
     c_bands:  1 eigenvalues not converged
     c_bands:  1 eigenvalues not converged
     c_bands:  1 eigenvalues not converged
     c_bands:  1 eigenvalues not converged
     c_bands:  2 eigenvalues not converged
     c_bands:  1 eigenvalues not converged
     c_bands:  1 eigenvalues not converged
     c_bands:  1 eigenvalues not converged
     c_bands:  1 eigenvalues not converged
     c_bands:  1 eigenvalues not converged
     c_bands:  1 eigenvalues not converged
     c_bands:  1 eigenvalues not converged
     c_bands:  2 eigenvalues not converged
     c_bands:  1 eigenvalues not converged
     ethr =  2.06E-06,  avg # of iterations =  4.9

[...]

     total energy              =   -2724.32147149 Ry
     Harris-Foulkes estimate   =   -2724.32153974 Ry
     estimated scf accuracy    <       0.00011553 Ry

     iteration # 11     ecut=    40.00 Ry     beta=0.70
     CG style diagonalization
     ethr =  6.49E-08,  avg # of iterations =  3.6

     End of self-consistent calculation

[...]

          k = 0.4151 0.0399 0.5580 (  4568 PWs)   bands (ev):

   -82.0065 -81.9971 -81.9913 -81.9778 -81.9570 -81.9561 -53.9373 -53.9343
   -40.7242 -40.7135 -40.7110 -40.7025 -40.6890 -40.6873 -40.6803 -40.6775
   -40.6602 -40.6554 -40.6524 -40.6502 -40.6413 -40.6370 -40.6322 -40.6268
   -40.6266 -40.6232 -20.9275 -20.9232 -20.8991 -20.8941 -20.8920 -20.8903
     7.5659   7.5774   7.6489   7.7101   7.7281   7.7380   7.7974   7.8601
     7.8810   7.8908   8.0345   8.0649   8.1431   8.2541   8.2669   8.2848
     8.3057   8.4007   8.4193   8.4408   8.5013   8.5692   8.5791   8.5926
     8.6538   8.6842   8.8295   8.8584   8.9364   9.0100  15.1642  16.1872
    17.1965  17.6181  18.1916  18.4483  19.4637  19.5246  19.7359  19.7778
    19.9926  20.0129  20.6573  20.7961  21.1562  21.4217  22.9689  23.5731
    24.2109  25.0324  26.6656  27.2753  28.2400  28.4613  29.0807  29.4842
    30.7003  30.9272  31.6941  31.9824  32.5873  32.7853  32.9440  33.0401
    33.6334  33.8887  34.0853  34.3123  34.4234  34.6458  34.8140  35.2162
    36.5242  36.8849  37.1284

     the Fermi energy is    30.1370 ev

!    total energy              =   -2724.32149270 Ry
     Harris-Foulkes estimate   =   -2724.32150426 Ry
     estimated scf accuracy    <       0.00001324 Ry

     The total energy is the sum of the following terms:

     one-electron contribution =    -722.67862272 Ry
     hartree contribution      =     466.52654919 Ry
     xc contribution           =    -228.54125086 Ry
     ewald contribution        =   -2239.38495185 Ry
     smearing contrib. (-TS)   =      -0.24321646 Ry

     convergence has been achieved in  11 iterations

     Forces acting on atoms (Ry/au):

     atom    1 type  1   force =    -0.00342130   -0.00197529    0.00000000
     atom    2 type  1   force =    -0.00342130    0.00197529    0.00000000
     atom    3 type  1   force =     0.00342130    0.00197529    0.00000000
     atom    4 type  1   force =     0.00342130   -0.00197529    0.00000000
     atom    5 type  1   force =     0.00000000    0.00395058    0.00000000
     atom    6 type  1   force =     0.00000000   -0.00395058    0.00000000
     atom    7 type  2   force =     0.00000000    0.00000000    0.00000000
     atom    8 type  2   force =     0.00000000    0.00000000    0.00000000

     Total force =     0.009677     Total SCF correction =     0.000000

     entering subroutine stress ...

          total   stress  (Ry/bohr**3)                   (kbar)     P=  139.22
   0.00083914   0.00000000   0.00000000        123.44      0.00      0.00
   0.00000000   0.00083914   0.00000000          0.00    123.44      0.00
   0.00000000   0.00000000   0.00116090          0.00      0.00    170.77

     Writing output data file Prototype-La-hP8-Mg3Cd.save

     General routines

     Parallel routines

   This run was terminated on:  22:28:35  22Mar2018

   JOB DONE.