     Program PWSCF v.5.0.2 starts on 22Mar2018 at 21:32:26

     Current dimensions of program PWSCF are:
     Max number of different atomic species (ntypx) = 10
     Max number of k-points (npk) =  40000
     Max angular momentum in pseudopotentials (lmaxx) =  3
     Waiting for input...
     Reading input from standard input

     Subspace diagonalization in iterative solution of the eigenvalue problem:
     a serial algorithm will be used

     bravais-lattice index     =            0
     lattice parameter (alat)  =       9.9235  a.u.
     unit-cell volume          =    1361.0366 (a.u.)^3
     number of atoms/cell      =           12
     number of atomic types    =            2
     number of electrons       =       252.00
     number of Kohn-Sham states=          151
     kinetic-energy cutoff     =      40.0000  Ry
     charge density cutoff     =     160.0000  Ry
     convergence threshold     =      1.0E-04
     mixing beta               =       0.7000
     number of iterations used =            8  plain     mixing
     Exchange-correlation      = SLA-PZ-NOGX-NOGC ( 1 1 0 0 0)
     EXX-fraction              =        0.00
     nstep                     =           50

     celldm(1)=   9.923489  celldm(2)=   0.000000  celldm(3)=   0.000000
     celldm(4)=   0.000000  celldm(5)=   0.000000  celldm(6)=   0.000000

     crystal axes: (cart. coord. in units of alat)
               a(1) = (   1.000000   0.000000   0.000000 )
               a(2) = (  -0.500000   0.866025   0.000000 )
               a(3) = (   0.000000   0.000000   1.608222 )

     reciprocal axes: (cart. coord. in units 2 pi/alat)
               b(1) = (  1.000000  0.577350  0.000000 )
               b(2) = (  0.000000  1.154701  0.000000 )
               b(3) = (  0.000000  0.000000  0.621805 )

     PseudoPot. # 1 for Tm read from file:
     /home/cwx6513/pp.La/Tm.UPF
     MD5 check sum: 245516e0878b5372ceeb9443ded2c4e1
     Pseudo is Norm-conserving, Zval = 23.0
     Generated in analytical, separable form
     Using radial grid of 1269 points,  6 beta functions with:
                l(1) =   0
                l(2) =   0
                l(3) =   1
                l(4) =   1
                l(5) =   2
                l(6) =   3

     PseudoPot. # 2 for Dy read from file:
     /home/cwx6513/pp.La/Dy.UPF
     MD5 check sum: 9597327bec62616a94a14d07f3fd9936
     Pseudo is Norm-conserving, Zval = 20.0
     Generated in analytical, separable form
     Using radial grid of 1265 points,  6 beta functions with:
                l(1) =   0
                l(2) =   0
                l(3) =   1
                l(4) =   1
                l(5) =   2
                l(6) =   3

     atomic species   valence    mass     pseudopotential
        Mg            23.00    24.30500     Tm( 1.00)
        Zn            20.00    65.39000     Dy( 1.00)

     24 Sym. Ops., with inversion, found (12 have fractional translation)

   Cartesian axes

     site n.     atom                  positions (alat units)
         1           Mg  tau(   1) = (  -0.0000005   0.5773506   0.1003820  )
         2           Mg  tau(   2) = (   0.5000005   0.2886748   0.9044931  )
         3           Mg  tau(   3) = (   0.5000005   0.2886748   1.5078402  )
         4           Mg  tau(   4) = (  -0.0000005   0.5773506   0.7037291  )
         5           Zn  tau(   5) = (   0.0000000   0.0000000   0.0000000  )
         6           Zn  tau(   6) = (   0.0000000   0.0000000   0.8041111  )
         7           Zn  tau(   7) = (   0.0000000   0.2950739   1.2061667  )
         8           Zn  tau(   8) = (   0.7444585   0.1475370   0.4020556  )
         9           Zn  tau(   9) = (   0.2555415   0.1475370   0.4020556  )
        10           Zn  tau(  10) = (   0.2444585   0.7184884   1.2061667  )
        11           Zn  tau(  11) = (  -0.2444585   0.7184884   1.2061667  )
        12           Zn  tau(  12) = (   0.5000000   0.5709515   0.4020556  )

     number of k points=    12  gaussian smearing, width (Ry)=  0.1000
                       cart. coord. in units 2pi/alat
        k(    1) = (   0.0000000   0.0000000   0.0000000), wk =   0.0833333
        k(    2) = (   0.0000000   0.0000000   0.1554512), wk =   0.1666667
        k(    3) = (   0.0000000   0.0000000  -0.3109023), wk =   0.0833333
        k(    4) = (   0.0000000   0.3849002   0.0000000), wk =   0.1666667
        k(    5) = (   0.0000000   0.3849002   0.1554512), wk =   0.3333333
        k(    6) = (   0.0000000   0.3849002  -0.3109023), wk =   0.1666667
        k(    7) = (  -0.5000000  -0.2886751   0.0000000), wk =   0.0833333
        k(    8) = (  -0.5000000  -0.2886751   0.1554512), wk =   0.1666667
        k(    9) = (  -0.5000000  -0.2886751  -0.3109023), wk =   0.0833333
        k(   10) = (  -0.5000000   0.0962250   0.0000000), wk =   0.1666667
        k(   11) = (  -0.5000000   0.0962250   0.1554512), wk =   0.3333333
        k(   12) = (  -0.5000000   0.0962250  -0.3109023), wk =   0.1666667

     Largest allocated arrays     est. size (Mb)     dimensions
     Largest temporary arrays     est. size (Mb)     dimensions

     Initial potential from superposition of free atoms

     Starting from uniform charge
     Starting wfc are    0 randomized atomic wfcs

     Self-consistent Calculation

     iteration #  1     ecut=    40.00 Ry     beta=0.70
     CG style diagonalization
     ethr =  1.00E-02,  avg # of iterations = 17.9

     total energy              =   -3133.76287910 Ry
     Harris-Foulkes estimate   =   -4331.53108839 Ry
     estimated scf accuracy    <    1511.79671026 Ry

     iteration #  2     ecut=    40.00 Ry     beta=0.70
     CG style diagonalization
     c_bands:  1 eigenvalues not converged
     ethr =  1.00E-02,  avg # of iterations =  7.8

[...]

     End of self-consistent calculation

          k = 0.0000 0.0000 0.0000 (  5769 PWs)   bands (ev):

   -77.6670 -77.6526 -77.6467 -77.6049 -50.9630 -50.9128 -50.8314 -50.7532
   -50.7487 -50.7486 -50.7430 -50.7429 -36.3822 -36.3714 -36.3714 -36.3661
   -36.3513 -36.3513 -36.3412 -36.3279 -36.3278 -36.3188 -36.3188 -36.3163
   -19.1818 -18.9397 -18.5914 -18.2422 -18.2422 -18.1856 -18.1856 -18.1079
   -18.1078 -17.9101 -17.9040 -17.7492 -17.7492 -17.7434 -17.7433 -17.4149
   -17.4030 -17.4030 -17.3915 -17.3905 -17.3904 -17.3797 -17.3466 -17.3465
    12.2267  12.2267  12.2601  12.2729  12.2862  12.2862  12.3487  12.3487
    12.4175  12.4175  12.6224  12.6224  12.6555  12.7077  12.7078  12.7123
    12.7382  12.7382  12.7809  12.7809  17.5092  17.7188  18.2182  18.3129
    19.7459  19.7460  19.7980  19.9124  19.9124  20.0062  20.0062  20.0173
    20.3328  20.7685  20.7685  20.8798  21.7925  21.7925  21.8573  21.8573
    22.6498  22.6498  22.9335  23.2100  23.6075  23.6076  24.1878  24.4290
    24.5598  24.6306  24.6306  24.6463  24.6463  24.7973  24.7974  24.8248
    24.8248  26.1479  26.1479  26.6335  26.6501  26.6501  27.3261  27.7537
    27.7564  28.9428  29.2505  29.2506  29.4741  29.6837  29.6837  30.8560
    31.3361  31.3363  31.6576  32.4492  32.4935  32.4937  33.0460  34.3058
    34.3058  36.1504  36.1504  36.2184  36.8022  37.7530  37.7531  37.9397
    37.9399  38.3147  38.4023  38.4526  38.4528  39.1038  39.2022  39.2023
    39.3318  39.3320  40.1587  40.7350  40.8355  41.1071  41.1071

[...]

          k =-0.5000-0.2887 0.0000 (  5800 PWs)   bands (ev):

[...]

     the Fermi energy is    34.8290 ev

!    total energy              =   -3550.47533443 Ry
     Harris-Foulkes estimate   =   -3550.47535175 Ry
     estimated scf accuracy    <       0.00001948 Ry

     The total energy is the sum of the following terms:

     one-electron contribution =    -598.84918539 Ry
     hartree contribution      =     513.01009066 Ry
     xc contribution           =    -315.64532089 Ry
     ewald contribution        =   -3148.70011156 Ry
     smearing contrib. (-TS)   =      -0.29080725 Ry

     convergence has been achieved in  11 iterations

     Forces acting on atoms (Ry/au):

     atom    1 type  1   force =     0.00000000    0.00000000    0.02099054
     atom    2 type  1   force =     0.00000000    0.00000000    0.02099054
     atom    3 type  1   force =     0.00000000    0.00000000   -0.02099054
     atom    4 type  1   force =     0.00000000    0.00000000   -0.02099054
     atom    5 type  2   force =     0.00000000    0.00000000    0.00000000
     atom    6 type  2   force =     0.00000000    0.00000000    0.00000000
     atom    7 type  2   force =     0.00000000    0.03395559    0.00000000
     atom    8 type  2   force =    -0.02940641    0.01697780    0.00000000
     atom    9 type  2   force =     0.02940641    0.01697780    0.00000000
     atom   10 type  2   force =    -0.02940641   -0.01697780    0.00000000
     atom   11 type  2   force =     0.02940641   -0.01697780    0.00000000
     atom   12 type  2   force =     0.00000000   -0.03395559    0.00000000

     Total force =     0.093168     Total SCF correction =     0.000000

     entering subroutine stress ...

          total   stress  (Ry/bohr**3)                   (kbar)     P= 1021.37
   0.00681671   0.00000000   0.00000000       1002.77      0.00      0.00
   0.00000000   0.00681671   0.00000000          0.00   1002.77      0.00
   0.00000000   0.00000000   0.00719598          0.00      0.00   1058.56

     BFGS Geometry Optimization

     number of scf cycles    =   1
     number of bfgs steps    =   0

     enthalpy new            =   -3550.4753344307 Ry

     new trust radius        =       0.5000000000 bohr
     new conv_thr            =       0.0001000000 Ry

     new unit-cell volume =   1645.83598 a.u.^3 (   243.88773 Ang^3 )

CELL_PARAMETERS (alat=  9.92348860)
   1.064193344   0.000000000   0.000000000
  -0.532096672   0.921618471   0.000000000
   0.000000000   0.000000000   1.717203317

ATOMIC_POSITIONS (crystal)
Mg       0.333333000   0.666667000   0.062913437
Mg       0.666667000   0.333333000   0.562913437
Mg       0.666667000   0.333333000   0.937086563
Mg       0.333333000   0.666667000   0.437086563
Zn       0.000000000   0.000000000   0.000000000
Zn       0.000000000   0.000000000   0.500000000
Zn       0.171105152   0.342210303   0.750000000
Zn       0.828894848   0.171105152   0.250000000
Zn       0.342210303   0.171105152   0.250000000
Zn       0.657789697   0.828894848   0.750000000
Zn       0.171105152   0.828894848   0.750000000
Zn       0.828894848   0.657789697   0.250000000

     Writing output data file Prototype-La-hP12-MgZn2.save
     NEW-OLD atomic charge density approx. for the potential
     NEW k-points:
        k(    1) = (   0.0000000   0.0000000   0.0000000), wk =   0.0833333
        k(    2) = (   0.0000000   0.0000000   0.1455856), wk =   0.1666667
        k(    3) = (   0.0000000   0.0000000  -0.2911711), wk =   0.0833333
        k(    4) = (   0.0000000   0.3616826   0.0000000), wk =   0.1666667
        k(    5) = (   0.0000000   0.3616826   0.1455856), wk =   0.3333333
        k(    6) = (   0.0000000   0.3616826  -0.2911711), wk =   0.1666667
        k(    7) = (  -0.4698394  -0.2712619   0.0000000), wk =   0.0833333
        k(    8) = (  -0.4698394  -0.2712619   0.1455856), wk =   0.1666667
        k(    9) = (  -0.4698394  -0.2712619  -0.2911711), wk =   0.0833333
        k(   10) = (  -0.4698394   0.0904206   0.0000000), wk =   0.1666667
        k(   11) = (  -0.4698394   0.0904206   0.1455856), wk =   0.3333333
        k(   12) = (  -0.4698394   0.0904206  -0.2911711), wk =   0.1666667

[...]

     enthalpy old            =   -3550.4753344307 Ry
     enthalpy new            =   -3550.9796461074 Ry

     CASE: enthalpy_new < enthalpy_old

     small trust_radius: resetting bfgs history

     new trust radius        =       0.4638200828 bohr
     new conv_thr            =       0.0000116054 Ry

[...]

     number of scf cycles    =   3
     number of bfgs steps    =   2

     enthalpy old            =   -3550.9796461074 Ry
     enthalpy new            =   -3550.6106307017 Ry

     CASE: enthalpy_new > enthalpy_old

     new trust radius        =       0.1426033026 bohr

     trust_radius < trust_radius_min

     resetting bfgs history

     Message from routine bfgs:
     history already reset at previous step: stopping
     new conv_thr            =       0.0000116054 Ry

     new unit-cell volume =   1366.56413 a.u.^3 (   202.50391 Ang^3 )

[...]

ATOMIC_POSITIONS (crystal)
Mg       0.333333000   0.666667000   0.063403545
Mg       0.666667000   0.333333000   0.563403545
Mg       0.666667000   0.333333000   0.936596455
Mg       0.333333000   0.666667000   0.436596455
Zn       0.000000000   0.000000000   0.000000000
Zn       0.000000000   0.000000000   0.500000000
Zn       0.171818893   0.343637787   0.750000000
Zn       0.828181107   0.171818893   0.250000000
Zn       0.343637787   0.171818893   0.250000000
Zn       0.656362213   0.828181107   0.750000000
Zn       0.171818893   0.828181107   0.750000000
Zn       0.828181107   0.656362213   0.250000000

     Writing output data file Prototype-La-hP12-MgZn2.save
     NEW-OLD atomic charge density approx. for the potential
     NEW k-points:
        k(    1) = (   0.0000000   0.0000000   0.0000000), wk =   0.0833333
        k(    2) = (   0.0000000   0.0000000   0.1547503), wk =   0.1666667
        k(    3) = (   0.0000000   0.0000000  -0.3095007), wk =   0.0833333
        k(    4) = (   0.0000000   0.3849898   0.0000000), wk =   0.1666667
        k(    5) = (   0.0000000   0.3849898   0.1547503), wk =   0.3333333
        k(    6) = (   0.0000000   0.3849898  -0.3095007), wk =   0.1666667
        k(    7) = (  -0.5001164  -0.2887423   0.0000000), wk =   0.0833333
        k(    8) = (  -0.5001164  -0.2887423   0.1547503), wk =   0.1666667
        k(    9) = (  -0.5001164  -0.2887423  -0.3095007), wk =   0.0833333
        k(   10) = (  -0.5001164   0.0962474   0.0000000), wk =   0.1666667
        k(   11) = (  -0.5001164   0.0962474   0.1547503), wk =   0.3333333
        k(   12) = (  -0.5001164   0.0962474  -0.3095007), wk =   0.1666667

[...]

     The maximum number of steps has been reached.

     End of BFGS Geometry Optimization
Begin final coordinates
     new unit-cell volume =   1366.56413 a.u.^3 (   202.50391 Ang^3 )

CELL_PARAMETERS (alat=  9.92348860)
   0.999767264   0.000000000   0.000000000
  -0.499883632   0.865823849   0.000000000
   0.000000000   0.000000000   1.615505483

ATOMIC_POSITIONS (crystal)
Mg       0.333333000   0.666667000   0.063403545
Mg       0.666667000   0.333333000   0.563403545
Mg       0.666667000   0.333333000   0.936596455
Mg       0.333333000   0.666667000   0.436596455
Zn       0.000000000   0.000000000   0.000000000
Zn       0.000000000   0.000000000   0.500000000
Zn       0.171818893   0.343637787   0.750000000
Zn       0.828181107   0.171818893   0.250000000
Zn       0.343637787   0.171818893   0.250000000
Zn       0.656362213   0.828181107   0.750000000
Zn       0.171818893   0.828181107   0.750000000
Zn       0.828181107   0.656362213   0.250000000
End final coordinates

     A final scf calculation at the relaxed structure.
     The G-vectors are recalculated for the final unit cell
     Results may differ from those at the preceding step.

     bravais-lattice index     =            0
     lattice parameter (alat)  =       9.9235  a.u.
     unit-cell volume          =    1366.5641 (a.u.)^3
     number of atoms/cell      =           12
     number of atomic types    =            2
     number of electrons       =       252.00
     number of Kohn-Sham states=          151
     kinetic-energy cutoff     =      40.0000  Ry
     charge density cutoff     =     160.0000  Ry
     convergence threshold     =      1.2E-05
     mixing beta               =       0.7000
     number of iterations used =            8  plain     mixing
     Exchange-correlation      = SLA-PZ-NOGX-NOGC ( 1 1 0 0 0)
     EXX-fraction              =        0.00

     celldm(1)=   9.923489  celldm(2)=   0.000000  celldm(3)=   0.000000
     celldm(4)=   0.000000  celldm(5)=   0.000000  celldm(6)=   0.000000

     crystal axes: (cart. coord. in units of alat)
               a(1) = (   0.999767   0.000000   0.000000 )
               a(2) = (  -0.499884   0.865824   0.000000 )
               a(3) = (   0.000000   0.000000   1.615505 )

     reciprocal axes: (cart. coord. in units 2 pi/alat)
               b(1) = (  1.000233  0.577485  0.000000 )
               b(2) = (  0.000000  1.154969  0.000000 )
               b(3) = (  0.000000  0.000000  0.619001 )

     PseudoPot. # 1 for Tm read from file:
     /home/cwx6513/pp.La/Tm.UPF
     MD5 check sum: 245516e0878b5372ceeb9443ded2c4e1
     Pseudo is Norm-conserving, Zval = 23.0
     Generated in analytical, separable form
     Using radial grid of 1269 points,  6 beta functions with:
                l(1) =   0
                l(2) =   0
                l(3) =   1
                l(4) =   1
                l(5) =   2
                l(6) =   3

     PseudoPot. # 2 for Dy read from file:
     /home/cwx6513/pp.La/Dy.UPF
     MD5 check sum: 9597327bec62616a94a14d07f3fd9936
     Pseudo is Norm-conserving, Zval = 20.0
     Generated in analytical, separable form
     Using radial grid of 1265 points,  6 beta functions with:
                l(1) =   0
                l(2) =   0
                l(3) =   1
                l(4) =   1
                l(5) =   2
                l(6) =   3

     atomic species   valence    mass     pseudopotential
        Mg            23.00    24.30500     Tm( 1.00)
        Zn            20.00    65.39000     Dy( 1.00)

     24 Sym. Ops., with inversion, found (12 have fractional translation)

   Cartesian axes

     site n.     atom                  positions (alat units)
         1           Mg  tau(   1) = (  -0.0000005   0.5772162   0.1024288  )
         2           Mg  tau(   2) = (   0.4998841   0.2886077   0.9101815  )
         3           Mg  tau(   3) = (   0.4998841   0.2886077   1.5130767  )
         4           Mg  tau(   4) = (  -0.0000005   0.5772162   0.7053240  )
         5           Zn  tau(   5) = (   0.0000000   0.0000000   0.0000000  )
         6           Zn  tau(   6) = (   0.0000000   0.0000000   0.8077527  )
         7           Zn  tau(   7) = (   0.0000000   0.2975298   1.2116291  )
         8           Zn  tau(   8) = (   0.7420989   0.1487649   0.4038764  )
         9           Zn  tau(   9) = (   0.2576684   0.1487649   0.4038764  )
        10           Zn  tau(  10) = (   0.2422153   0.7170590   1.2116291  )
        11           Zn  tau(  11) = (  -0.2422153   0.7170590   1.2116291  )
        12           Zn  tau(  12) = (   0.4998836   0.5682941   0.4038764  )

     number of k points=    12  gaussian smearing, width (Ry)=  0.1000
                       cart. coord. in units 2pi/alat
        k(    1) = (   0.0000000   0.0000000   0.0000000), wk =   0.0833333
        k(    2) = (   0.0000000   0.0000000   0.1547503), wk =   0.1666667
        k(    3) = (   0.0000000   0.0000000  -0.3095007), wk =   0.0833333
        k(    4) = (   0.0000000   0.3849898   0.0000000), wk =   0.1666667
        k(    5) = (   0.0000000   0.3849898   0.1547503), wk =   0.3333333
        k(    6) = (   0.0000000   0.3849898  -0.3095007), wk =   0.1666667
        k(    7) = (  -0.5001164  -0.2887423   0.0000000), wk =   0.0833333
        k(    8) = (  -0.5001164  -0.2887423   0.1547503), wk =   0.1666667
        k(    9) = (  -0.5001164  -0.2887423  -0.3095007), wk =   0.0833333
        k(   10) = (  -0.5001164   0.0962474   0.0000000), wk =   0.1666667
        k(   11) = (  -0.5001164   0.0962474   0.1547503), wk =   0.3333333
        k(   12) = (  -0.5001164   0.0962474  -0.3095007), wk =   0.1666667

     Largest allocated arrays     est. size (Mb)     dimensions
     Largest temporary arrays     est. size (Mb)     dimensions

     Initial potential from superposition of free atoms

     Starting from uniform charge
     Starting wfc are    0 randomized atomic wfcs

     Writing output data file Prototype-La-hP12-MgZn2.save

     Self-consistent Calculation

[...]

     iteration # 10     ecut=    40.00 Ry     beta=0.70
     CG style diagonalization
     c_bands:  1 eigenvalues not converged
     ethr =  2.04E-06,  avg # of iterations =  3.8

[...]

     total energy              =   -3550.55692468 Ry
     Harris-Foulkes estimate   =   -3550.55694296 Ry
     estimated scf accuracy    <       0.00004976 Ry

     iteration # 12     ecut=    40.00 Ry     beta=0.70
     CG style diagonalization
     ethr =  1.97E-08,  avg # of iterations =  3.8

     End of self-consistent calculation

[...]

          k = 0.0000 0.3850-0.3095 (  5850 PWs)   bands (ev):

[...]

          k =-0.5001 0.0962-0.3095 (  5844 PWs)   bands (ev):

   -77.8301 -77.8301 -77.8148 -77.8147 -51.0289 -51.0289 -50.9689 -50.9689
   -50.8893 -50.8893 -50.8764 -50.8764 -36.5343 -36.5343 -36.5298 -36.5297
   -36.5227 -36.5226 -36.5093 -36.5093 -36.4912 -36.4911 -36.4885 -36.4884
   -18.8727 -18.8727 -18.5573 -18.5573 -18.2435 -18.2435 -18.1760 -18.1760
   -18.1165 -18.1165 -18.0743 -18.0743 -17.9107 -17.9107 -17.7814 -17.7814
   -17.6798 -17.6798 -17.6211 -17.6211 -17.5757 -17.5757 -17.5508 -17.5508
    12.0572  12.0572  12.0709  12.0710  12.1509  12.1509  12.2424  12.2425
    12.2796  12.2797  12.4087  12.4088  12.4498  12.4498  12.5072  12.5072
    12.6348  12.6349  12.6713  12.6713  18.9311  18.9311  19.4213  19.4213
    19.7746  19.7746  20.1581  20.1581  20.4442  20.4442  20.5773  20.5773
    20.8030  20.8030  21.4595  21.4595  21.7555  21.7555  21.8602  21.8602
    22.1333  22.1333  22.6086  22.6086  22.8320  22.8320  23.2186  23.2186
    23.4893  23.4893  23.6478  23.6478  23.9502  23.9502  24.2947  24.2947
    24.5180  24.5180  24.6573  24.6573  25.1031  25.1031  25.9346  25.9346
    26.5813  26.5813  28.4666  28.4667  29.5049  29.5049  30.3724  30.3724
    31.5159  31.5159  33.0739  33.0739  35.0632  35.0632  35.5774  35.5774
    36.0663  36.0664  36.7500  36.7500  37.3625  37.3626  38.2934  38.2934
    38.4532  38.4532  38.9133  38.9133  39.2361  39.2362  39.7662  39.7662
    40.6054  40.6055  40.7265  40.7265  41.2371  41.2373  42.0441

     the Fermi energy is    34.6647 ev

!    total energy              =   -3550.55692990 Ry
     Harris-Foulkes estimate   =   -3550.55693875 Ry
     estimated scf accuracy    <       0.00000944 Ry

     The total energy is the sum of the following terms:

     one-electron contribution =    -603.74700094 Ry
     hartree contribution      =     514.19466998 Ry
     xc contribution           =    -315.56027832 Ry
     ewald contribution        =   -3145.15463236 Ry
     smearing contrib. (-TS)   =      -0.28968827 Ry

     convergence has been achieved in  12 iterations

     Forces acting on atoms (Ry/au):

     atom    1 type  1   force =     0.00000000    0.00000000    0.01902871
     atom    2 type  1   force =     0.00000000    0.00000000    0.01902871
     atom    3 type  1   force =     0.00000000    0.00000000   -0.01902871
     atom    4 type  1   force =     0.00000000    0.00000000   -0.01902871
     atom    5 type  2   force =     0.00000000    0.00000000    0.00000000
     atom    6 type  2   force =     0.00000000    0.00000000    0.00000000
     atom    7 type  2   force =     0.00000000   -0.03713344    0.00000000
     atom    8 type  2   force =     0.03215850   -0.01856672    0.00000000
     atom    9 type  2   force =    -0.03215850   -0.01856672    0.00000000
     atom   10 type  2   force =     0.03215850    0.01856672    0.00000000
     atom   11 type  2   force =    -0.03215850    0.01856672    0.00000000
     atom   12 type  2   force =     0.00000000    0.03713344    0.00000000

     Total force =     0.098599     Total SCF correction =     0.000000

     entering subroutine stress ...

          total   stress  (Ry/bohr**3)                   (kbar)     P=  996.83
   0.00676244   0.00000000   0.00000000        994.79      0.00      0.00
   0.00000000   0.00676244   0.00000000          0.00    994.79      0.00
   0.00000000   0.00000000   0.00680396          0.00      0.00   1000.90

     Writing output data file Prototype-La-hP12-MgZn2.save

     General routines

     Parallel routines

   This run was terminated on:  22:15:27  22Mar2018

   JOB DONE.