     Program PWSCF v.5.0.2 starts on 23Mar2018 at  0:55:57

     Current dimensions of program PWSCF are:
     Max number of different atomic species (ntypx) = 10
     Max number of k-points (npk) =  40000
     Max angular momentum in pseudopotentials (lmaxx) =  3
     Waiting for input...
     Reading input from standard input

     Subspace diagonalization in iterative solution of the eigenvalue problem:
     a serial algorithm will be used

     bravais-lattice index     =            0
     lattice parameter (alat)  =       7.0151  a.u.
     unit-cell volume          =     862.2778 (a.u.)^3
     number of atoms/cell      =           12
     number of atomic types    =            2
     number of electrons       =       236.00
     number of Kohn-Sham states=          142
     kinetic-energy cutoff     =      40.0000  Ry
     charge density cutoff     =     160.0000  Ry
     convergence threshold     =      1.0E-04
     mixing beta               =       0.7000
     number of iterations used =            8  plain     mixing
     Exchange-correlation      = SLA-PZ-NOGX-NOGC ( 1 1 0 0 0)
     EXX-fraction              =        0.00
     nstep                     =           50

     celldm(1)=   7.015105  celldm(2)=   0.000000  celldm(3)=   0.000000
     celldm(4)=   0.000000  celldm(5)=   0.000000  celldm(6)=   0.000000

     crystal axes: (cart. coord. in units of alat)
               a(1) = (   1.000000   0.000000   0.000000 )
               a(2) = (   0.000000   1.315963   0.000000 )
               a(3) = (   0.000000   0.000000   1.898020 )

     reciprocal axes: (cart. coord. in units 2 pi/alat)
               b(1) = (  1.000000  0.000000  0.000000 )
               b(2) = (  0.000000  0.759900  0.000000 )
               b(3) = (  0.000000  0.000000  0.526865 )

     PseudoPot. # 1 for Ho read from file:
     /home/cwx6513/pp.La/Ho.UPF
     MD5 check sum: f307ee11bce99f5b724fa279e3790763
     Pseudo is Norm-conserving, Zval = 21.0
     Generated in analytical, separable form
     Using radial grid of 1265 points,  6 beta functions with:
                l(1) =   0
                l(2) =   0
                l(3) =   1
                l(4) =   1
                l(5) =   2
                l(6) =   3

     PseudoPot. # 2 for Eu read from file:
     /home/cwx6513/pp.La/Eu.UPF
     MD5 check sum: 5efdbbfc50c6a10138933a6429836ad2
     Pseudo is Norm-conserving, Zval = 17.0
     Generated in analytical, separable form
     Using radial grid of 1261 points,  6 beta functions with:
                l(1) =   0
                l(2) =   0
                l(3) =   1
                l(4) =   1
                l(5) =   2
                l(6) =   3

     atomic species   valence    mass     pseudopotential
        Co            21.00    58.93320     Ho( 1.00)
        Si            17.00    28.08550     Eu( 1.00)

      8 Sym. Ops., with inversion, found ( 6 have fractional translation)

   Cartesian axes

     site n.     atom                  positions (alat units)
         1           Co  tau(   1) = (   0.7500000   1.0875135   0.8270358  )
         2           Co  tau(   2) = (   0.2500000   0.2284499   1.0709846  )
         3           Co  tau(   3) = (   0.7500000   0.4295318   0.1219744  )
         4           Co  tau(   4) = (   0.2500000   0.8864316   1.7760460  )
         5           Co  tau(   5) = (   0.2500000   0.7067855   0.5358966  )
         6           Co  tau(   6) = (   0.7500000   0.6091779   1.3621238  )
         7           Co  tau(   7) = (   0.2500000   0.0488038   0.4131136  )
         8           Co  tau(   8) = (   0.7500000   1.2671596   1.4849068  )
         9           Si  tau(   9) = (   0.2500000   0.2669484   1.6960710  )
        10           Si  tau(  10) = (   0.7500000   1.0490149   0.2019494  )
        11           Si  tau(  11) = (   0.2500000   0.9249301   1.1509596  )
        12           Si  tau(  12) = (   0.7500000   0.3910333   0.7470608  )

     number of k points=    12  gaussian smearing, width (Ry)=  0.1000
                       cart. coord. in units 2pi/alat
        k(    1) = (   0.0000000   0.0000000   0.0000000), wk =   0.0833333
        k(    2) = (   0.0000000   0.0000000   0.1317162), wk =   0.1666667
        k(    3) = (   0.0000000   0.0000000  -0.2634324), wk =   0.0833333
        k(    4) = (   0.0000000   0.2532999   0.0000000), wk =   0.1666667
        k(    5) = (   0.0000000   0.2532999   0.1317162), wk =   0.3333333
        k(    6) = (   0.0000000   0.2532999  -0.2634324), wk =   0.1666667
        k(    7) = (  -0.5000000   0.0000000   0.0000000), wk =   0.0833333
        k(    8) = (  -0.5000000   0.0000000   0.1317162), wk =   0.1666667
        k(    9) = (  -0.5000000   0.0000000  -0.2634324), wk =   0.0833333
        k(   10) = (  -0.5000000   0.2532999   0.0000000), wk =   0.1666667
        k(   11) = (  -0.5000000   0.2532999   0.1317162), wk =   0.3333333
        k(   12) = (  -0.5000000   0.2532999  -0.2634324), wk =   0.1666667

     Largest allocated arrays     est. size (Mb)     dimensions
     Largest temporary arrays     est. size (Mb)     dimensions

     Initial potential from superposition of free atoms

     Starting from uniform charge
     Starting wfc are    0 randomized atomic wfcs

     Self-consistent Calculation

     iteration #  1     ecut=    40.00 Ry     beta=0.70
     CG style diagonalization
     c_bands:  3 eigenvalues not converged
     c_bands:  1 eigenvalues not converged
     c_bands:  2 eigenvalues not converged
     c_bands:  2 eigenvalues not converged
     c_bands:  1 eigenvalues not converged
     ethr =  1.00E-02,  avg # of iterations = 15.1

     total energy              =   -2612.16465058 Ry
     Harris-Foulkes estimate   =   -3404.68391880 Ry
     estimated scf accuracy    <    1002.96554384 Ry

[...]

     iteration #  4     ecut=    40.00 Ry     beta=0.70
     CG style diagonalization
     ethr =  1.00E-02,  avg # of iterations =  4.3

[...]

     End of self-consistent calculation

          k = 0.0000 0.0000 0.0000 (  3675 PWs)   bands (ev):

   -42.3504 -42.2489 -42.1945 -42.1667 -42.1424 -42.0814 -42.0590 -42.0441
   -13.3750 -13.3607 -13.2593 -13.2140  -7.6125  -7.5403  -7.4238  -7.3555
    -7.2770  -7.1726  -7.0581  -6.9429  -6.9409  -6.9023  -6.7450  -6.6970
    -6.6871  -6.6385  -6.6330  -6.5978  -6.5356  -6.4404  -6.3980  -6.3913
    -6.3261  -6.2064  -6.1078  -6.0204  12.5334  12.7576  12.7687  12.8053
    12.8831  12.9327  12.9961  13.0025  13.1925  13.3828  13.4540  13.6823
    31.0381  31.3583  31.6427  31.6481  31.6780  31.7437  31.9754  32.3944
    32.7097  32.9743  33.2884  33.7984  33.8194  34.3008  34.3506  34.5013
    34.8353  35.0854  35.0986  35.5088  35.5469  35.7643  35.9179  36.2262
    36.3422  36.3595  36.5526  36.7044  36.9179  37.3455  37.4522  37.6164
    37.8221  37.8949  38.0788  38.1303  39.0464  39.2276  39.3239  39.4448
    40.1897  40.3102  40.8965  41.5812  43.2860  43.7197  44.0554  44.7067
    44.7836  44.8433  44.8944  46.0437  46.3479  46.8277  46.8583  47.2398
    47.6087  47.7589  48.6209  48.8216  48.8422  48.9230  49.2064  49.5528
    49.7303  52.3035  52.8709  53.1777  53.6535  53.8460  54.8065  55.7058
    55.8168  56.6318  57.1188  57.3075  57.5254  57.8736  57.9689  58.0281
    58.4895  58.5507  58.6564  59.1224  59.3073  59.3175  59.5137  60.1592
    60.2232  60.5836  60.6445  60.8125  60.8485  61.1113

[...]

          k =-0.5000 0.0000 0.0000 (  3722 PWs)   bands (ev):

[...]

     the Fermi energy is    54.4440 ev

!    total energy              =   -3033.74689710 Ry
     Harris-Foulkes estimate   =   -3033.74691462 Ry
     estimated scf accuracy    <       0.00001617 Ry

     The total energy is the sum of the following terms:

     one-electron contribution =     253.39730395 Ry
     hartree contribution      =     245.54798180 Ry
     xc contribution           =    -296.75673690 Ry
     ewald contribution        =   -3235.71722048 Ry
     smearing contrib. (-TS)   =      -0.21822546 Ry

     convergence has been achieved in  10 iterations

     Forces acting on atoms (Ry/au):

     atom    1 type  1   force =     0.00000000   -0.09209076   -0.06990486
     atom    2 type  1   force =     0.00000000    0.09209076    0.06990486
     atom    3 type  1   force =     0.00000000   -0.09209076    0.06990486
     atom    4 type  1   force =     0.00000000    0.09209076   -0.06990486
     atom    5 type  1   force =     0.00000000    0.14984590   -0.16894015
     atom    6 type  1   force =     0.00000000   -0.14984590    0.16894015
     atom    7 type  1   force =     0.00000000    0.14984590    0.16894015
     atom    8 type  1   force =     0.00000000   -0.14984590   -0.16894015
     atom    9 type  2   force =     0.00000000   -0.18707007   -0.02175558
     atom   10 type  2   force =     0.00000000    0.18707007    0.02175558
     atom   11 type  2   force =     0.00000000   -0.18707007    0.02175558
     atom   12 type  2   force =     0.00000000    0.18707007   -0.02175558

     Total force =     0.631919     Total SCF correction =     0.000000

     entering subroutine stress ...

          total   stress  (Ry/bohr**3)                   (kbar)     P= 7349.64
   0.05322006   0.00000000   0.00000000       7828.94      0.00      0.00
   0.00000000   0.04680692   0.00000000          0.00   6885.53      0.00
   0.00000000   0.00000000   0.04985854          0.00      0.00   7334.44

     BFGS Geometry Optimization

     number of scf cycles    =   1
     number of bfgs steps    =   0

     enthalpy new            =   -3033.7468970981 Ry

     new trust radius        =       0.5000000000 bohr
     new conv_thr            =       0.0001000000 Ry

     new unit-cell volume =   1085.96917 a.u.^3 (   160.92403 Ang^3 )

CELL_PARAMETERS (alat=  7.01510508)
   1.085136619   0.000000000   0.000000000
   0.000000000   1.414499372   0.000000000
   0.000000000   0.000000000   2.049404925

ATOMIC_POSITIONS (crystal)
Co       0.750000000   0.825762679   0.435400051
Co       0.250000000   0.174237321   0.564599949
Co       0.750000000   0.325762679   0.064599949
Co       0.250000000   0.674237321   0.935400051
Co       0.250000000   0.538124647   0.281533107
Co       0.750000000   0.461875353   0.718466893
Co       0.250000000   0.038124647   0.218466893
Co       0.750000000   0.961875353   0.781533107
Si       0.250000000   0.201557336   0.893495447
Si       0.750000000   0.798442664   0.106504553
Si       0.250000000   0.701557336   0.606504553
Si       0.750000000   0.298442664   0.393495447

     Writing output data file Prototype-La-oP12-Co2Si.save
     NEW-OLD atomic charge density approx. for the potential
     NEW k-points:
        k(    1) = (   0.0000000   0.0000000   0.0000000), wk =   0.0833333
        k(    2) = (   0.0000000   0.0000000   0.1219866), wk =   0.1666667
        k(    3) = (   0.0000000   0.0000000  -0.2439733), wk =   0.0833333
        k(    4) = (   0.0000000   0.2356546   0.0000000), wk =   0.1666667
        k(    5) = (   0.0000000   0.2356546   0.1219866), wk =   0.3333333
        k(    6) = (   0.0000000   0.2356546  -0.2439733), wk =   0.1666667
        k(    7) = (  -0.4607715   0.0000000   0.0000000), wk =   0.0833333
        k(    8) = (  -0.4607715   0.0000000   0.1219866), wk =   0.1666667
        k(    9) = (  -0.4607715   0.0000000  -0.2439733), wk =   0.0833333
        k(   10) = (  -0.4607715   0.2356546   0.0000000), wk =   0.1666667
        k(   11) = (  -0.4607715   0.2356546   0.1219866), wk =   0.3333333
        k(   12) = (  -0.4607715   0.2356546  -0.2439733), wk =   0.1666667

[...]

     enthalpy old            =   -3033.7468970981 Ry
     enthalpy new            =   -3040.4612569240 Ry

     CASE: enthalpy_new < enthalpy_old

     small trust_radius: resetting bfgs history

     new trust radius        =       2.5483284004 bohr
     new conv_thr            =       0.0001000000 Ry

[...]

          total   stress  (Ry/bohr**3)                   (kbar)     P=-2520.25
  -0.01817744   0.00000000   0.00000000      -2673.99      0.00      0.00
   0.00000000  -0.01592641   0.00000000          0.00  -2342.86      0.00
   0.00000000   0.00000000  -0.01729299          0.00      0.00  -2543.89

     number of scf cycles    =   3
     number of bfgs steps    =   2

     enthalpy old            =   -3040.4612569239 Ry
     enthalpy new            =   -3023.2321965737 Ry

     CASE: enthalpy_new > enthalpy_old

     new trust radius        =       0.7464527732 bohr

     trust_radius < trust_radius_min

     resetting bfgs history

     Message from routine bfgs:
     history already reset at previous step: stopping
     new conv_thr            =       0.0001000000 Ry

     new unit-cell volume =   1296.62909 a.u.^3 (   192.14061 Ang^3 )

[...]

ATOMIC_POSITIONS (crystal)
Co       0.750000000   0.825293054   0.434962057
Co       0.250000000   0.174706946   0.565037943
Co       0.750000000   0.325293054   0.065037943
Co       0.250000000   0.674706946   0.934962057
Co       0.250000000   0.539493838   0.280481689
Co       0.750000000   0.460506162   0.719518311
Co       0.250000000   0.039493838   0.219518311
Co       0.750000000   0.960506162   0.780481689
Si       0.250000000   0.200346145   0.893187060
Si       0.750000000   0.799653855   0.106812940
Si       0.250000000   0.700346145   0.606812940
Si       0.750000000   0.299653855   0.393187060

     Writing output data file Prototype-La-oP12-Co2Si.save
     NEW-OLD atomic charge density approx. for the potential
     NEW k-points:
        k(    1) = (   0.0000000   0.0000000   0.0000000), wk =   0.0833333
        k(    2) = (   0.0000000   0.0000000   0.1147670), wk =   0.1666667
        k(    3) = (   0.0000000   0.0000000  -0.2295339), wk =   0.0833333
        k(    4) = (   0.0000000   0.2235896   0.0000000), wk =   0.1666667
        k(    5) = (   0.0000000   0.2235896   0.1147670), wk =   0.3333333
        k(    6) = (   0.0000000   0.2235896  -0.2295339), wk =   0.1666667
        k(    7) = (  -0.4323217   0.0000000   0.0000000), wk =   0.0833333
        k(    8) = (  -0.4323217   0.0000000   0.1147670), wk =   0.1666667
        k(    9) = (  -0.4323217   0.0000000  -0.2295339), wk =   0.0833333
        k(   10) = (  -0.4323217   0.2235896   0.0000000), wk =   0.1666667
        k(   11) = (  -0.4323217   0.2235896   0.1147670), wk =   0.3333333
        k(   12) = (  -0.4323217   0.2235896  -0.2295339), wk =   0.1666667

[...]

     The maximum number of steps has been reached.

     End of BFGS Geometry Optimization
Begin final coordinates
     new unit-cell volume =   1296.62909 a.u.^3 (   192.14061 Ang^3 )

CELL_PARAMETERS (alat=  7.01510508)
   1.156546242   0.000000000   0.000000000
   0.000000000   1.490826503   0.000000000
   0.000000000   0.000000000   2.178327191

ATOMIC_POSITIONS (crystal)
Co       0.750000000   0.825293054   0.434962057
Co       0.250000000   0.174706946   0.565037943
Co       0.750000000   0.325293054   0.065037943
Co       0.250000000   0.674706946   0.934962057
Co       0.250000000   0.539493838   0.280481689
Co       0.750000000   0.460506162   0.719518311
Co       0.250000000   0.039493838   0.219518311
Co       0.750000000   0.960506162   0.780481689
Si       0.250000000   0.200346145   0.893187060
Si       0.750000000   0.799653855   0.106812940
Si       0.250000000   0.700346145   0.606812940
Si       0.750000000   0.299653855   0.393187060
End final coordinates

     A final scf calculation at the relaxed structure.
     The G-vectors are recalculated for the final unit cell
     Results may differ from those at the preceding step.

     bravais-lattice index     =            0
     lattice parameter (alat)  =       7.0151  a.u.
     unit-cell volume          =    1296.6291 (a.u.)^3
     number of atoms/cell      =           12
     number of atomic types    =            2
     number of electrons       =       236.00
     number of Kohn-Sham states=          142
     kinetic-energy cutoff     =      40.0000  Ry
     charge density cutoff     =     160.0000  Ry
     convergence threshold     =      1.0E-04
     mixing beta               =       0.7000
     number of iterations used =            8  plain     mixing
     Exchange-correlation      = SLA-PZ-NOGX-NOGC ( 1 1 0 0 0)
     EXX-fraction              =        0.00

     celldm(1)=   7.015105  celldm(2)=   0.000000  celldm(3)=   0.000000
     celldm(4)=   0.000000  celldm(5)=   0.000000  celldm(6)=   0.000000

     crystal axes: (cart. coord. in units of alat)
               a(1) = (   1.156546   0.000000   0.000000 )
               a(2) = (   0.000000   1.490827   0.000000 )
               a(3) = (   0.000000   0.000000   2.178327 )

     reciprocal axes: (cart. coord. in units 2 pi/alat)
               b(1) = (  0.864643  0.000000  0.000000 )
               b(2) = (  0.000000  0.670769  0.000000 )
               b(3) = (  0.000000  0.000000  0.459068 )

     PseudoPot. # 1 for Ho read from file:
     /home/cwx6513/pp.La/Ho.UPF
     MD5 check sum: f307ee11bce99f5b724fa279e3790763
     Pseudo is Norm-conserving, Zval = 21.0
     Generated in analytical, separable form
     Using radial grid of 1265 points,  6 beta functions with:
                l(1) =   0
                l(2) =   0
                l(3) =   1
                l(4) =   1
                l(5) =   2
                l(6) =   3

     PseudoPot. # 2 for Eu read from file:
     /home/cwx6513/pp.La/Eu.UPF
     MD5 check sum: 5efdbbfc50c6a10138933a6429836ad2
     Pseudo is Norm-conserving, Zval = 17.0
     Generated in analytical, separable form
     Using radial grid of 1261 points,  6 beta functions with:
                l(1) =   0
                l(2) =   0
                l(3) =   1
                l(4) =   1
                l(5) =   2
                l(6) =   3

     atomic species   valence    mass     pseudopotential
        Co            21.00    58.93320     Ho( 1.00)
        Si            17.00    28.08550     Eu( 1.00)

      8 Sym. Ops., with inversion, found ( 6 have fractional translation)

   Cartesian axes

     site n.     atom                  positions (alat units)
         1           Co  tau(   1) = (   0.8674097   1.2303688   0.9474897  )
         2           Co  tau(   2) = (   0.2891366   0.2604577   1.2308375  )
         3           Co  tau(   3) = (   0.8674097   0.4849555   0.1416739  )
         4           Co  tau(   4) = (   0.2891366   1.0058710   2.0366533  )
         5           Co  tau(   5) = (   0.2891366   0.8042917   0.6109809  )
         6           Co  tau(   6) = (   0.8674097   0.6865348   1.5673463  )
         7           Co  tau(   7) = (   0.2891366   0.0588785   0.4781827  )
         8           Co  tau(   8) = (   0.8674097   1.4319480   1.7001445  )
         9           Si  tau(   9) = (   0.2891366   0.2986813   1.9456537  )
        10           Si  tau(  10) = (   0.8674097   1.1921452   0.2326735  )
        11           Si  tau(  11) = (   0.2891366   1.0440946   1.3218371  )
        12           Si  tau(  12) = (   0.8674097   0.4467319   0.8564901  )

     number of k points=    12  gaussian smearing, width (Ry)=  0.1000
                       cart. coord. in units 2pi/alat
        k(    1) = (   0.0000000   0.0000000   0.0000000), wk =   0.0833333
        k(    2) = (   0.0000000   0.0000000   0.1147670), wk =   0.1666667
        k(    3) = (   0.0000000   0.0000000  -0.2295339), wk =   0.0833333
        k(    4) = (   0.0000000   0.2235896   0.0000000), wk =   0.1666667
        k(    5) = (   0.0000000   0.2235896   0.1147670), wk =   0.3333333
        k(    6) = (   0.0000000   0.2235896  -0.2295339), wk =   0.1666667
        k(    7) = (  -0.4323217   0.0000000   0.0000000), wk =   0.0833333
        k(    8) = (  -0.4323217   0.0000000   0.1147670), wk =   0.1666667
        k(    9) = (  -0.4323217   0.0000000  -0.2295339), wk =   0.0833333
        k(   10) = (  -0.4323217   0.2235896   0.0000000), wk =   0.1666667
        k(   11) = (  -0.4323217   0.2235896   0.1147670), wk =   0.3333333
        k(   12) = (  -0.4323217   0.2235896  -0.2295339), wk =   0.1666667

     Largest allocated arrays     est. size (Mb)     dimensions
     Largest temporary arrays     est. size (Mb)     dimensions

     Initial potential from superposition of free atoms

     Starting from uniform charge
     Starting wfc are    0 randomized atomic wfcs

     Writing output data file Prototype-La-oP12-Co2Si.save

     Self-consistent Calculation

[...]

     iteration #  6     ecut=    40.00 Ry     beta=0.70
     CG style diagonalization
     ethr =  9.65E-04,  avg # of iterations =  3.9

[...]

     total energy              =   -3046.76974045 Ry
     Harris-Foulkes estimate   =   -3046.76997607 Ry
     estimated scf accuracy    <       0.00043149 Ry

     iteration # 11     ecut=    40.00 Ry     beta=0.70
     CG style diagonalization
     c_bands:  1 eigenvalues not converged
     ethr =  1.83E-07,  avg # of iterations =  3.4

     End of self-consistent calculation

[...]

          k = 0.0000 0.2236-0.2295 (  5522 PWs)   bands (ev):

[...]

          k =-0.4323 0.2236-0.2295 (  5544 PWs)   bands (ev):

   -58.9858 -58.9858 -58.9729 -58.9729 -58.8428 -58.8428 -58.8313 -58.8313
   -29.5848 -29.5848 -29.5801 -29.5801 -23.3760 -23.3760 -23.2490 -23.2490
   -23.2455 -23.2455 -23.2182 -23.2182 -23.2078 -23.2078 -23.1630 -23.1630
   -23.0866 -23.0866 -23.0693 -23.0693 -23.0632 -23.0632 -23.0440 -23.0440
   -23.0176 -23.0176 -23.0072 -23.0072  -2.7959  -2.7959  -2.7731  -2.7731
    -2.7063  -2.7063  -2.7024  -2.7024  -2.5380  -2.5380  -2.5320  -2.5320
    18.5730  18.5730  18.9867  18.9867  19.1438  19.1438  19.2412  19.2412
    19.3526  19.3526  19.4474  19.4474  19.5117  19.5117  19.9082  19.9082
    19.9517  19.9517  20.1130  20.1130  20.1229  20.1229  20.5092  20.5092
    20.5444  20.5444  20.6362  20.6362  20.7418  20.7418  20.8431  20.8431
    21.1189  21.1189  21.4832  21.4832  21.5669  21.5669  21.9488  21.9488
    24.1611  24.1611  24.2075  24.2075  26.0660  26.0660  26.7152  26.7152
    28.1523  28.1523  28.2249  28.2249  28.5620  28.5620  29.1006  29.1006
    29.6997  29.6997  29.7361  29.7361  30.0223  30.0223  30.1534  30.1534
    31.7887  31.7887  32.0555  32.0555  32.7476  32.7476  34.9953  34.9953
    36.0769  36.0769  37.0053  37.0054  37.8778  37.8778  38.8254  38.8254
    39.9384  39.9385  40.9425  40.9425  41.3681  41.3683  41.5648  41.5649
    41.8637  41.8638  42.0517  42.0517  42.3734  42.3735

     the Fermi energy is    34.5599 ev

!    total energy              =   -3046.76982171 Ry
     Harris-Foulkes estimate   =   -3046.76982681 Ry
     estimated scf accuracy    <       0.00000637 Ry

     The total energy is the sum of the following terms:

     one-electron contribution =    -320.15048145 Ry
     hartree contribution      =     383.70074648 Ry
     xc contribution           =    -285.09469980 Ry
     ewald contribution        =   -2825.02291536 Ry
     smearing contrib. (-TS)   =      -0.20247158 Ry

     convergence has been achieved in  11 iterations

     Forces acting on atoms (Ry/au):

     atom    1 type  1   force =     0.00000000   -0.04639087   -0.01671828
     atom    2 type  1   force =     0.00000000    0.04639087    0.01671828
     atom    3 type  1   force =     0.00000000   -0.04639087    0.01671828
     atom    4 type  1   force =     0.00000000    0.04639087   -0.01671828
     atom    5 type  1   force =     0.00000000    0.05975957   -0.02934431
     atom    6 type  1   force =     0.00000000   -0.05975957    0.02934431
     atom    7 type  1   force =     0.00000000    0.05975957    0.02934431
     atom    8 type  1   force =     0.00000000   -0.05975957   -0.02934431
     atom    9 type  2   force =     0.00000000   -0.06681038   -0.01513175
     atom   10 type  2   force =     0.00000000    0.06681038    0.01513175
     atom   11 type  2   force =     0.00000000   -0.06681038    0.01513175
     atom   12 type  2   force =     0.00000000    0.06681038   -0.01513175

     Total force =     0.215002     Total SCF correction =     0.000000

     entering subroutine stress ...

          total   stress  (Ry/bohr**3)                   (kbar)     P=  926.23
   0.00644937   0.00000000   0.00000000        948.73      0.00      0.00
   0.00000000   0.00590013   0.00000000          0.00    867.94      0.00
   0.00000000   0.00000000   0.00653969          0.00      0.00    962.02

     Writing output data file Prototype-La-oP12-Co2Si.save

     General routines

     Parallel routines

   This run was terminated on:   1:21:13  23Mar2018

   JOB DONE.