     Program PWSCF v.5.0.2 starts on 22Mar2018 at 21:33:58

     Current dimensions of program PWSCF are:
     Max number of different atomic species (ntypx) = 10
     Max number of k-points (npk) =  40000
     Max angular momentum in pseudopotentials (lmaxx) =  3
     Waiting for input...
     Reading input from standard input

     Subspace diagonalization in iterative solution of the eigenvalue problem:
     a serial algorithm will be used

     bravais-lattice index     =            0
     lattice parameter (alat)  =       9.9235  a.u.
     unit-cell volume          =    1361.0366 (a.u.)^3
     number of atoms/cell      =           12
     number of atomic types    =            2
     number of electrons       =       236.00
     number of Kohn-Sham states=          142
     kinetic-energy cutoff     =      40.0000  Ry
     charge density cutoff     =     160.0000  Ry
     convergence threshold     =      1.0E-04
     mixing beta               =       0.7000
     number of iterations used =            8  plain     mixing
     Exchange-correlation      = SLA-PZ-NOGX-NOGC ( 1 1 0 0 0)
     EXX-fraction              =        0.00
     nstep                     =           50

     celldm(1)=   9.923489  celldm(2)=   0.000000  celldm(3)=   0.000000
     celldm(4)=   0.000000  celldm(5)=   0.000000  celldm(6)=   0.000000

     crystal axes: (cart. coord. in units of alat)
               a(1) = (   1.000000   0.000000   0.000000 )
               a(2) = (  -0.500000   0.866025   0.000000 )
               a(3) = (   0.000000   0.000000   1.608222 )

     reciprocal axes: (cart. coord. in units 2 pi/alat)
               b(1) = (  1.000000  0.577350  0.000000 )
               b(2) = (  0.000000  1.154701  0.000000 )
               b(3) = (  0.000000  0.000000  0.621805 )

     PseudoPot. # 1 for Tm read from file:
     /home/cwx6513/pp.La/Tm.UPF
     MD5 check sum: 245516e0878b5372ceeb9443ded2c4e1
     Pseudo is Norm-conserving, Zval = 23.0
     Generated in analytical, separable form
     Using radial grid of 1269 points,  6 beta functions with:
                l(1) =   0
                l(2) =   0
                l(3) =   1
                l(4) =   1
                l(5) =   2
                l(6) =   3

     PseudoPot. # 2 for Gd read from file:
     /home/cwx6513/pp.La/Gd.UPF
     MD5 check sum: 09a8be538722f05520810cb6aac0efd2
     Pseudo is Norm-conserving, Zval = 18.0
     Generated in analytical, separable form
     Using radial grid of 1263 points,  6 beta functions with:
                l(1) =   0
                l(2) =   0
                l(3) =   1
                l(4) =   1
                l(5) =   2
                l(6) =   3

     atomic species   valence    mass     pseudopotential
        Mg            23.00    24.30500     Tm( 1.00)
        Zn            18.00    65.39000     Gd( 1.00)

     24 Sym. Ops., with inversion, found (12 have fractional translation)

   Cartesian axes

     site n.     atom                  positions (alat units)
         1           Mg  tau(   1) = (  -0.0000005   0.5773506   0.1003820  )
         2           Mg  tau(   2) = (   0.5000005   0.2886748   0.9044931  )
         3           Mg  tau(   3) = (   0.5000005   0.2886748   1.5078402  )
         4           Mg  tau(   4) = (  -0.0000005   0.5773506   0.7037291  )
         5           Zn  tau(   5) = (   0.0000000   0.0000000   0.0000000  )
         6           Zn  tau(   6) = (   0.0000000   0.0000000   0.8041111  )
         7           Zn  tau(   7) = (   0.0000000   0.2950739   1.2061667  )
         8           Zn  tau(   8) = (   0.7444585   0.1475370   0.4020556  )
         9           Zn  tau(   9) = (   0.2555415   0.1475370   0.4020556  )
        10           Zn  tau(  10) = (   0.2444585   0.7184884   1.2061667  )
        11           Zn  tau(  11) = (  -0.2444585   0.7184884   1.2061667  )
        12           Zn  tau(  12) = (   0.5000000   0.5709515   0.4020556  )

     number of k points=    12  gaussian smearing, width (Ry)=  0.1000
                       cart. coord. in units 2pi/alat
        k(    1) = (   0.0000000   0.0000000   0.0000000), wk =   0.0833333
        k(    2) = (   0.0000000   0.0000000   0.1554512), wk =   0.1666667
        k(    3) = (   0.0000000   0.0000000  -0.3109023), wk =   0.0833333
        k(    4) = (   0.0000000   0.3849002   0.0000000), wk =   0.1666667
        k(    5) = (   0.0000000   0.3849002   0.1554512), wk =   0.3333333
        k(    6) = (   0.0000000   0.3849002  -0.3109023), wk =   0.1666667
        k(    7) = (  -0.5000000  -0.2886751   0.0000000), wk =   0.0833333
        k(    8) = (  -0.5000000  -0.2886751   0.1554512), wk =   0.1666667
        k(    9) = (  -0.5000000  -0.2886751  -0.3109023), wk =   0.0833333
        k(   10) = (  -0.5000000   0.0962250   0.0000000), wk =   0.1666667
        k(   11) = (  -0.5000000   0.0962250   0.1554512), wk =   0.3333333
        k(   12) = (  -0.5000000   0.0962250  -0.3109023), wk =   0.1666667

     Largest allocated arrays     est. size (Mb)     dimensions
     Largest temporary arrays     est. size (Mb)     dimensions

     Initial potential from superposition of free atoms

     Starting from uniform charge
     Starting wfc are    0 randomized atomic wfcs

     Self-consistent Calculation

     iteration #  1     ecut=    40.00 Ry     beta=0.70
     CG style diagonalization
     ethr =  1.00E-02,  avg # of iterations = 17.8

     total energy              =   -2293.31498274 Ry
     Harris-Foulkes estimate   =   -3778.60639229 Ry
     estimated scf accuracy    <    1824.74665507 Ry

     iteration #  2     ecut=    40.00 Ry     beta=0.70
     CG style diagonalization
     c_bands:  4 eigenvalues not converged
     c_bands:  5 eigenvalues not converged
     c_bands:  5 eigenvalues not converged
     ethr =  1.00E-02,  avg # of iterations = 13.3

[...]

     End of self-consistent calculation

          k = 0.0000 0.0000 0.0000 (  5769 PWs)   bands (ev):

   -79.8004 -79.7859 -79.7801 -79.7380 -38.4776 -38.4687 -38.4686 -38.4568
   -38.4484 -38.4483 -38.4322 -38.4253 -38.4253 -38.4164 -38.4164 -38.4071
   -37.7157 -37.6474 -37.3099 -37.3099 -37.3080 -37.3080 -37.1922 -37.1161
   -10.5597 -10.2278  -9.6363  -9.2406  -9.2406  -9.1693  -9.1693  -8.9648
    -8.9648  -8.7668  -8.4470  -8.4469  -8.2848  -8.2847  -8.2656  -7.8758
    -7.8687  -7.7331  -7.7330  -7.7317  -7.7317  -7.6988  -7.6411  -7.6411
    10.2889  10.2889  10.3249  10.3315  10.3861  10.3861  10.3919  10.3919
    10.5005  10.5005  10.6741  10.6741  10.7099  10.7619  10.7619  10.7727
    10.7727  10.7773  10.8230  10.8230  17.3215  18.9325  19.9341  20.5164
    21.4574  22.0432  22.0601  22.0601  22.3262  22.7069  22.7069  22.8058
    23.0560  23.0561  23.4956  23.4957  24.5211  24.5212  25.0185  25.0185
    25.1886  25.1886  25.2128  25.7798  26.5965  26.5967  26.9583  27.8043
    28.2130  28.2636  28.5673  28.7097  28.7097  28.7453  28.7454  28.7578
    28.7578  28.8116  28.8117  30.3804  30.3804  30.4737  30.4737  30.5820
    30.5820  30.6219  31.1122  32.0747  32.0747  32.2610  32.2612  32.9140
    33.2153  33.2243  33.2912  33.5711  33.5712  33.8566  34.9407  36.5856
    36.8259  36.8259  36.9098  36.9099  37.4829  37.7749  38.3852  38.3852
    38.7363  38.7365  39.6894  40.4203  40.4208  40.5332

[...]

          k =-0.5000-0.2887 0.0000 (  5800 PWs)   bands (ev):

[...]

     the Fermi energy is    32.2075 ev

!    total energy              =   -3078.70749559 Ry
     Harris-Foulkes estimate   =   -3078.70754819 Ry
     estimated scf accuracy    <       0.00007107 Ry

     The total energy is the sum of the following terms:

     one-electron contribution =    -425.72131640 Ry
     hartree contribution      =     416.20771866 Ry
     xc contribution           =    -284.39074857 Ry
     ewald contribution        =   -2784.44907488 Ry
     smearing contrib. (-TS)   =      -0.35407440 Ry

     convergence has been achieved in  10 iterations

     Forces acting on atoms (Ry/au):

     atom    1 type  1   force =     0.00000000    0.00000000    0.01320521
     atom    2 type  1   force =     0.00000000    0.00000000    0.01320521
     atom    3 type  1   force =     0.00000000    0.00000000   -0.01320521
     atom    4 type  1   force =     0.00000000    0.00000000   -0.01320521
     atom    5 type  2   force =     0.00000000    0.00000000    0.00000000
     atom    6 type  2   force =     0.00000000    0.00000000    0.00000000
     atom    7 type  2   force =     0.00000000    0.02288796    0.00000000
     atom    8 type  2   force =    -0.01982156    0.01144398    0.00000000
     atom    9 type  2   force =     0.01982156    0.01144398    0.00000000
     atom   10 type  2   force =    -0.01982156   -0.01144398    0.00000000
     atom   11 type  2   force =     0.01982156   -0.01144398    0.00000000
     atom   12 type  2   force =     0.00000000   -0.02288796    0.00000000

     Total force =     0.061973     Total SCF correction =     0.000000

     entering subroutine stress ...

          total   stress  (Ry/bohr**3)                   (kbar)     P=  707.49
   0.00483217   0.00000000   0.00000000        710.84      0.00      0.00
   0.00000000   0.00483217   0.00000000          0.00    710.84      0.00
   0.00000000   0.00000000   0.00476384          0.00      0.00    700.79

     BFGS Geometry Optimization

     number of scf cycles    =   1
     number of bfgs steps    =   0

     enthalpy new            =   -3078.7074955866 Ry

     new trust radius        =       0.5000000000 bohr
     new conv_thr            =       0.0001000000 Ry

     new unit-cell volume =   1655.41488 a.u.^3 (   245.30717 Ang^3 )

CELL_PARAMETERS (alat=  9.92348860)
   1.067764947   0.000000000   0.000000000
  -0.533882474   0.924711570   0.000000000
   0.000000000   0.000000000   1.715662180

ATOMIC_POSITIONS (crystal)
Mg       0.333333000   0.666667000   0.062882149
Mg       0.666667000   0.333333000   0.562882149
Mg       0.666667000   0.333333000   0.937117851
Mg       0.333333000   0.666667000   0.437117851
Zn       0.000000000   0.000000000   0.000000000
Zn       0.000000000   0.000000000   0.500000000
Zn       0.171107972   0.342215945   0.750000000
Zn       0.828892028   0.171107972   0.250000000
Zn       0.342215945   0.171107972   0.250000000
Zn       0.657784055   0.828892028   0.750000000
Zn       0.171107972   0.828892028   0.750000000
Zn       0.828892028   0.657784055   0.250000000

     Writing output data file Prototype-La-hP12-MgZn2.save
     NEW-OLD atomic charge density approx. for the potential
     NEW k-points:
        k(    1) = (   0.0000000   0.0000000   0.0000000), wk =   0.0833333
        k(    2) = (   0.0000000   0.0000000   0.1457163), wk =   0.1666667
        k(    3) = (   0.0000000   0.0000000  -0.2914327), wk =   0.0833333
        k(    4) = (   0.0000000   0.3604728   0.0000000), wk =   0.1666667
        k(    5) = (   0.0000000   0.3604728   0.1457163), wk =   0.3333333
        k(    6) = (   0.0000000   0.3604728  -0.2914327), wk =   0.1666667
        k(    7) = (  -0.4682679  -0.2703546   0.0000000), wk =   0.0833333
        k(    8) = (  -0.4682679  -0.2703546   0.1457163), wk =   0.1666667
        k(    9) = (  -0.4682679  -0.2703546  -0.2914327), wk =   0.0833333
        k(   10) = (  -0.4682679   0.0901182   0.0000000), wk =   0.1666667
        k(   11) = (  -0.4682679   0.0901182   0.1457163), wk =   0.3333333
        k(   12) = (  -0.4682679   0.0901182  -0.2914327), wk =   0.1666667

[...]

     enthalpy old            =   -3078.7074955866 Ry
     enthalpy new            =   -3078.7595625984 Ry

     CASE: enthalpy_new < enthalpy_old

     small trust_radius: resetting bfgs history

     new trust radius        =       0.7061283115 bohr
     new conv_thr            =       0.0000305276 Ry

[...]

     number of scf cycles    =   3
     number of bfgs steps    =   2

     enthalpy old            =   -3078.7595625984 Ry
     enthalpy new            =   -3078.0292806387 Ry

     CASE: enthalpy_new > enthalpy_old

     new trust radius        =       0.2256109257 bohr

     trust_radius < trust_radius_min

     resetting bfgs history

     Message from routine bfgs:
     history already reset at previous step: stopping
     new conv_thr            =       0.0000305276 Ry

     new unit-cell volume =   1359.34530 a.u.^3 (   201.43419 Ang^3 )

[...]

ATOMIC_POSITIONS (crystal)
Mg       0.333333000   0.666667000   0.062706062
Mg       0.666667000   0.333333000   0.562706062
Mg       0.666667000   0.333333000   0.937293938
Mg       0.333333000   0.666667000   0.437293938
Zn       0.000000000   0.000000000   0.000000000
Zn       0.000000000   0.000000000   0.500000000
Zn       0.169760620   0.339521240   0.750000000
Zn       0.830239380   0.169760620   0.250000000
Zn       0.339521240   0.169760620   0.250000000
Zn       0.660478760   0.830239380   0.750000000
Zn       0.169760620   0.830239380   0.750000000
Zn       0.830239380   0.660478760   0.250000000

     Writing output data file Prototype-La-hP12-MgZn2.save
     NEW-OLD atomic charge density approx. for the potential
     NEW k-points:
        k(    1) = (   0.0000000   0.0000000   0.0000000), wk =   0.0833333
        k(    2) = (   0.0000000   0.0000000   0.1557114), wk =   0.1666667
        k(    3) = (   0.0000000   0.0000000  -0.3114228), wk =   0.0833333
        k(    4) = (   0.0000000   0.3848176   0.0000000), wk =   0.1666667
        k(    5) = (   0.0000000   0.3848176   0.1557114), wk =   0.3333333
        k(    6) = (   0.0000000   0.3848176  -0.3114228), wk =   0.1666667
        k(    7) = (  -0.4998927  -0.2886132   0.0000000), wk =   0.0833333
        k(    8) = (  -0.4998927  -0.2886132   0.1557114), wk =   0.1666667
        k(    9) = (  -0.4998927  -0.2886132  -0.3114228), wk =   0.0833333
        k(   10) = (  -0.4998927   0.0962044   0.0000000), wk =   0.1666667
        k(   11) = (  -0.4998927   0.0962044   0.1557114), wk =   0.3333333
        k(   12) = (  -0.4998927   0.0962044  -0.3114228), wk =   0.1666667

[...]

     The maximum number of steps has been reached.

     End of BFGS Geometry Optimization
Begin final coordinates
     new unit-cell volume =   1359.34530 a.u.^3 (   201.43419 Ang^3 )

CELL_PARAMETERS (alat=  9.92348860)
   1.000214717   0.000000000   0.000000000
  -0.500107359   0.866211354   0.000000000
   0.000000000   0.000000000   1.605534172

ATOMIC_POSITIONS (crystal)
Mg       0.333333000   0.666667000   0.062706062
Mg       0.666667000   0.333333000   0.562706062
Mg       0.666667000   0.333333000   0.937293938
Mg       0.333333000   0.666667000   0.437293938
Zn       0.000000000   0.000000000   0.000000000
Zn       0.000000000   0.000000000   0.500000000
Zn       0.169760620   0.339521240   0.750000000
Zn       0.830239380   0.169760620   0.250000000
Zn       0.339521240   0.169760620   0.250000000
Zn       0.660478760   0.830239380   0.750000000
Zn       0.169760620   0.830239380   0.750000000
Zn       0.830239380   0.660478760   0.250000000
End final coordinates

     A final scf calculation at the relaxed structure.
     The G-vectors are recalculated for the final unit cell
     Results may differ from those at the preceding step.

     bravais-lattice index     =            0
     lattice parameter (alat)  =       9.9235  a.u.
     unit-cell volume          =    1359.3453 (a.u.)^3
     number of atoms/cell      =           12
     number of atomic types    =            2
     number of electrons       =       236.00
     number of Kohn-Sham states=          142
     kinetic-energy cutoff     =      40.0000  Ry
     charge density cutoff     =     160.0000  Ry
     convergence threshold     =      3.1E-05
     mixing beta               =       0.7000
     number of iterations used =            8  plain     mixing
     Exchange-correlation      = SLA-PZ-NOGX-NOGC ( 1 1 0 0 0)
     EXX-fraction              =        0.00

     celldm(1)=   9.923489  celldm(2)=   0.000000  celldm(3)=   0.000000
     celldm(4)=   0.000000  celldm(5)=   0.000000  celldm(6)=   0.000000

     crystal axes: (cart. coord. in units of alat)
               a(1) = (   1.000215   0.000000   0.000000 )
               a(2) = (  -0.500107   0.866211   0.000000 )
               a(3) = (   0.000000   0.000000   1.605534 )

     reciprocal axes: (cart. coord. in units 2 pi/alat)
               b(1) = (  0.999785  0.577226  0.000000 )
               b(2) = (  0.000000  1.154453  0.000000 )
               b(3) = (  0.000000  0.000000  0.622846 )

     PseudoPot. # 1 for Tm read from file:
     /home/cwx6513/pp.La/Tm.UPF
     MD5 check sum: 245516e0878b5372ceeb9443ded2c4e1
     Pseudo is Norm-conserving, Zval = 23.0
     Generated in analytical, separable form
     Using radial grid of 1269 points,  6 beta functions with:
                l(1) =   0
                l(2) =   0
                l(3) =   1
                l(4) =   1
                l(5) =   2
                l(6) =   3

     PseudoPot. # 2 for Gd read from file:
     /home/cwx6513/pp.La/Gd.UPF
     MD5 check sum: 09a8be538722f05520810cb6aac0efd2
     Pseudo is Norm-conserving, Zval = 18.0
     Generated in analytical, separable form
     Using radial grid of 1263 points,  6 beta functions with:
                l(1) =   0
                l(2) =   0
                l(3) =   1
                l(4) =   1
                l(5) =   2
                l(6) =   3

     atomic species   valence    mass     pseudopotential
        Mg            23.00    24.30500     Tm( 1.00)
        Zn            18.00    65.39000     Gd( 1.00)

     24 Sym. Ops., with inversion, found (12 have fractional translation)

   Cartesian axes

     site n.     atom                  positions (alat units)
         1           Mg  tau(   1) = (  -0.0000005   0.5774745   0.1006767  )
         2           Mg  tau(   2) = (   0.5001079   0.2887368   0.9034438  )
         3           Mg  tau(   3) = (   0.5001079   0.2887368   1.5048574  )
         4           Mg  tau(   4) = (  -0.0000005   0.5774745   0.7020904  )
         5           Zn  tau(   5) = (   0.0000000   0.0000000   0.0000000  )
         6           Zn  tau(   6) = (   0.0000000   0.0000000   0.8027671  )
         7           Zn  tau(   7) = (   0.0000000   0.2940972   1.2041506  )
         8           Zn  tau(   8) = (   0.7455191   0.1470486   0.4013835  )
         9           Zn  tau(   9) = (   0.2546956   0.1470486   0.4013835  )
        10           Zn  tau(  10) = (   0.2454118   0.7191628   1.2041506  )
        11           Zn  tau(  11) = (  -0.2454118   0.7191628   1.2041506  )
        12           Zn  tau(  12) = (   0.5001074   0.5721142   0.4013835  )

     number of k points=    12  gaussian smearing, width (Ry)=  0.1000
                       cart. coord. in units 2pi/alat
        k(    1) = (   0.0000000   0.0000000   0.0000000), wk =   0.0833333
        k(    2) = (   0.0000000   0.0000000   0.1557114), wk =   0.1666667
        k(    3) = (   0.0000000   0.0000000  -0.3114228), wk =   0.0833333
        k(    4) = (   0.0000000   0.3848176   0.0000000), wk =   0.1666667
        k(    5) = (   0.0000000   0.3848176   0.1557114), wk =   0.3333333
        k(    6) = (   0.0000000   0.3848176  -0.3114228), wk =   0.1666667
        k(    7) = (  -0.4998927  -0.2886132   0.0000000), wk =   0.0833333
        k(    8) = (  -0.4998927  -0.2886132   0.1557114), wk =   0.1666667
        k(    9) = (  -0.4998927  -0.2886132  -0.3114228), wk =   0.0833333
        k(   10) = (  -0.4998927   0.0962044   0.0000000), wk =   0.1666667
        k(   11) = (  -0.4998927   0.0962044   0.1557114), wk =   0.3333333
        k(   12) = (  -0.4998927   0.0962044  -0.3114228), wk =   0.1666667

     Largest allocated arrays     est. size (Mb)     dimensions
     Largest temporary arrays     est. size (Mb)     dimensions

     Initial potential from superposition of free atoms

     Starting from uniform charge
     Starting wfc are    0 randomized atomic wfcs

     Writing output data file Prototype-La-hP12-MgZn2.save

     Self-consistent Calculation

[...]

     iteration #  9     ecut=    40.00 Ry     beta=0.70
     CG style diagonalization
     c_bands:  2 eigenvalues not converged
     c_bands:  1 eigenvalues not converged
     c_bands:  1 eigenvalues not converged
     c_bands:  2 eigenvalues not converged
     ethr =  8.72E-06,  avg # of iterations =  4.0

[...]

     total energy              =   -3078.69030966 Ry
     Harris-Foulkes estimate   =   -3078.69032640 Ry
     estimated scf accuracy    <       0.00003826 Ry

     iteration # 11     ecut=    40.00 Ry     beta=0.70
     CG style diagonalization
     ethr =  1.62E-08,  avg # of iterations =  5.1

     End of self-consistent calculation

[...]

          k = 0.0000 0.3848-0.3114 (  5816 PWs)   bands (ev):

[...]

          k =-0.4999 0.0962-0.3114 (  5814 PWs)   bands (ev):

   -79.7556 -79.7556 -79.7379 -79.7378 -38.4241 -38.4241 -38.4176 -38.4176
   -38.4114 -38.4114 -38.3982 -38.3981 -38.3800 -38.3800 -38.3740 -38.3740
   -37.5391 -37.5391 -37.4176 -37.4176 -37.2805 -37.2805 -37.0916 -37.0916
    -9.8602  -9.8602  -9.3296  -9.3296  -8.9552  -8.9552  -8.8918  -8.8918
    -8.7731  -8.7731  -8.6790  -8.6790  -8.4940  -8.4940  -8.2254  -8.2254
    -8.0028  -8.0028  -7.8728  -7.8728  -7.7390  -7.7390  -7.6701  -7.6701
    10.3145  10.3145  10.3249  10.3249  10.4315  10.4315  10.5261  10.5261
    10.5559  10.5559  10.6680  10.6680  10.7053  10.7053  10.7536  10.7536
    10.8880  10.8880  10.9065  10.9065  19.3155  19.3155  20.2961  20.2961
    22.3469  22.3469  23.0229  23.0229  23.3261  23.3261  23.5924  23.5924
    23.6888  23.6888  24.1044  24.1044  24.4679  24.4679  24.6299  24.6300
    24.9791  24.9791  25.7892  25.7892  26.1220  26.1220  26.4734  26.4734
    26.7729  26.7729  27.0304  27.0305  27.5289  27.5289  27.8732  27.8732
    28.4017  28.4017  28.8161  28.8161  28.9977  28.9977  29.6909  29.6909
    30.6810  30.6810  30.9887  30.9887  32.0951  32.0951  32.5551  32.5551
    33.3099  33.3099  34.4812  34.4812  36.0545  36.0546  36.4735  36.4735
    37.1786  37.1787  37.5143  37.5143  38.1991  38.1991  39.0120  39.0120
    39.6884  39.6886  39.9444  39.9445  40.4378  40.4386

     the Fermi energy is    32.2579 ev

!    total energy              =   -3078.69041312 Ry
     Harris-Foulkes estimate   =   -3078.69042249 Ry
     estimated scf accuracy    <       0.00001090 Ry

     The total energy is the sum of the following terms:

     one-electron contribution =    -424.54405279 Ry
     hartree contribution      =     416.00974014 Ry
     xc contribution           =    -284.42906062 Ry
     ewald contribution        =   -2785.37364119 Ry
     smearing contrib. (-TS)   =      -0.35339866 Ry

     convergence has been achieved in  11 iterations

     Forces acting on atoms (Ry/au):

     atom    1 type  1   force =     0.00000000    0.00000000   -0.00605793
     atom    2 type  1   force =     0.00000000    0.00000000   -0.00605793
     atom    3 type  1   force =     0.00000000    0.00000000    0.00605793
     atom    4 type  1   force =     0.00000000    0.00000000    0.00605793
     atom    5 type  2   force =     0.00000000    0.00000000    0.00000000
     atom    6 type  2   force =     0.00000000    0.00000000    0.00000000
     atom    7 type  2   force =     0.00000000    0.05576065    0.00000000
     atom    8 type  2   force =    -0.04829014    0.02788033    0.00000000
     atom    9 type  2   force =     0.04829014    0.02788033    0.00000000
     atom   10 type  2   force =    -0.04829014   -0.02788033    0.00000000
     atom   11 type  2   force =     0.04829014   -0.02788033    0.00000000
     atom   12 type  2   force =     0.00000000   -0.05576065    0.00000000

     Total force =     0.137121     Total SCF correction =     0.000000

     entering subroutine stress ...

          total   stress  (Ry/bohr**3)                   (kbar)     P=  725.36
   0.00490137   0.00000000   0.00000000        721.02      0.00      0.00
   0.00000000   0.00490137   0.00000000          0.00    721.02      0.00
   0.00000000   0.00000000   0.00498993          0.00      0.00    734.04

     Writing output data file Prototype-La-hP12-MgZn2.save

     General routines

     Parallel routines

   This run was terminated on:  21:56:41  22Mar2018

   JOB DONE.