     Program PWSCF v.5.0.2 starts on 22Mar2018 at 16:17:21

     Current dimensions of program PWSCF are:
     Max number of different atomic species (ntypx) = 10
     Max number of k-points (npk) =  40000
     Max angular momentum in pseudopotentials (lmaxx) =  3
     Waiting for input...
     Reading input from standard input

     Subspace diagonalization in iterative solution of the eigenvalue problem:
     a serial algorithm will be used

     bravais-lattice index     =            0
     lattice parameter (alat)  =       9.9235  a.u.
     unit-cell volume          =    1361.0366 (a.u.)^3
     number of atoms/cell      =           12
     number of atomic types    =            2
     number of electrons       =       212.00
     number of Kohn-Sham states=          127
     kinetic-energy cutoff     =      40.0000  Ry
     charge density cutoff     =     160.0000  Ry
     convergence threshold     =      1.0E-04
     mixing beta               =       0.7000
     number of iterations used =            8  plain     mixing
     Exchange-correlation      = SLA-PZ-NOGX-NOGC ( 1 1 0 0 0)
     EXX-fraction              =        0.00
     nstep                     =           50

     celldm(1)=   9.923489  celldm(2)=   0.000000  celldm(3)=   0.000000
     celldm(4)=   0.000000  celldm(5)=   0.000000  celldm(6)=   0.000000

     crystal axes: (cart. coord. in units of alat)
               a(1) = (   1.000000   0.000000   0.000000 )
               a(2) = (  -0.500000   0.866025   0.000000 )
               a(3) = (   0.000000   0.000000   1.608222 )

     reciprocal axes: (cart. coord. in units 2 pi/alat)
               b(1) = (  1.000000  0.577350  0.000000 )
               b(2) = (  0.000000  1.154701  0.000000 )
               b(3) = (  0.000000  0.000000  0.621805 )

     PseudoPot. # 1 for Pr read from file:
     /home/cwx6513/pp.La/Pr.UPF
     MD5 check sum: 70e2b4b153859e92c8c91247dfc63203
     Pseudo is Norm-conserving, Zval = 13.0
     Generated in analytical, separable form
     Using radial grid of 1255 points,  6 beta functions with:
                l(1) =   0
                l(2) =   0
                l(3) =   1
                l(4) =   1
                l(5) =   2
                l(6) =   3

     PseudoPot. # 2 for Dy read from file:
     /home/cwx6513/pp.La/Dy.UPF
     MD5 check sum: 9597327bec62616a94a14d07f3fd9936
     Pseudo is Norm-conserving, Zval = 20.0
     Generated in analytical, separable form
     Using radial grid of 1265 points,  6 beta functions with:
                l(1) =   0
                l(2) =   0
                l(3) =   1
                l(4) =   1
                l(5) =   2
                l(6) =   3

     atomic species   valence    mass     pseudopotential
        Mg            13.00    24.30500     Pr( 1.00)
        Zn            20.00    65.39000     Dy( 1.00)

     24 Sym. Ops., with inversion, found (12 have fractional translation)

   Cartesian axes

     site n.     atom                  positions (alat units)
         1           Mg  tau(   1) = (  -0.0000005   0.5773506   0.1003820  )
         2           Mg  tau(   2) = (   0.5000005   0.2886748   0.9044931  )
         3           Mg  tau(   3) = (   0.5000005   0.2886748   1.5078402  )
         4           Mg  tau(   4) = (  -0.0000005   0.5773506   0.7037291  )
         5           Zn  tau(   5) = (   0.0000000   0.0000000   0.0000000  )
         6           Zn  tau(   6) = (   0.0000000   0.0000000   0.8041111  )
         7           Zn  tau(   7) = (   0.0000000   0.2950739   1.2061667  )
         8           Zn  tau(   8) = (   0.7444585   0.1475370   0.4020556  )
         9           Zn  tau(   9) = (   0.2555415   0.1475370   0.4020556  )
        10           Zn  tau(  10) = (   0.2444585   0.7184884   1.2061667  )
        11           Zn  tau(  11) = (  -0.2444585   0.7184884   1.2061667  )
        12           Zn  tau(  12) = (   0.5000000   0.5709515   0.4020556  )

     number of k points=    12  gaussian smearing, width (Ry)=  0.1000
                       cart. coord. in units 2pi/alat
        k(    1) = (   0.0000000   0.0000000   0.0000000), wk =   0.0833333
        k(    2) = (   0.0000000   0.0000000   0.1554512), wk =   0.1666667
        k(    3) = (   0.0000000   0.0000000  -0.3109023), wk =   0.0833333
        k(    4) = (   0.0000000   0.3849002   0.0000000), wk =   0.1666667
        k(    5) = (   0.0000000   0.3849002   0.1554512), wk =   0.3333333
        k(    6) = (   0.0000000   0.3849002  -0.3109023), wk =   0.1666667
        k(    7) = (  -0.5000000  -0.2886751   0.0000000), wk =   0.0833333
        k(    8) = (  -0.5000000  -0.2886751   0.1554512), wk =   0.1666667
        k(    9) = (  -0.5000000  -0.2886751  -0.3109023), wk =   0.0833333
        k(   10) = (  -0.5000000   0.0962250   0.0000000), wk =   0.1666667
        k(   11) = (  -0.5000000   0.0962250   0.1554512), wk =   0.3333333
        k(   12) = (  -0.5000000   0.0962250  -0.3109023), wk =   0.1666667

     Largest allocated arrays     est. size (Mb)     dimensions
     Largest temporary arrays     est. size (Mb)     dimensions

     Initial potential from superposition of free atoms
     Check: negative starting charge=   -0.002087

     starting charge   51.96217, renormalised to  212.00000

     negative rho (up, down):  0.852E-02 0.000E+00
     Starting wfc are   80 randomized atomic wfcs

     Self-consistent Calculation

     iteration #  1     ecut=    40.00 Ry     beta=0.70
     CG style diagonalization
     c_bands:  4 eigenvalues not converged
     c_bands:  3 eigenvalues not converged
     c_bands:  2 eigenvalues not converged
     c_bands:  5 eigenvalues not converged
     c_bands:  4 eigenvalues not converged
     c_bands:  3 eigenvalues not converged
     c_bands:  1 eigenvalues not converged
     c_bands:  3 eigenvalues not converged
     c_bands:  2 eigenvalues not converged
     c_bands:  2 eigenvalues not converged
     c_bands:  5 eigenvalues not converged
     c_bands:  4 eigenvalues not converged
     ethr =  1.00E-02,  avg # of iterations = 34.3

     negative rho (up, down):  0.254E-02 0.000E+00

     total energy              =   -1788.87576890 Ry
     Harris-Foulkes estimate   =   -6751.63011246 Ry
     estimated scf accuracy    <    5788.08263191 Ry

[...]

     iteration #  3     ecut=    40.00 Ry     beta=0.70
     CG style diagonalization
     ethr =  1.00E-02,  avg # of iterations = 18.6

[...]

     End of self-consistent calculation

          k = 0.0000 0.0000 0.0000 (  5769 PWs)   bands (ev):

   -53.6431 -53.5855 -53.5249 -53.4394 -53.4223 -53.4223 -53.4167 -53.4166
   -21.8612 -21.6109 -21.2786 -20.8827 -20.8827 -20.8234 -20.8234 -20.7522
   -20.7522 -20.6119 -20.5589 -20.3907 -20.3907 -20.3893 -20.3893 -20.0893
   -20.0623 -20.0623 -20.0392 -20.0392 -20.0163 -20.0079 -20.0079 -20.0046
   -12.2848 -12.1850 -12.0545 -11.9639   7.1474   7.1753   7.2031   7.2032
     7.2273   7.2273   7.9877   7.9983   8.0177   8.0177   8.0914   8.0914
    14.8697  15.5896  16.1185  17.0666  17.0666  17.4225  17.4225  17.7669
    17.8640  17.8640  18.2259  18.2259  19.0832  19.0847  19.3140  19.3140
    19.7427  19.9714  19.9714  20.7847  20.9106  20.9106  20.9643  20.9643
    20.9986  21.9297  21.9515  21.9515  21.9923  21.9923  22.0436  22.0591
    22.0591  22.1562  22.1562  22.5183  23.4239  23.4240  23.9181  24.1250
    24.1250  25.1510  25.1536  26.5092  26.8682  26.8682  27.1011  27.1011
    27.5141  27.9097  28.1556  28.1556  28.8439  28.8439  29.2364  29.2364
    30.0575  30.0576  31.2046  31.4862  32.7649  33.3954  33.3954  33.4089
    33.4089  35.0367  35.0367  35.9515  35.9516  36.0013  36.0686  36.0685
    36.1864  36.3127  36.8580  36.8612  37.0095  37.0048  37.2281

[...]

          k =-0.5000-0.2887 0.0000 (  5800 PWs)   bands (ev):

[...]

     the Fermi energy is    30.8455 ev

!    total energy              =   -2453.82064054 Ry
     Harris-Foulkes estimate   =   -2453.82067986 Ry
     estimated scf accuracy    <       0.00004512 Ry

     The total energy is the sum of the following terms:

     one-electron contribution =    -379.17323630 Ry
     hartree contribution      =     379.56159740 Ry
     xc contribution           =    -242.16710446 Ry
     ewald contribution        =   -2211.68616077 Ry
     smearing contrib. (-TS)   =      -0.35573641 Ry

     convergence has been achieved in  11 iterations

     Forces acting on atoms (Ry/au):

     atom    1 type  1   force =     0.00000000    0.00000000    0.01561111
     atom    2 type  1   force =     0.00000000    0.00000000    0.01561111
     atom    3 type  1   force =     0.00000000    0.00000000   -0.01561111
     atom    4 type  1   force =     0.00000000    0.00000000   -0.01561111
     atom    5 type  2   force =     0.00000000    0.00000000    0.00000000
     atom    6 type  2   force =     0.00000000    0.00000000    0.00000000
     atom    7 type  2   force =     0.00000000    0.06911822    0.00000000
     atom    8 type  2   force =    -0.05985813    0.03455911    0.00000000
     atom    9 type  2   force =     0.05985813    0.03455911    0.00000000
     atom   10 type  2   force =    -0.05985813   -0.03455911    0.00000000
     atom   11 type  2   force =     0.05985813   -0.03455911    0.00000000
     atom   12 type  2   force =     0.00000000   -0.06911822    0.00000000

     Total force =     0.172159     Total SCF correction =     0.000252

     entering subroutine stress ...

          total   stress  (Ry/bohr**3)                   (kbar)     P= 1011.41
   0.00690256   0.00000000   0.00000000       1015.40      0.00      0.00
   0.00000000   0.00690256   0.00000000          0.00   1015.40      0.00
   0.00000000   0.00000000   0.00682112          0.00      0.00   1003.42

     BFGS Geometry Optimization

     number of scf cycles    =   1
     number of bfgs steps    =   0

     enthalpy new            =   -2453.8206405439 Ry

     new trust radius        =       0.5000000000 bohr
     new conv_thr            =       0.0001000000 Ry

     new unit-cell volume =   1655.66128 a.u.^3 (   245.34369 Ang^3 )

CELL_PARAMETERS (alat=  9.92348860)
   1.067764947   0.000000000   0.000000000
  -0.533882474   0.924711570   0.000000000
   0.000000000   0.000000000   1.715917545

ATOMIC_POSITIONS (crystal)
Mg       0.333333000   0.666667000   0.062802130
Mg       0.666667000   0.333333000   0.562802130
Mg       0.666667000   0.333333000   0.937197870
Mg       0.333333000   0.666667000   0.437197870
Zn       0.000000000   0.000000000   0.000000000
Zn       0.000000000   0.000000000   0.500000000
Zn       0.171940147   0.343880295   0.750000000
Zn       0.828059853   0.171940147   0.250000000
Zn       0.343880295   0.171940147   0.250000000
Zn       0.656119705   0.828059853   0.750000000
Zn       0.171940147   0.828059853   0.750000000
Zn       0.828059853   0.656119705   0.250000000

     Writing output data file Prototype-La-hP12-MgZn2.save
     Check: negative starting charge=   -0.002087
     NEW-OLD atomic charge density approx. for the potential
     NEW k-points:
        k(    1) = (   0.0000000   0.0000000   0.0000000), wk =   0.0833333
        k(    2) = (   0.0000000   0.0000000   0.1456946), wk =   0.1666667
        k(    3) = (   0.0000000   0.0000000  -0.2913893), wk =   0.0833333
        k(    4) = (   0.0000000   0.3604728   0.0000000), wk =   0.1666667
        k(    5) = (   0.0000000   0.3604728   0.1456946), wk =   0.3333333
        k(    6) = (   0.0000000   0.3604728  -0.2913893), wk =   0.1666667
        k(    7) = (  -0.4682679  -0.2703546   0.0000000), wk =   0.0833333
        k(    8) = (  -0.4682679  -0.2703546   0.1456946), wk =   0.1666667
        k(    9) = (  -0.4682679  -0.2703546  -0.2913893), wk =   0.0833333
        k(   10) = (  -0.4682679   0.0901182   0.0000000), wk =   0.1666667
        k(   11) = (  -0.4682679   0.0901182   0.1456946), wk =   0.3333333
        k(   12) = (  -0.4682679   0.0901182  -0.2913893), wk =   0.1666667
     Check: negative starting charge=   -0.007062

     negative rho (up, down):  0.477E-02 0.000E+00
     extrapolated charge  221.24666, renormalised to  212.00000

[...]

     enthalpy old            =   -2453.8206405439 Ry
     enthalpy new            =   -2454.5340053317 Ry

     CASE: enthalpy_new < enthalpy_old

     small trust_radius: resetting bfgs history

     new trust radius        =       0.2141729992 bohr
     new conv_thr            =       0.0000116278 Ry

[...]

     Writing output data file Prototype-La-hP12-MgZn2.save
     Check: negative starting charge=   -0.007062
     NEW-OLD atomic charge density approx. for the potential
     NEW k-points:
        k(    1) = (   0.0000000   0.0000000   0.0000000), wk =   0.0833333
        k(    2) = (   0.0000000   0.0000000   0.1496326), wk =   0.1666667
        k(    3) = (   0.0000000   0.0000000  -0.2992653), wk =   0.0833333
        k(    4) = (   0.0000000   0.3687074   0.0000000), wk =   0.1666667
        k(    5) = (   0.0000000   0.3687074   0.1496326), wk =   0.3333333
        k(    6) = (   0.0000000   0.3687074  -0.2992653), wk =   0.1666667
        k(    7) = (  -0.4789650  -0.2765306   0.0000000), wk =   0.0833333
        k(    8) = (  -0.4789650  -0.2765306   0.1496326), wk =   0.1666667
        k(    9) = (  -0.4789650  -0.2765306  -0.2992653), wk =   0.0833333
        k(   10) = (  -0.4789650   0.0921769   0.0000000), wk =   0.1666667
        k(   11) = (  -0.4789650   0.0921769   0.1496326), wk =   0.3333333
        k(   12) = (  -0.4789650   0.0921769  -0.2992653), wk =   0.1666667
     Check: negative starting charge=   -0.004921

     negative rho (up, down):  0.455E-01 0.000E+00
     extrapolated charge  208.12943, renormalised to  212.00000

[...]

     Total force =     0.022788     Total SCF correction =     0.007384
     SCF correction compared to forces is large: reduce conv_thr to get better values

[...]

     number of scf cycles    =   3
     number of bfgs steps    =   2

     enthalpy old            =   -2454.5340053317 Ry
     enthalpy new            =   -2454.5202840871 Ry

     CASE: enthalpy_new > enthalpy_old

     new trust radius        =       0.0945746941 bohr

     trust_radius < trust_radius_min

     resetting bfgs history

     Message from routine bfgs:
     history already reset at previous step: stopping
     new conv_thr            =       0.0000116278 Ry

     new unit-cell volume =   1538.20445 a.u.^3 (   227.93838 Ang^3 )

[...]

ATOMIC_POSITIONS (crystal)
Mg       0.333333000   0.666667000   0.063522409
Mg       0.666667000   0.333333000   0.563522409
Mg       0.666667000   0.333333000   0.936477591
Mg       0.333333000   0.666667000   0.436477591
Zn       0.000000000   0.000000000   0.000000000
Zn       0.000000000   0.000000000   0.500000000
Zn       0.171693590   0.343387180   0.750000000
Zn       0.828306410   0.171693590   0.250000000
Zn       0.343387180   0.171693590   0.250000000
Zn       0.656612820   0.828306410   0.750000000
Zn       0.171693590   0.828306410   0.750000000
Zn       0.828306410   0.656612820   0.250000000

     Writing output data file Prototype-La-hP12-MgZn2.save
     Check: negative starting charge=   -0.004921
     NEW-OLD atomic charge density approx. for the potential
     NEW k-points:
        k(    1) = (   0.0000000   0.0000000   0.0000000), wk =   0.0833333
        k(    2) = (   0.0000000   0.0000000   0.1497082), wk =   0.1666667
        k(    3) = (   0.0000000   0.0000000  -0.2994164), wk =   0.0833333
        k(    4) = (   0.0000000   0.3689352   0.0000000), wk =   0.1666667
        k(    5) = (   0.0000000   0.3689352   0.1497082), wk =   0.3333333
        k(    6) = (   0.0000000   0.3689352  -0.2994164), wk =   0.1666667
        k(    7) = (  -0.4792609  -0.2767014   0.0000000), wk =   0.0833333
        k(    8) = (  -0.4792609  -0.2767014   0.1497082), wk =   0.1666667
        k(    9) = (  -0.4792609  -0.2767014  -0.2994164), wk =   0.0833333
        k(   10) = (  -0.4792609   0.0922338   0.0000000), wk =   0.1666667
        k(   11) = (  -0.4792609   0.0922338   0.1497082), wk =   0.3333333
        k(   12) = (  -0.4792609   0.0922338  -0.2994164), wk =   0.1666667
     Check: negative starting charge=   -0.004864
     extrapolated charge  211.90950, renormalised to  212.00000

[...]

     Total force =     0.023751     Total SCF correction =     0.000445

[...]

     The maximum number of steps has been reached.

     End of BFGS Geometry Optimization
Begin final coordinates
     new unit-cell volume =   1538.20445 a.u.^3 (   227.93838 Ang^3 )

CELL_PARAMETERS (alat=  9.92348860)
   1.043272994   0.000000000   0.000000000
  -0.521636497   0.903500916   0.000000000
   0.000000000   0.000000000   1.669915032

ATOMIC_POSITIONS (crystal)
Mg       0.333333000   0.666667000   0.063522409
Mg       0.666667000   0.333333000   0.563522409
Mg       0.666667000   0.333333000   0.936477591
Mg       0.333333000   0.666667000   0.436477591
Zn       0.000000000   0.000000000   0.000000000
Zn       0.000000000   0.000000000   0.500000000
Zn       0.171693590   0.343387180   0.750000000
Zn       0.828306410   0.171693590   0.250000000
Zn       0.343387180   0.171693590   0.250000000
Zn       0.656612820   0.828306410   0.750000000
Zn       0.171693590   0.828306410   0.750000000
Zn       0.828306410   0.656612820   0.250000000
End final coordinates

     A final scf calculation at the relaxed structure.
     The G-vectors are recalculated for the final unit cell
     Results may differ from those at the preceding step.

     bravais-lattice index     =            0
     lattice parameter (alat)  =       9.9235  a.u.
     unit-cell volume          =    1538.2044 (a.u.)^3
     number of atoms/cell      =           12
     number of atomic types    =            2
     number of electrons       =       212.00
     number of Kohn-Sham states=          127
     kinetic-energy cutoff     =      40.0000  Ry
     charge density cutoff     =     160.0000  Ry
     convergence threshold     =      1.2E-05
     mixing beta               =       0.7000
     number of iterations used =            8  plain     mixing
     Exchange-correlation      = SLA-PZ-NOGX-NOGC ( 1 1 0 0 0)
     EXX-fraction              =        0.00

     celldm(1)=   9.923489  celldm(2)=   0.000000  celldm(3)=   0.000000
     celldm(4)=   0.000000  celldm(5)=   0.000000  celldm(6)=   0.000000

     crystal axes: (cart. coord. in units of alat)
               a(1) = (   1.043273   0.000000   0.000000 )
               a(2) = (  -0.521636   0.903501   0.000000 )
               a(3) = (   0.000000   0.000000   1.669915 )

     reciprocal axes: (cart. coord. in units 2 pi/alat)
               b(1) = (  0.958522  0.553403  0.000000 )
               b(2) = (  0.000000  1.106806  0.000000 )
               b(3) = (  0.000000  0.000000  0.598833 )

     PseudoPot. # 1 for Pr read from file:
     /home/cwx6513/pp.La/Pr.UPF
     MD5 check sum: 70e2b4b153859e92c8c91247dfc63203
     Pseudo is Norm-conserving, Zval = 13.0
     Generated in analytical, separable form
     Using radial grid of 1255 points,  6 beta functions with:
                l(1) =   0
                l(2) =   0
                l(3) =   1
                l(4) =   1
                l(5) =   2
                l(6) =   3

     PseudoPot. # 2 for Dy read from file:
     /home/cwx6513/pp.La/Dy.UPF
     MD5 check sum: 9597327bec62616a94a14d07f3fd9936
     Pseudo is Norm-conserving, Zval = 20.0
     Generated in analytical, separable form
     Using radial grid of 1265 points,  6 beta functions with:
                l(1) =   0
                l(2) =   0
                l(3) =   1
                l(4) =   1
                l(5) =   2
                l(6) =   3

     atomic species   valence    mass     pseudopotential
        Mg            13.00    24.30500     Pr( 1.00)
        Zn            20.00    65.39000     Dy( 1.00)

     24 Sym. Ops., with inversion, found (12 have fractional translation)

   Cartesian axes

     site n.     atom                  positions (alat units)
         1           Mg  tau(   1) = (  -0.0000005   0.6023342   0.1060770  )
         2           Mg  tau(   2) = (   0.5216370   0.3011667   0.9410345  )
         3           Mg  tau(   3) = (   0.5216370   0.3011667   1.5638380  )
         4           Mg  tau(   4) = (  -0.0000005   0.6023342   0.7288805  )
         5           Zn  tau(   5) = (   0.0000000   0.0000000   0.0000000  )
         6           Zn  tau(   6) = (   0.0000000   0.0000000   0.8349575  )
         7           Zn  tau(   7) = (   0.0000000   0.3102506   1.2524363  )
         8           Zn  tau(   8) = (   0.7745881   0.1551253   0.4174788  )
         9           Zn  tau(   9) = (   0.2686849   0.1551253   0.4174788  )
        10           Zn  tau(  10) = (   0.2529516   0.7483756   1.2524363  )
        11           Zn  tau(  11) = (  -0.2529516   0.7483756   1.2524363  )
        12           Zn  tau(  12) = (   0.5216365   0.5932503   0.4174788  )

     number of k points=    12  gaussian smearing, width (Ry)=  0.1000
                       cart. coord. in units 2pi/alat
        k(    1) = (   0.0000000   0.0000000   0.0000000), wk =   0.0833333
        k(    2) = (   0.0000000   0.0000000   0.1497082), wk =   0.1666667
        k(    3) = (   0.0000000   0.0000000  -0.2994164), wk =   0.0833333
        k(    4) = (   0.0000000   0.3689352   0.0000000), wk =   0.1666667
        k(    5) = (   0.0000000   0.3689352   0.1497082), wk =   0.3333333
        k(    6) = (   0.0000000   0.3689352  -0.2994164), wk =   0.1666667
        k(    7) = (  -0.4792609  -0.2767014   0.0000000), wk =   0.0833333
        k(    8) = (  -0.4792609  -0.2767014   0.1497082), wk =   0.1666667
        k(    9) = (  -0.4792609  -0.2767014  -0.2994164), wk =   0.0833333
        k(   10) = (  -0.4792609   0.0922338   0.0000000), wk =   0.1666667
        k(   11) = (  -0.4792609   0.0922338   0.1497082), wk =   0.3333333
        k(   12) = (  -0.4792609   0.0922338  -0.2994164), wk =   0.1666667

     Largest allocated arrays     est. size (Mb)     dimensions
     Largest temporary arrays     est. size (Mb)     dimensions

     Initial potential from superposition of free atoms
     Check: negative starting charge=   -0.001174

     starting charge   51.96217, renormalised to  212.00000

     negative rho (up, down):  0.479E-02 0.000E+00
     Starting wfc are   80 randomized atomic wfcs

     Writing output data file Prototype-La-hP12-MgZn2.save

     Self-consistent Calculation

[...]

     negative rho (up, down):  0.835E-04 0.000E+00

[...]

     iteration # 11     ecut=    40.00 Ry     beta=0.70
     CG style diagonalization
     c_bands:  1 eigenvalues not converged
     ethr =  1.08E-06,  avg # of iterations =  3.4

     total energy              =   -2455.25715370 Ry
     Harris-Foulkes estimate   =   -2455.25719198 Ry
     estimated scf accuracy    <       0.00007548 Ry

     iteration # 12     ecut=    40.00 Ry     beta=0.70
     CG style diagonalization
     ethr =  3.56E-08,  avg # of iterations =  4.0

     End of self-consistent calculation

[...]

          k = 0.0000 0.3689-0.2994 (  6582 PWs)   bands (ev):

[...]

          k =-0.4793 0.0922-0.2994 (  6572 PWs)   bands (ev):

   -56.9335 -56.9335 -56.8930 -56.8930 -56.8418 -56.8418 -56.8326 -56.8326
   -24.4585 -24.4585 -24.2578 -24.2578 -24.0025 -24.0025 -23.9728 -23.9728
   -23.9289 -23.9289 -23.8835 -23.8835 -23.7562 -23.7562 -23.6869 -23.6869
   -23.6181 -23.6181 -23.5917 -23.5917 -23.5749 -23.5749 -23.5444 -23.5444
   -16.3477 -16.3477 -16.2772 -16.2771   3.2603   3.2604   3.2957   3.2957
     3.4860   3.4861   3.7695   3.7696   3.9789   3.9790   3.9930   3.9930
    13.9220  13.9220  14.7771  14.7771  15.0636  15.0636  15.3232  15.3232
    15.4625  15.4626  15.9220  15.9220  16.2431  16.2431  16.3271  16.3271
    16.7004  16.7004  16.8349  16.8349  17.0540  17.0540  17.3392  17.3392
    17.5651  17.5651  17.9900  17.9900  18.1496  18.1496  18.4045  18.4045
    18.5248  18.5248  18.6008  18.6008  18.7972  18.7972  19.1220  19.1220
    19.8774  19.8774  20.7098  20.7098  22.8478  22.8478  23.6007  23.6007
    24.7760  24.7760  25.3280  25.3280  25.4024  25.4024  25.7747  25.7747
    26.3341  26.3342  27.3362  27.3362  27.8926  27.8926  28.3521  28.3522
    28.8032  28.8033  29.1166  29.1166  30.6317  30.6317  31.5483  31.5483
    32.1293  32.1293  32.8879  32.8880  33.7563  33.7566  34.3326

     the Fermi energy is    26.7463 ev

!    total energy              =   -2455.25718433 Ry
     Harris-Foulkes estimate   =   -2455.25718699 Ry
     estimated scf accuracy    <       0.00000098 Ry

     The total energy is the sum of the following terms:

     one-electron contribution =    -503.82710751 Ry
     hartree contribution      =     413.38442123 Ry
     xc contribution           =    -239.80901740 Ry
     ewald contribution        =   -2124.60156254 Ry
     smearing contrib. (-TS)   =      -0.40391811 Ry

     convergence has been achieved in  12 iterations

     Forces acting on atoms (Ry/au):

     atom    1 type  1   force =     0.00000000    0.00000000    0.01021575
     atom    2 type  1   force =     0.00000000    0.00000000    0.01021575
     atom    3 type  1   force =     0.00000000    0.00000000   -0.01021575
     atom    4 type  1   force =     0.00000000    0.00000000   -0.01021575
     atom    5 type  2   force =     0.00000000    0.00000000    0.00000000
     atom    6 type  2   force =     0.00000000    0.00000000    0.00000000
     atom    7 type  2   force =     0.00000000    0.00474406    0.00000000
     atom    8 type  2   force =    -0.00410848    0.00237203    0.00000000
     atom    9 type  2   force =     0.00410848    0.00237203    0.00000000
     atom   10 type  2   force =    -0.00410848   -0.00237203    0.00000000
     atom   11 type  2   force =     0.00410848   -0.00237203    0.00000000
     atom   12 type  2   force =     0.00000000   -0.00474406    0.00000000

     Total force =     0.023505     Total SCF correction =     0.002364
     SCF correction compared to forces is large: reduce conv_thr to get better values

     entering subroutine stress ...

          total   stress  (Ry/bohr**3)                   (kbar)     P=  372.37
   0.00257951   0.00000000   0.00000000        379.46      0.00      0.00
   0.00000000   0.00257951   0.00000000          0.00    379.46      0.00
   0.00000000   0.00000000   0.00243497          0.00      0.00    358.20

     Writing output data file Prototype-La-hP12-MgZn2.save

     General routines

     Parallel routines

   This run was terminated on:  16:59:42  22Mar2018

   JOB DONE.