     Program PWSCF v.5.0.2 starts on 22Mar2018 at 16:17:21

     Current dimensions of program PWSCF are:
     Max number of different atomic species (ntypx) = 10
     Max number of k-points (npk) =  40000
     Max angular momentum in pseudopotentials (lmaxx) =  3
     Waiting for input...
     Reading input from standard input

     Subspace diagonalization in iterative solution of the eigenvalue problem:
     a serial algorithm will be used

     bravais-lattice index     =            0
     lattice parameter (alat)  =      12.0168  a.u.
     unit-cell volume          =    1187.3413 (a.u.)^3
     number of atoms/cell      =            8
     number of atomic types    =            2
     number of electrons       =       118.00
     number of Kohn-Sham states=           71
     kinetic-energy cutoff     =      40.0000  Ry
     charge density cutoff     =     160.0000  Ry
     convergence threshold     =      1.0E-04
     mixing beta               =       0.7000
     number of iterations used =            8  plain     mixing
     Exchange-correlation      = SLA-PZ-NOGX-NOGC ( 1 1 0 0 0)
     EXX-fraction              =        0.00
     nstep                     =           50

     celldm(1)=  12.016801  celldm(2)=   0.000000  celldm(3)=   0.000000
     celldm(4)=   0.000000  celldm(5)=   0.000000  celldm(6)=   0.000000

     crystal axes: (cart. coord. in units of alat)
               a(1) = (   1.000000   0.000000   0.000000 )
               a(2) = (  -0.500000   0.866025   0.000000 )
               a(3) = (   0.000000   0.000000   0.790093 )

     reciprocal axes: (cart. coord. in units 2 pi/alat)
               b(1) = (  1.000000  0.577350  0.000000 )
               b(2) = (  0.000000  1.154701  0.000000 )
               b(3) = (  0.000000  0.000000  1.265674 )

     PseudoPot. # 1 for Pr read from file:
     /home/cwx6513/pp.La/Pr.UPF
     MD5 check sum: 70e2b4b153859e92c8c91247dfc63203
     Pseudo is Norm-conserving, Zval = 13.0
     Generated in analytical, separable form
     Using radial grid of 1255 points,  6 beta functions with:
                l(1) =   0
                l(2) =   0
                l(3) =   1
                l(4) =   1
                l(5) =   2
                l(6) =   3

     PseudoPot. # 2 for Dy read from file:
     /home/cwx6513/pp.La/Dy.UPF
     MD5 check sum: 9597327bec62616a94a14d07f3fd9936
     Pseudo is Norm-conserving, Zval = 20.0
     Generated in analytical, separable form
     Using radial grid of 1265 points,  6 beta functions with:
                l(1) =   0
                l(2) =   0
                l(3) =   1
                l(4) =   1
                l(5) =   2
                l(6) =   3

     atomic species   valence    mass     pseudopotential
        Mg            13.00    24.30500     Pr( 1.00)
        Cd            20.00   112.41100     Dy( 1.00)

     24 Sym. Ops., with inversion, found (12 have fractional translation)

   Cartesian axes

     site n.     atom                  positions (alat units)
         1           Mg  tau(   1) = (   0.2478935   0.7204716   0.1975233  )
         2           Mg  tau(   2) = (   0.7478935   0.1455538   0.5925699  )
         3           Mg  tau(   3) = (   0.2521065   0.1455538   0.5925699  )
         4           Mg  tau(   4) = (  -0.2478935   0.7204716   0.1975233  )
         5           Mg  tau(   5) = (   0.0000000   0.2911075   0.1975233  )
         6           Mg  tau(   6) = (   0.5000000   0.5749179   0.5925699  )
         7           Cd  tau(   7) = (   0.5000005   0.2886748   0.1975233  )
         8           Cd  tau(   8) = (  -0.0000005   0.5773506   0.5925699  )

     number of k points=    64  gaussian smearing, width (Ry)=  0.1000
                       cart. coord. in units 2pi/alat
        k(    1) = (   0.0000000   0.0000000   0.0000000), wk =   0.0095238
        k(    2) = (   0.0000000   0.0000000   0.1808105), wk =   0.0190476
        k(    3) = (   0.0000000   0.0000000   0.3616210), wk =   0.0190476
        k(    4) = (   0.0000000   0.0000000   0.5424315), wk =   0.0190476
        k(    5) = (   0.0000000   0.1924501   0.0000000), wk =   0.0190476
        k(    6) = (   0.0000000   0.1924501   0.1808105), wk =   0.0380952
        k(    7) = (   0.0000000   0.1924501   0.3616210), wk =   0.0380952
        k(    8) = (   0.0000000   0.1924501   0.5424315), wk =   0.0380952
        k(    9) = (   0.0000000   0.3849002   0.0000000), wk =   0.0190476
        k(   10) = (   0.0000000   0.3849002   0.1808105), wk =   0.0380952
        k(   11) = (   0.0000000   0.3849002   0.3616210), wk =   0.0380952
        k(   12) = (   0.0000000   0.3849002   0.5424315), wk =   0.0380952
        k(   13) = (   0.0000000  -0.5773503   0.0000000), wk =   0.0095238
        k(   14) = (   0.0000000  -0.5773503   0.1808105), wk =   0.0190476
        k(   15) = (   0.0000000  -0.5773503   0.3616210), wk =   0.0190476
        k(   16) = (   0.0000000  -0.5773503   0.5424315), wk =   0.0190476
        k(   17) = (   0.2000000   0.1154701   0.0000000), wk =   0.0190476
        k(   18) = (   0.2000000   0.1154701   0.1808105), wk =   0.0380952
        k(   19) = (   0.2000000   0.1154701   0.3616210), wk =   0.0380952
        k(   20) = (   0.2000000   0.1154701   0.5424315), wk =   0.0380952
        k(   21) = (   0.2000000   0.3079201   0.0000000), wk =   0.0190476
        k(   22) = (   0.2000000   0.3079201   0.1808105), wk =   0.0380952
        k(   23) = (   0.2000000   0.3079201   0.3616210), wk =   0.0380952
        k(   24) = (   0.2000000   0.3079201   0.5424315), wk =   0.0380952
        k(   25) = (   0.2000000   0.5003702   0.0000000), wk =   0.0190476
        k(   26) = (   0.2000000   0.5003702   0.1808105), wk =   0.0380952
        k(   27) = (   0.2000000   0.5003702   0.3616210), wk =   0.0380952
        k(   28) = (   0.2000000   0.5003702   0.5424315), wk =   0.0380952
        k(   29) = (   0.2000000  -0.4618802   0.0000000), wk =   0.0190476
        k(   30) = (   0.2000000  -0.4618802   0.1808105), wk =   0.0380952
        k(   31) = (   0.2000000  -0.4618802   0.3616210), wk =   0.0380952
        k(   32) = (   0.2000000  -0.4618802   0.5424315), wk =   0.0380952
        k(   33) = (   0.2000000  -0.2694301   0.0000000), wk =   0.0190476
        k(   34) = (   0.2000000  -0.2694301   0.1808105), wk =   0.0380952
        k(   35) = (   0.2000000  -0.2694301   0.3616210), wk =   0.0380952
        k(   36) = (   0.2000000  -0.2694301   0.5424315), wk =   0.0380952
        k(   37) = (   0.2000000  -0.0769800   0.0000000), wk =   0.0190476
        k(   38) = (   0.2000000  -0.0769800   0.1808105), wk =   0.0380952
        k(   39) = (   0.2000000  -0.0769800   0.3616210), wk =   0.0380952
        k(   40) = (   0.2000000  -0.0769800   0.5424315), wk =   0.0380952
        k(   41) = (   0.4000000   0.2309401   0.0000000), wk =   0.0190476
        k(   42) = (   0.4000000   0.2309401   0.1808105), wk =   0.0380952
        k(   43) = (   0.4000000   0.2309401   0.3616210), wk =   0.0380952
        k(   44) = (   0.4000000   0.2309401   0.5424315), wk =   0.0380952
        k(   45) = (   0.4000000   0.4233902   0.0000000), wk =   0.0190476
        k(   46) = (   0.4000000   0.4233902   0.1808105), wk =   0.0380952
        k(   47) = (   0.4000000   0.4233902   0.3616210), wk =   0.0380952
        k(   48) = (   0.4000000   0.4233902   0.5424315), wk =   0.0380952
        k(   49) = (   0.4000000   0.6158403   0.0000000), wk =   0.0190476
        k(   50) = (   0.4000000   0.6158403   0.1808105), wk =   0.0380952
        k(   51) = (   0.4000000   0.6158403   0.3616210), wk =   0.0380952
        k(   52) = (   0.4000000   0.6158403   0.5424315), wk =   0.0380952
        k(   53) = (   0.4000000  -0.3464102   0.0000000), wk =   0.0190476
        k(   54) = (   0.4000000  -0.3464102   0.1808105), wk =   0.0380952
        k(   55) = (   0.4000000  -0.3464102   0.3616210), wk =   0.0380952
        k(   56) = (   0.4000000  -0.3464102   0.5424315), wk =   0.0380952
        k(   57) = (   0.4000000  -0.1539601   0.0000000), wk =   0.0190476
        k(   58) = (   0.4000000  -0.1539601   0.1808105), wk =   0.0380952
        k(   59) = (   0.4000000  -0.1539601   0.3616210), wk =   0.0380952
        k(   60) = (   0.4000000  -0.1539601   0.5424315), wk =   0.0380952
        k(   61) = (   0.4000000   0.0384900   0.0000000), wk =   0.0190476
        k(   62) = (   0.4000000   0.0384900   0.1808105), wk =   0.0380952
        k(   63) = (   0.4000000   0.0384900   0.3616210), wk =   0.0380952
        k(   64) = (   0.4000000   0.0384900   0.5424315), wk =   0.0380952

     Largest allocated arrays     est. size (Mb)     dimensions
     Largest temporary arrays     est. size (Mb)     dimensions

     Initial potential from superposition of free atoms
     Check: negative starting charge=   -0.002192

     starting charge   77.94326, renormalised to  118.00000

     negative rho (up, down):  0.332E-02 0.000E+00
     Starting wfc are  120 randomized atomic wfcs

     Self-consistent Calculation

     iteration #  1     ecut=    40.00 Ry     beta=0.70
     CG style diagonalization
     ethr =  1.00E-02,  avg # of iterations = 18.8

     negative rho (up, down):  0.986E-03 0.000E+00

     total energy              =     512.03922918 Ry
     Harris-Foulkes estimate   =   -2142.90536484 Ry
     estimated scf accuracy    <    3114.53508582 Ry

[...]

     iteration #  3     ecut=    40.00 Ry     beta=0.70
     CG style diagonalization
     c_bands:  1 eigenvalues not converged
     c_bands:  1 eigenvalues not converged
     c_bands:  2 eigenvalues not converged
     c_bands:  1 eigenvalues not converged
     c_bands:  1 eigenvalues not converged
     c_bands:  1 eigenvalues not converged
     c_bands:  1 eigenvalues not converged
     c_bands:  1 eigenvalues not converged
     c_bands:  1 eigenvalues not converged
     c_bands:  1 eigenvalues not converged
     c_bands:  1 eigenvalues not converged
     c_bands:  1 eigenvalues not converged
     c_bands:  1 eigenvalues not converged
     c_bands:  1 eigenvalues not converged
     c_bands:  1 eigenvalues not converged
     c_bands:  2 eigenvalues not converged
     c_bands:  1 eigenvalues not converged
     c_bands:  1 eigenvalues not converged
     c_bands:  1 eigenvalues not converged
     ethr =  1.00E-02,  avg # of iterations = 10.9

[...]

     End of self-consistent calculation

          k = 0.0000 0.0000 0.0000 (  5047 PWs)   bands (ev):

   -61.2111 -61.2087 -28.1262 -28.1202 -28.0897 -28.0896 -28.0841 -28.0841
   -21.8412 -21.5039 -21.5038 -21.4550 -21.3149 -21.3148  -2.7823  -2.6027
    -2.2763  -2.0544  -2.0543  -1.8982  -1.8981  -1.8765  -1.8765  -1.3665
    -0.9670  -0.9669  -0.6633  -0.6632  -0.6390  -0.6376  -0.6376  -0.6152
    12.6489  12.6489  12.7637  12.8566  12.8752  12.8752  12.9919  12.9918
    13.2698  13.2698  14.5311  15.3866  16.9281  17.9044  18.7469  18.8971
    18.8971  19.0337  19.0337  19.9529  19.9530  20.2447  20.4036  20.7844
    20.7845  21.2991  21.2991  21.8365  21.8633  21.8633  23.4969  23.8975
    23.8975  24.2617  24.2618  24.7925  24.7930  24.9341  24.9337

[...]

     the Fermi energy is    21.3544 ev

[...]
        k(   23) = (   0.2007228   0.3090330   0.3553561), wk =   0.0380952
        k(   24) = (   0.2007228   0.3090330   0.5330341), wk =   0.0380952
        k(   25) = (   0.2007228   0.5021786   0.0000000), wk =   0.0190476
        k(   26) = (   0.2007228   0.5021786   0.1776780), wk =   0.0380952
        k(   27) = (   0.2007228   0.5021786   0.3553561), wk =   0.0380952
        k(   28) = (   0.2007228   0.5021786   0.5330341), wk =   0.0380952
        k(   29) = (   0.2007228  -0.4635494   0.0000000), wk =   0.0190476
        k(   30) = (   0.2007228  -0.4635494   0.1776780), wk =   0.0380952
        k(   31) = (   0.2007228  -0.4635494   0.3553561), wk =   0.0380952
        k(   32) = (   0.2007228  -0.4635494   0.5330341), wk =   0.0380952
        k(   33) = (   0.2007228  -0.2704038   0.0000000), wk =   0.0190476
        k(   34) = (   0.2007228  -0.2704038   0.1776780), wk =   0.0380952
        k(   35) = (   0.2007228  -0.2704038   0.3553561), wk =   0.0380952
        k(   36) = (   0.2007228  -0.2704038   0.5330341), wk =   0.0380952
        k(   37) = (   0.2007228  -0.0772582   0.0000000), wk =   0.0190476
        k(   38) = (   0.2007228  -0.0772582   0.1776780), wk =   0.0380952
        k(   39) = (   0.2007228  -0.0772582   0.3553561), wk =   0.0380952
        k(   40) = (   0.2007228  -0.0772582   0.5330341), wk =   0.0380952
        k(   41) = (   0.4014456   0.2317747   0.0000000), wk =   0.0190476
        k(   42) = (   0.4014456   0.2317747   0.1776780), wk =   0.0380952
        k(   43) = (   0.4014456   0.2317747   0.3553561), wk =   0.0380952
        k(   44) = (   0.4014456   0.2317747   0.5330341), wk =   0.0380952
        k(   45) = (   0.4014456   0.4249203   0.0000000), wk =   0.0190476
        k(   46) = (   0.4014456   0.4249203   0.1776780), wk =   0.0380952
        k(   47) = (   0.4014456   0.4249203   0.3553561), wk =   0.0380952
        k(   48) = (   0.4014456   0.4249203   0.5330341), wk =   0.0380952
        k(   49) = (   0.4014456   0.6180659   0.0000000), wk =   0.0190476
        k(   50) = (   0.4014456   0.6180659   0.1776780), wk =   0.0380952
        k(   51) = (   0.4014456   0.6180659   0.3553561), wk =   0.0380952
        k(   52) = (   0.4014456   0.6180659   0.5330341), wk =   0.0380952
        k(   53) = (   0.4014456  -0.3476621   0.0000000), wk =   0.0190476
        k(   54) = (   0.4014456  -0.3476621   0.1776780), wk =   0.0380952
        k(   55) = (   0.4014456  -0.3476621   0.3553561), wk =   0.0380952
        k(   56) = (   0.4014456  -0.3476621   0.5330341), wk =   0.0380952
        k(   57) = (   0.4014456  -0.1545165   0.0000000), wk =   0.0190476
        k(   58) = (   0.4014456  -0.1545165   0.1776780), wk =   0.0380952
        k(   59) = (   0.4014456  -0.1545165   0.3553561), wk =   0.0380952
        k(   60) = (   0.4014456  -0.1545165   0.5330341), wk =   0.0380952
        k(   61) = (   0.4014456   0.0386291   0.0000000), wk =   0.0190476
        k(   62) = (   0.4014456   0.0386291   0.1776780), wk =   0.0380952
        k(   63) = (   0.4014456   0.0386291   0.3553561), wk =   0.0380952
        k(   64) = (   0.4014456   0.0386291   0.5330341), wk =   0.0380952
     Check: negative starting charge=   -0.002602

     negative rho (up, down):  0.471E-03 0.000E+00
     extrapolated charge  118.03764, renormalised to  118.00000

[...]

     Total force =     0.020791     Total SCF correction =     0.001271

[...]

     The maximum number of steps has been reached.

     End of BFGS Geometry Optimization
Begin final coordinates
     new unit-cell volume =   1199.58795 a.u.^3 (   177.76059 Ang^3 )

CELL_PARAMETERS (alat= 12.01680127)
   0.996399037   0.000000000   0.000000000
  -0.498199518   0.862906878   0.000000000
   0.000000000   0.000000000   0.804022547

ATOMIC_POSITIONS (crystal)
Mg       0.669963070   0.834981535   0.250000000
Mg       0.834981535   0.165018465   0.750000000
Mg       0.330036930   0.165018465   0.750000000
Mg       0.165018465   0.834981535   0.250000000
Mg       0.165018465   0.330036930   0.250000000
Mg       0.834981535   0.669963070   0.750000000
Cd       0.666667000   0.333333000   0.250000000
Cd       0.333333000   0.666667000   0.750000000
End final coordinates

     A final scf calculation at the relaxed structure.
     The G-vectors are recalculated for the final unit cell
     Results may differ from those at the preceding step.

     bravais-lattice index     =            0
     lattice parameter (alat)  =      12.0168  a.u.
     unit-cell volume          =    1199.5879 (a.u.)^3
     number of atoms/cell      =            8
     number of atomic types    =            2
     number of electrons       =       118.00
     number of Kohn-Sham states=           71
     kinetic-energy cutoff     =      40.0000  Ry
     charge density cutoff     =     160.0000  Ry
     convergence threshold     =      1.4E-05
     mixing beta               =       0.7000
     number of iterations used =            8  plain     mixing
     Exchange-correlation      = SLA-PZ-NOGX-NOGC ( 1 1 0 0 0)
     EXX-fraction              =        0.00

     celldm(1)=  12.016801  celldm(2)=   0.000000  celldm(3)=   0.000000
     celldm(4)=   0.000000  celldm(5)=   0.000000  celldm(6)=   0.000000

     crystal axes: (cart. coord. in units of alat)
               a(1) = (   0.996399   0.000000   0.000000 )
               a(2) = (  -0.498200   0.862907   0.000000 )
               a(3) = (   0.000000   0.000000   0.804023 )

     reciprocal axes: (cart. coord. in units 2 pi/alat)
               b(1) = (  1.003614  0.579437  0.000000 )
               b(2) = (  0.000000  1.158874  0.000000 )
               b(3) = (  0.000000  0.000000  1.243746 )

     PseudoPot. # 1 for Pr read from file:
     /home/cwx6513/pp.La/Pr.UPF
     MD5 check sum: 70e2b4b153859e92c8c91247dfc63203
     Pseudo is Norm-conserving, Zval = 13.0
     Generated in analytical, separable form
     Using radial grid of 1255 points,  6 beta functions with:
                l(1) =   0
                l(2) =   0
                l(3) =   1
                l(4) =   1
                l(5) =   2
                l(6) =   3

     PseudoPot. # 2 for Dy read from file:
     /home/cwx6513/pp.La/Dy.UPF
     MD5 check sum: 9597327bec62616a94a14d07f3fd9936
     Pseudo is Norm-conserving, Zval = 20.0
     Generated in analytical, separable form
     Using radial grid of 1265 points,  6 beta functions with:
                l(1) =   0
                l(2) =   0
                l(3) =   1
                l(4) =   1
                l(5) =   2
                l(6) =   3

     atomic species   valence    mass     pseudopotential
        Mg            13.00    24.30500     Pr( 1.00)
        Cd            20.00   112.41100     Dy( 1.00)

     24 Sym. Ops., with inversion, found (12 have fractional translation)

   Cartesian axes

     site n.     atom                  positions (alat units)
         1           Mg  tau(   1) = (   0.2515632   0.7205113   0.2010056  )
         2           Mg  tau(   2) = (   0.7497627   0.1423956   0.6030169  )
         3           Mg  tau(   3) = (   0.2466364   0.1423956   0.6030169  )
         4           Mg  tau(   4) = (  -0.2515632   0.7205113   0.2010056  )
         5           Mg  tau(   5) = (   0.0000000   0.2847911   0.2010056  )
         6           Mg  tau(   6) = (   0.4981995   0.5781157   0.6030169  )
         7           Cd  tau(   7) = (   0.4982000   0.2876353   0.2010056  )
         8           Cd  tau(   8) = (  -0.0000005   0.5752715   0.6030169  )

     number of k points=    64  gaussian smearing, width (Ry)=  0.1000
                       cart. coord. in units 2pi/alat
        k(    1) = (   0.0000000   0.0000000   0.0000000), wk =   0.0095238
        k(    2) = (   0.0000000   0.0000000   0.1776780), wk =   0.0190476
        k(    3) = (   0.0000000   0.0000000   0.3553561), wk =   0.0190476
        k(    4) = (   0.0000000   0.0000000   0.5330341), wk =   0.0190476
        k(    5) = (   0.0000000   0.1931456   0.0000000), wk =   0.0190476
        k(    6) = (   0.0000000   0.1931456   0.1776780), wk =   0.0380952
        k(    7) = (   0.0000000   0.1931456   0.3553561), wk =   0.0380952
        k(    8) = (   0.0000000   0.1931456   0.5330341), wk =   0.0380952
        k(    9) = (   0.0000000   0.3862912   0.0000000), wk =   0.0190476
        k(   10) = (   0.0000000   0.3862912   0.1776780), wk =   0.0380952
        k(   11) = (   0.0000000   0.3862912   0.3553561), wk =   0.0380952
        k(   12) = (   0.0000000   0.3862912   0.5330341), wk =   0.0380952
        k(   13) = (   0.0000000  -0.5794368   0.0000000), wk =   0.0095238
        k(   14) = (   0.0000000  -0.5794368   0.1776780), wk =   0.0190476
        k(   15) = (   0.0000000  -0.5794368   0.3553561), wk =   0.0190476
        k(   16) = (   0.0000000  -0.5794368   0.5330341), wk =   0.0190476
        k(   17) = (   0.2007228   0.1158874   0.0000000), wk =   0.0190476
        k(   18) = (   0.2007228   0.1158874   0.1776780), wk =   0.0380952
        k(   19) = (   0.2007228   0.1158874   0.3553561), wk =   0.0380952
        k(   20) = (   0.2007228   0.1158874   0.5330341), wk =   0.0380952
        k(   21) = (   0.2007228   0.3090330   0.0000000), wk =   0.0190476
        k(   22) = (   0.2007228   0.3090330   0.1776780), wk =   0.0380952
        k(   23) = (   0.2007228   0.3090330   0.3553561), wk =   0.0380952
        k(   24) = (   0.2007228   0.3090330   0.5330341), wk =   0.0380952
        k(   25) = (   0.2007228   0.5021786   0.0000000), wk =   0.0190476
        k(   26) = (   0.2007228   0.5021786   0.1776780), wk =   0.0380952
        k(   27) = (   0.2007228   0.5021786   0.3553561), wk =   0.0380952
        k(   28) = (   0.2007228   0.5021786   0.5330341), wk =   0.0380952
        k(   29) = (   0.2007228  -0.4635494   0.0000000), wk =   0.0190476
        k(   30) = (   0.2007228  -0.4635494   0.1776780), wk =   0.0380952
        k(   31) = (   0.2007228  -0.4635494   0.3553561), wk =   0.0380952
        k(   32) = (   0.2007228  -0.4635494   0.5330341), wk =   0.0380952
        k(   33) = (   0.2007228  -0.2704038   0.0000000), wk =   0.0190476
        k(   34) = (   0.2007228  -0.2704038   0.1776780), wk =   0.0380952
        k(   35) = (   0.2007228  -0.2704038   0.3553561), wk =   0.0380952
        k(   36) = (   0.2007228  -0.2704038   0.5330341), wk =   0.0380952
        k(   37) = (   0.2007228  -0.0772582   0.0000000), wk =   0.0190476
        k(   38) = (   0.2007228  -0.0772582   0.1776780), wk =   0.0380952
        k(   39) = (   0.2007228  -0.0772582   0.3553561), wk =   0.0380952
        k(   40) = (   0.2007228  -0.0772582   0.5330341), wk =   0.0380952
        k(   41) = (   0.4014456   0.2317747   0.0000000), wk =   0.0190476
        k(   42) = (   0.4014456   0.2317747   0.1776780), wk =   0.0380952
        k(   43) = (   0.4014456   0.2317747   0.3553561), wk =   0.0380952
        k(   44) = (   0.4014456   0.2317747   0.5330341), wk =   0.0380952
        k(   45) = (   0.4014456   0.4249203   0.0000000), wk =   0.0190476
        k(   46) = (   0.4014456   0.4249203   0.1776780), wk =   0.0380952
        k(   47) = (   0.4014456   0.4249203   0.3553561), wk =   0.0380952
        k(   48) = (   0.4014456   0.4249203   0.5330341), wk =   0.0380952
        k(   49) = (   0.4014456   0.6180659   0.0000000), wk =   0.0190476
        k(   50) = (   0.4014456   0.6180659   0.1776780), wk =   0.0380952
        k(   51) = (   0.4014456   0.6180659   0.3553561), wk =   0.0380952
        k(   52) = (   0.4014456   0.6180659   0.5330341), wk =   0.0380952
        k(   53) = (   0.4014456  -0.3476621   0.0000000), wk =   0.0190476
        k(   54) = (   0.4014456  -0.3476621   0.1776780), wk =   0.0380952
        k(   55) = (   0.4014456  -0.3476621   0.3553561), wk =   0.0380952
        k(   56) = (   0.4014456  -0.3476621   0.5330341), wk =   0.0380952
        k(   57) = (   0.4014456  -0.1545165   0.0000000), wk =   0.0190476
        k(   58) = (   0.4014456  -0.1545165   0.1776780), wk =   0.0380952
        k(   59) = (   0.4014456  -0.1545165   0.3553561), wk =   0.0380952
        k(   60) = (   0.4014456  -0.1545165   0.5330341), wk =   0.0380952
        k(   61) = (   0.4014456   0.0386291   0.0000000), wk =   0.0190476
        k(   62) = (   0.4014456   0.0386291   0.1776780), wk =   0.0380952
        k(   63) = (   0.4014456   0.0386291   0.3553561), wk =   0.0380952
        k(   64) = (   0.4014456   0.0386291   0.5330341), wk =   0.0380952

     Largest allocated arrays     est. size (Mb)     dimensions
     Largest temporary arrays     est. size (Mb)     dimensions

     Initial potential from superposition of free atoms
     Check: negative starting charge=   -0.002270

     starting charge   77.94326, renormalised to  118.00000

     negative rho (up, down):  0.344E-02 0.000E+00
     Starting wfc are  120 randomized atomic wfcs

     Writing output data file Prototype-La-hP8-Mg3Cd.save

     Self-consistent Calculation

[...]

     negative rho (up, down):  0.163E-03 0.000E+00

[...]

     iteration # 12     ecut=    40.00 Ry     beta=0.70
     CG style diagonalization
     c_bands:  1 eigenvalues not converged
     c_bands:  1 eigenvalues not converged
     c_bands:  1 eigenvalues not converged
     c_bands:  1 eigenvalues not converged
     c_bands:  1 eigenvalues not converged
     c_bands:  1 eigenvalues not converged
     c_bands:  2 eigenvalues not converged
     c_bands:  1 eigenvalues not converged
     c_bands:  1 eigenvalues not converged
     c_bands:  1 eigenvalues not converged
     c_bands:  1 eigenvalues not converged
     c_bands:  1 eigenvalues not converged
     c_bands:  1 eigenvalues not converged
     ethr =  1.36E-06,  avg # of iterations =  3.7

[...]

     total energy              =   -1078.83877798 Ry
     Harris-Foulkes estimate   =   -1078.83878414 Ry
     estimated scf accuracy    <       0.00001457 Ry

     iteration # 14     ecut=    40.00 Ry     beta=0.70
     CG style diagonalization
     ethr =  1.23E-08,  avg # of iterations =  4.0

     End of self-consistent calculation

[...]

          k = 0.4014 0.0386 0.5330 (  5126 PWs)   bands (ev):

   -61.4309 -61.4291 -28.3213 -28.3182 -28.3152 -28.3151 -28.3127 -28.3099
   -21.8936 -21.8200 -21.7411 -21.7074 -21.6734 -21.6473  -2.7043  -2.6757
    -2.5967  -2.5592  -2.4046  -2.3529  -1.8597  -1.7192  -1.5754  -1.5599
    -1.3991  -1.2945  -1.2259  -1.1814  -1.1297  -1.0287  -0.9679  -0.9508
    12.6876  12.7149  12.7351  12.7682  12.8187  12.8330  12.8999  12.9189
    12.9931  13.0357  15.5792  15.6867  17.7286  17.9748  18.2439  18.3140
    18.7792  18.9944  19.0598  19.1233  19.4515  19.4880  19.9001  19.9912
    20.3851  20.4531  20.8456  20.9002  21.5846  21.6340  21.7020  22.6558
    22.8613  23.1184  23.7097  23.7946  23.9027  24.0319  24.4464

     the Fermi energy is    21.0859 ev

!    total energy              =   -1078.83877961 Ry
     Harris-Foulkes estimate   =   -1078.83878214 Ry
     estimated scf accuracy    <       0.00000268 Ry

     The total energy is the sum of the following terms:

     one-electron contribution =    -143.00086990 Ry
     hartree contribution      =     147.95202155 Ry
     xc contribution           =    -117.26644205 Ry
     ewald contribution        =    -966.03785778 Ry
     smearing contrib. (-TS)   =      -0.48563142 Ry

     convergence has been achieved in  14 iterations

     Forces acting on atoms (Ry/au):

     atom    1 type  1   force =     0.00830387    0.00479424    0.00000000
     atom    2 type  1   force =     0.00830387   -0.00479424    0.00000000
     atom    3 type  1   force =    -0.00830387   -0.00479424    0.00000000
     atom    4 type  1   force =    -0.00830387    0.00479424    0.00000000
     atom    5 type  1   force =     0.00000000   -0.00958848    0.00000000
     atom    6 type  1   force =     0.00000000    0.00958848    0.00000000
     atom    7 type  2   force =     0.00000000    0.00000000    0.00000000
     atom    8 type  2   force =     0.00000000    0.00000000    0.00000000

     Total force =     0.023487     Total SCF correction =     0.003966
     SCF correction compared to forces is large: reduce conv_thr to get better values

     entering subroutine stress ...

          total   stress  (Ry/bohr**3)                   (kbar)     P=    6.86
  -0.00001220   0.00000000   0.00000000         -1.80      0.00      0.00
   0.00000000  -0.00001220   0.00000000          0.00     -1.80      0.00
   0.00000000   0.00000000   0.00016432          0.00      0.00     24.17

     Writing output data file Prototype-La-hP8-Mg3Cd.save

     General routines

     Parallel routines

   This run was terminated on:  17:13:13  22Mar2018

   JOB DONE.