     Program PWSCF v.5.0.2 starts on 22Mar2018 at 18:41:57

     Current dimensions of program PWSCF are:
     Max number of different atomic species (ntypx) = 10
     Max number of k-points (npk) =  40000
     Max angular momentum in pseudopotentials (lmaxx) =  3
     Waiting for input...
     Reading input from standard input

     Subspace diagonalization in iterative solution of the eigenvalue problem:
     a serial algorithm will be used

     bravais-lattice index     =            0
     lattice parameter (alat)  =       8.5346  a.u.
     unit-cell volume          =     621.6493 (a.u.)^3
     number of atoms/cell      =            8
     number of atomic types    =            2
     number of electrons       =       136.00
     number of Kohn-Sham states=           82
     kinetic-energy cutoff     =      40.0000  Ry
     charge density cutoff     =     160.0000  Ry
     convergence threshold     =      1.0E-04
     mixing beta               =       0.7000
     number of iterations used =            8  plain     mixing
     Exchange-correlation      = SLA-PZ-NOGX-NOGC ( 1 1 0 0 0)
     EXX-fraction              =        0.00
     nstep                     =           50

     celldm(1)=   8.534573  celldm(2)=   0.000000  celldm(3)=   0.000000
     celldm(4)=   0.000000  celldm(5)=   0.000000  celldm(6)=   0.000000

     crystal axes: (cart. coord. in units of alat)
               a(1) = (   1.000000   0.000000   0.000000 )
               a(2) = (   0.000000   1.000000   0.000000 )
               a(3) = (   0.000000   0.000000   1.000000 )

     reciprocal axes: (cart. coord. in units 2 pi/alat)
               b(1) = (  1.000000  0.000000  0.000000 )
               b(2) = (  0.000000  1.000000  0.000000 )
               b(3) = (  0.000000  0.000000  1.000000 )

     PseudoPot. # 1 for Sm read from file:
     /home/cwx6513/pp.La/Sm.UPF
     MD5 check sum: 5079e8b144a06bfcdbc14fb02b96ab09
     Pseudo is Norm-conserving, Zval = 16.0
     Generated in analytical, separable form
     Using radial grid of 1259 points,  6 beta functions with:
                l(1) =   0
                l(2) =   0
                l(3) =   1
                l(4) =   1
                l(5) =   2
                l(6) =   3

     PseudoPot. # 2 for Dy read from file:
     /home/cwx6513/pp.La/Dy.UPF
     MD5 check sum: 9597327bec62616a94a14d07f3fd9936
     Pseudo is Norm-conserving, Zval = 20.0
     Generated in analytical, separable form
     Using radial grid of 1265 points,  6 beta functions with:
                l(1) =   0
                l(2) =   0
                l(3) =   1
                l(4) =   1
                l(5) =   2
                l(6) =   3

     atomic species   valence    mass     pseudopotential
        Cr            16.00    51.99610     Sm( 1.00)
        Si            20.00    28.08550     Dy( 1.00)

     48 Sym. Ops., with inversion, found (24 have fractional translation)

   Cartesian axes

     site n.     atom                  positions (alat units)
         1           Cr  tau(   1) = (   0.0000000   0.5000000   0.2500000  )
         2           Cr  tau(   2) = (   0.0000000   0.5000000   0.7500000  )
         3           Cr  tau(   3) = (   0.5000000   0.7500000   0.0000000  )
         4           Cr  tau(   4) = (   0.5000000   0.2500000   0.0000000  )
         5           Cr  tau(   5) = (   0.7500000   0.0000000   0.5000000  )
         6           Cr  tau(   6) = (   0.2500000   0.0000000   0.5000000  )
         7           Si  tau(   7) = (   0.5000000   0.5000000   0.5000000  )
         8           Si  tau(   8) = (   0.0000000   0.0000000   0.0000000  )

     number of k points=    48  gaussian smearing, width (Ry)=  0.1000
                       cart. coord. in units 2pi/alat
        k(    1) = (   0.0000000   0.0000000   0.0000000), wk =   0.0095238
        k(    2) = (   0.0000000   0.0000000   0.1428571), wk =   0.0190476
        k(    3) = (   0.0000000   0.0000000   0.2857143), wk =   0.0190476
        k(    4) = (   0.0000000   0.0000000   0.4285714), wk =   0.0190476
        k(    5) = (   0.0000000   0.1666667   0.0000000), wk =   0.0190476
        k(    6) = (   0.0000000   0.1666667   0.1428571), wk =   0.0380952
        k(    7) = (   0.0000000   0.1666667   0.2857143), wk =   0.0380952
        k(    8) = (   0.0000000   0.1666667   0.4285714), wk =   0.0380952
        k(    9) = (   0.0000000   0.3333333   0.0000000), wk =   0.0190476
        k(   10) = (   0.0000000   0.3333333   0.1428571), wk =   0.0380952
        k(   11) = (   0.0000000   0.3333333   0.2857143), wk =   0.0380952
        k(   12) = (   0.0000000   0.3333333   0.4285714), wk =   0.0380952
        k(   13) = (   0.0000000  -0.5000000   0.0000000), wk =   0.0095238
        k(   14) = (   0.0000000  -0.5000000   0.1428571), wk =   0.0190476
        k(   15) = (   0.0000000  -0.5000000   0.2857143), wk =   0.0190476
        k(   16) = (   0.0000000  -0.5000000   0.4285714), wk =   0.0190476
        k(   17) = (   0.2000000   0.0000000   0.0000000), wk =   0.0190476
        k(   18) = (   0.2000000   0.0000000   0.1428571), wk =   0.0380952
        k(   19) = (   0.2000000   0.0000000   0.2857143), wk =   0.0380952
        k(   20) = (   0.2000000   0.0000000   0.4285714), wk =   0.0380952
        k(   21) = (   0.2000000   0.1666667   0.0000000), wk =   0.0380952
        k(   22) = (   0.2000000   0.1666667   0.1428571), wk =   0.0761905
        k(   23) = (   0.2000000   0.1666667   0.2857143), wk =   0.0761905
        k(   24) = (   0.2000000   0.1666667   0.4285714), wk =   0.0761905
        k(   25) = (   0.2000000   0.3333333   0.0000000), wk =   0.0380952
        k(   26) = (   0.2000000   0.3333333   0.1428571), wk =   0.0761905
        k(   27) = (   0.2000000   0.3333333   0.2857143), wk =   0.0761905
        k(   28) = (   0.2000000   0.3333333   0.4285714), wk =   0.0761905
        k(   29) = (   0.2000000  -0.5000000   0.0000000), wk =   0.0190476
        k(   30) = (   0.2000000  -0.5000000   0.1428571), wk =   0.0380952
        k(   31) = (   0.2000000  -0.5000000   0.2857143), wk =   0.0380952
        k(   32) = (   0.2000000  -0.5000000   0.4285714), wk =   0.0380952
        k(   33) = (   0.4000000   0.0000000   0.0000000), wk =   0.0190476
        k(   34) = (   0.4000000   0.0000000   0.1428571), wk =   0.0380952
        k(   35) = (   0.4000000   0.0000000   0.2857143), wk =   0.0380952
        k(   36) = (   0.4000000   0.0000000   0.4285714), wk =   0.0380952
        k(   37) = (   0.4000000   0.1666667   0.0000000), wk =   0.0380952
        k(   38) = (   0.4000000   0.1666667   0.1428571), wk =   0.0761905
        k(   39) = (   0.4000000   0.1666667   0.2857143), wk =   0.0761905
        k(   40) = (   0.4000000   0.1666667   0.4285714), wk =   0.0761905
        k(   41) = (   0.4000000   0.3333333   0.0000000), wk =   0.0380952
        k(   42) = (   0.4000000   0.3333333   0.1428571), wk =   0.0761905
        k(   43) = (   0.4000000   0.3333333   0.2857143), wk =   0.0761905
        k(   44) = (   0.4000000   0.3333333   0.4285714), wk =   0.0761905
        k(   45) = (   0.4000000  -0.5000000   0.0000000), wk =   0.0190476
        k(   46) = (   0.4000000  -0.5000000   0.1428571), wk =   0.0380952
        k(   47) = (   0.4000000  -0.5000000   0.2857143), wk =   0.0380952
        k(   48) = (   0.4000000  -0.5000000   0.4285714), wk =   0.0380952

     Largest allocated arrays     est. size (Mb)     dimensions
     Largest temporary arrays     est. size (Mb)     dimensions

     Initial potential from superposition of free atoms

     Starting from uniform charge
     Starting wfc are    0 randomized atomic wfcs

     Self-consistent Calculation

     iteration #  1     ecut=    40.00 Ry     beta=0.70
     CG style diagonalization
     c_bands:  1 eigenvalues not converged
     c_bands:  1 eigenvalues not converged
     c_bands:  1 eigenvalues not converged
     c_bands:  1 eigenvalues not converged
     c_bands:  1 eigenvalues not converged
     c_bands:  1 eigenvalues not converged
     c_bands:  1 eigenvalues not converged
     c_bands:  1 eigenvalues not converged
     c_bands:  1 eigenvalues not converged
     c_bands:  1 eigenvalues not converged
     c_bands:  2 eigenvalues not converged
     ethr =  1.00E-02,  avg # of iterations = 11.4

     total energy              =   -1064.78962473 Ry
     Harris-Foulkes estimate   =   -1598.57716211 Ry
     estimated scf accuracy    <     652.94625405 Ry

[...]

     iteration #  4     ecut=    40.00 Ry     beta=0.70
     CG style diagonalization
     ethr =  1.00E-02,  avg # of iterations =  3.6

[...]

     End of self-consistent calculation

          k = 0.0000 0.0000 0.0000 (  2601 PWs)   bands (ev):

   -40.2526 -40.2327 -15.4819 -14.7661 -14.7661 -13.1957 -13.1957 -13.1957
    -7.5801  -7.5801  -7.5801  -7.5762  -7.5762  -7.5762   5.4404   5.4404
     6.2770   8.6658   8.6658   8.6658  10.4482  10.4482  10.4482  11.0379
    11.0379  11.0379  11.3791  11.3791  11.3791  14.1755  14.1755  14.1755
    30.9251  30.9251  32.4249  32.4249  32.4249  32.5546  32.6644  32.6644
    32.9314  32.9314  32.9314  32.9378  32.9378  32.9378  34.1099  35.0259
    35.9525  36.1196  36.1196  36.1196  36.2257  36.2257  40.3940  40.3940
    40.3940  40.7507  40.7507  42.2409  42.2409  42.2409  42.6390  42.6390
    42.6390  46.0074  46.0074  46.8557  46.8558  46.8558  48.1527  48.1528
    48.1528  48.8522  50.6033  50.6033  50.6034  51.2233  51.2232  51.2234
    53.9448  53.9454

[...]

     the Fermi energy is    45.4332 ev

!    total energy              =   -1424.80825945 Ry
     Harris-Foulkes estimate   =   -1424.80826416 Ry
     estimated scf accuracy    <       0.00000638 Ry

     The total energy is the sum of the following terms:

     one-electron contribution =     203.71082162 Ry
     hartree contribution      =      96.53455610 Ry
     xc contribution           =    -155.22633861 Ry
     ewald contribution        =   -1569.52673927 Ry
     smearing contrib. (-TS)   =      -0.30055927 Ry

     convergence has been achieved in   9 iterations

     Forces acting on atoms (Ry/au):

     atom    1 type  1   force =     0.00000000    0.00000000    0.00000000
     atom    2 type  1   force =     0.00000000    0.00000000    0.00000000
     atom    3 type  1   force =     0.00000000    0.00000000    0.00000000
     atom    4 type  1   force =     0.00000000    0.00000000    0.00000000
     atom    5 type  1   force =     0.00000000    0.00000000    0.00000000
     atom    6 type  1   force =     0.00000000    0.00000000    0.00000000
     atom    7 type  2   force =     0.00000000    0.00000000    0.00000000
     atom    8 type  2   force =     0.00000000    0.00000000    0.00000000

     Total force =     0.000000     Total SCF correction =     0.000000

     entering subroutine stress ...

          total   stress  (Ry/bohr**3)                   (kbar)     P= 4997.76
   0.03397411   0.00000000   0.00000000       4997.76      0.00      0.00
   0.00000000   0.03397411   0.00000000          0.00   4997.76      0.00
   0.00000000   0.00000000   0.03397411          0.00      0.00   4997.76

     BFGS Geometry Optimization

[...]

     CASE: enthalpy_new < enthalpy_old

     small trust_radius: resetting bfgs history

     new trust radius        =       0.8136089589 bohr
     new conv_thr            =       0.0000010000 Ry

[...]

          total   stress  (Ry/bohr**3)                   (kbar)     P=-1104.42
  -0.00750772   0.00000000   0.00000000      -1104.42      0.00      0.00
   0.00000000  -0.00750772   0.00000000          0.00  -1104.42      0.00
   0.00000000   0.00000000  -0.00750772          0.00      0.00  -1104.42

     number of scf cycles    =   3
     number of bfgs steps    =   2

     enthalpy old            =   -1428.3662554020 Ry
     enthalpy new            =   -1427.1658232920 Ry

     CASE: enthalpy_new > enthalpy_old

     new trust radius        =       0.2708719179 bohr

     trust_radius < trust_radius_min

     resetting bfgs history

     Message from routine bfgs:
     history already reset at previous step: stopping
     new conv_thr            =       0.0000010000 Ry

     new unit-cell volume =   1046.90362 a.u.^3 (   155.13511 Ang^3 )

[...]

ATOMIC_POSITIONS (crystal)
Cr       0.000000000   0.500000000   0.250000000
Cr       0.000000000   0.500000000   0.750000000
Cr       0.500000000   0.750000000   0.000000000
Cr       0.500000000   0.250000000   0.000000000
Cr       0.750000000   0.000000000   0.500000000
Cr       0.250000000   0.000000000   0.500000000
Si       0.500000000   0.500000000   0.500000000
Si       0.000000000   0.000000000   0.000000000

     Writing output data file Prototype-La-cP8-Cr3Si.save
     NEW-OLD atomic charge density approx. for the potential
     NEW k-points:
        k(    1) = (   0.0000000   0.0000000   0.0000000), wk =   0.0095238
        k(    2) = (   0.0000000   0.0000000   0.1200738), wk =   0.0190476
        k(    3) = (   0.0000000   0.0000000   0.2401476), wk =   0.0190476
        k(    4) = (   0.0000000   0.0000000   0.3602214), wk =   0.0190476
        k(    5) = (   0.0000000   0.1400861   0.0000000), wk =   0.0190476
        k(    6) = (   0.0000000   0.1400861   0.1200738), wk =   0.0380952
        k(    7) = (   0.0000000   0.1400861   0.2401476), wk =   0.0380952
        k(    8) = (   0.0000000   0.1400861   0.3602214), wk =   0.0380952
        k(    9) = (   0.0000000   0.2801722   0.0000000), wk =   0.0190476
        k(   10) = (   0.0000000   0.2801722   0.1200738), wk =   0.0380952
        k(   11) = (   0.0000000   0.2801722   0.2401476), wk =   0.0380952
        k(   12) = (   0.0000000   0.2801722   0.3602214), wk =   0.0380952
        k(   13) = (   0.0000000  -0.4202582   0.0000000), wk =   0.0095238
        k(   14) = (   0.0000000  -0.4202582   0.1200738), wk =   0.0190476
        k(   15) = (   0.0000000  -0.4202582   0.2401476), wk =   0.0190476
        k(   16) = (   0.0000000  -0.4202582   0.3602214), wk =   0.0190476
        k(   17) = (   0.1681033   0.0000000   0.0000000), wk =   0.0190476
        k(   18) = (   0.1681033   0.0000000   0.1200738), wk =   0.0380952
        k(   19) = (   0.1681033   0.0000000   0.2401476), wk =   0.0380952
        k(   20) = (   0.1681033   0.0000000   0.3602214), wk =   0.0380952
        k(   21) = (   0.1681033   0.1400861   0.0000000), wk =   0.0380952
        k(   22) = (   0.1681033   0.1400861   0.1200738), wk =   0.0761905
        k(   23) = (   0.1681033   0.1400861   0.2401476), wk =   0.0761905
        k(   24) = (   0.1681033   0.1400861   0.3602214), wk =   0.0761905
        k(   25) = (   0.1681033   0.2801722   0.0000000), wk =   0.0380952
        k(   26) = (   0.1681033   0.2801722   0.1200738), wk =   0.0761905
        k(   27) = (   0.1681033   0.2801722   0.2401476), wk =   0.0761905
        k(   28) = (   0.1681033   0.2801722   0.3602214), wk =   0.0761905
        k(   29) = (   0.1681033  -0.4202582   0.0000000), wk =   0.0190476
        k(   30) = (   0.1681033  -0.4202582   0.1200738), wk =   0.0380952
        k(   31) = (   0.1681033  -0.4202582   0.2401476), wk =   0.0380952
        k(   32) = (   0.1681033  -0.4202582   0.3602214), wk =   0.0380952
        k(   33) = (   0.3362066   0.0000000   0.0000000), wk =   0.0190476
        k(   34) = (   0.3362066   0.0000000   0.1200738), wk =   0.0380952
        k(   35) = (   0.3362066   0.0000000   0.2401476), wk =   0.0380952
        k(   36) = (   0.3362066   0.0000000   0.3602214), wk =   0.0380952
        k(   37) = (   0.3362066   0.1400861   0.0000000), wk =   0.0380952
        k(   38) = (   0.3362066   0.1400861   0.1200738), wk =   0.0761905
        k(   39) = (   0.3362066   0.1400861   0.2401476), wk =   0.0761905
        k(   40) = (   0.3362066   0.1400861   0.3602214), wk =   0.0761905
        k(   41) = (   0.3362066   0.2801722   0.0000000), wk =   0.0380952
        k(   42) = (   0.3362066   0.2801722   0.1200738), wk =   0.0761905
        k(   43) = (   0.3362066   0.2801722   0.2401476), wk =   0.0761905
        k(   44) = (   0.3362066   0.2801722   0.3602214), wk =   0.0761905
        k(   45) = (   0.3362066  -0.4202582   0.0000000), wk =   0.0190476
        k(   46) = (   0.3362066  -0.4202582   0.1200738), wk =   0.0380952
        k(   47) = (   0.3362066  -0.4202582   0.2401476), wk =   0.0380952
        k(   48) = (   0.3362066  -0.4202582   0.3602214), wk =   0.0380952

[...]

     The maximum number of steps has been reached.

     End of BFGS Geometry Optimization
Begin final coordinates
     new unit-cell volume =   1046.90362 a.u.^3 (   155.13511 Ang^3 )

CELL_PARAMETERS (alat=  8.53457320)
   1.189744647   0.000000000   0.000000000
   0.000000000   1.189744647   0.000000000
   0.000000000   0.000000000   1.189744647

ATOMIC_POSITIONS (crystal)
Cr       0.000000000   0.500000000   0.250000000
Cr       0.000000000   0.500000000   0.750000000
Cr       0.500000000   0.750000000   0.000000000
Cr       0.500000000   0.250000000   0.000000000
Cr       0.750000000   0.000000000   0.500000000
Cr       0.250000000   0.000000000   0.500000000
Si       0.500000000   0.500000000   0.500000000
Si       0.000000000   0.000000000   0.000000000
End final coordinates

     A final scf calculation at the relaxed structure.
     The G-vectors are recalculated for the final unit cell
     Results may differ from those at the preceding step.

     bravais-lattice index     =            0
     lattice parameter (alat)  =       8.5346  a.u.
     unit-cell volume          =    1046.9036 (a.u.)^3
     number of atoms/cell      =            8
     number of atomic types    =            2
     number of electrons       =       136.00
     number of Kohn-Sham states=           82
     kinetic-energy cutoff     =      40.0000  Ry
     charge density cutoff     =     160.0000  Ry
     convergence threshold     =      1.0E-06
     mixing beta               =       0.7000
     number of iterations used =            8  plain     mixing
     Exchange-correlation      = SLA-PZ-NOGX-NOGC ( 1 1 0 0 0)
     EXX-fraction              =        0.00

     celldm(1)=   8.534573  celldm(2)=   0.000000  celldm(3)=   0.000000
     celldm(4)=   0.000000  celldm(5)=   0.000000  celldm(6)=   0.000000

     crystal axes: (cart. coord. in units of alat)
               a(1) = (   1.189745   0.000000   0.000000 )
               a(2) = (   0.000000   1.189745   0.000000 )
               a(3) = (   0.000000   0.000000   1.189745 )

     reciprocal axes: (cart. coord. in units 2 pi/alat)
               b(1) = (  0.840516  0.000000  0.000000 )
               b(2) = (  0.000000  0.840516  0.000000 )
               b(3) = (  0.000000  0.000000  0.840516 )

     PseudoPot. # 1 for Sm read from file:
     /home/cwx6513/pp.La/Sm.UPF
     MD5 check sum: 5079e8b144a06bfcdbc14fb02b96ab09
     Pseudo is Norm-conserving, Zval = 16.0
     Generated in analytical, separable form
     Using radial grid of 1259 points,  6 beta functions with:
                l(1) =   0
                l(2) =   0
                l(3) =   1
                l(4) =   1
                l(5) =   2
                l(6) =   3

     PseudoPot. # 2 for Dy read from file:
     /home/cwx6513/pp.La/Dy.UPF
     MD5 check sum: 9597327bec62616a94a14d07f3fd9936
     Pseudo is Norm-conserving, Zval = 20.0
     Generated in analytical, separable form
     Using radial grid of 1265 points,  6 beta functions with:
                l(1) =   0
                l(2) =   0
                l(3) =   1
                l(4) =   1
                l(5) =   2
                l(6) =   3

     atomic species   valence    mass     pseudopotential
        Cr            16.00    51.99610     Sm( 1.00)
        Si            20.00    28.08550     Dy( 1.00)

     48 Sym. Ops., with inversion, found (24 have fractional translation)

   Cartesian axes

     site n.     atom                  positions (alat units)
         1           Cr  tau(   1) = (   0.0000000   0.5948723   0.2974362  )
         2           Cr  tau(   2) = (   0.0000000   0.5948723   0.8923085  )
         3           Cr  tau(   3) = (   0.5948723   0.8923085   0.0000000  )
         4           Cr  tau(   4) = (   0.5948723   0.2974362   0.0000000  )
         5           Cr  tau(   5) = (   0.8923085   0.0000000   0.5948723  )
         6           Cr  tau(   6) = (   0.2974362   0.0000000   0.5948723  )
         7           Si  tau(   7) = (   0.5948723   0.5948723   0.5948723  )
         8           Si  tau(   8) = (   0.0000000   0.0000000   0.0000000  )

     number of k points=    48  gaussian smearing, width (Ry)=  0.1000
                       cart. coord. in units 2pi/alat
        k(    1) = (   0.0000000   0.0000000   0.0000000), wk =   0.0095238
        k(    2) = (   0.0000000   0.0000000   0.1200738), wk =   0.0190476
        k(    3) = (   0.0000000   0.0000000   0.2401476), wk =   0.0190476
        k(    4) = (   0.0000000   0.0000000   0.3602214), wk =   0.0190476
        k(    5) = (   0.0000000   0.1400861   0.0000000), wk =   0.0190476
        k(    6) = (   0.0000000   0.1400861   0.1200738), wk =   0.0380952
        k(    7) = (   0.0000000   0.1400861   0.2401476), wk =   0.0380952
        k(    8) = (   0.0000000   0.1400861   0.3602214), wk =   0.0380952
        k(    9) = (   0.0000000   0.2801722   0.0000000), wk =   0.0190476
        k(   10) = (   0.0000000   0.2801722   0.1200738), wk =   0.0380952
        k(   11) = (   0.0000000   0.2801722   0.2401476), wk =   0.0380952
        k(   12) = (   0.0000000   0.2801722   0.3602214), wk =   0.0380952
        k(   13) = (   0.0000000  -0.4202582   0.0000000), wk =   0.0095238
        k(   14) = (   0.0000000  -0.4202582   0.1200738), wk =   0.0190476
        k(   15) = (   0.0000000  -0.4202582   0.2401476), wk =   0.0190476
        k(   16) = (   0.0000000  -0.4202582   0.3602214), wk =   0.0190476
        k(   17) = (   0.1681033   0.0000000   0.0000000), wk =   0.0190476
        k(   18) = (   0.1681033   0.0000000   0.1200738), wk =   0.0380952
        k(   19) = (   0.1681033   0.0000000   0.2401476), wk =   0.0380952
        k(   20) = (   0.1681033   0.0000000   0.3602214), wk =   0.0380952
        k(   21) = (   0.1681033   0.1400861   0.0000000), wk =   0.0380952
        k(   22) = (   0.1681033   0.1400861   0.1200738), wk =   0.0761905
        k(   23) = (   0.1681033   0.1400861   0.2401476), wk =   0.0761905
        k(   24) = (   0.1681033   0.1400861   0.3602214), wk =   0.0761905
        k(   25) = (   0.1681033   0.2801722   0.0000000), wk =   0.0380952
        k(   26) = (   0.1681033   0.2801722   0.1200738), wk =   0.0761905
        k(   27) = (   0.1681033   0.2801722   0.2401476), wk =   0.0761905
        k(   28) = (   0.1681033   0.2801722   0.3602214), wk =   0.0761905
        k(   29) = (   0.1681033  -0.4202582   0.0000000), wk =   0.0190476
        k(   30) = (   0.1681033  -0.4202582   0.1200738), wk =   0.0380952
        k(   31) = (   0.1681033  -0.4202582   0.2401476), wk =   0.0380952
        k(   32) = (   0.1681033  -0.4202582   0.3602214), wk =   0.0380952
        k(   33) = (   0.3362066   0.0000000   0.0000000), wk =   0.0190476
        k(   34) = (   0.3362066   0.0000000   0.1200738), wk =   0.0380952
        k(   35) = (   0.3362066   0.0000000   0.2401476), wk =   0.0380952
        k(   36) = (   0.3362066   0.0000000   0.3602214), wk =   0.0380952
        k(   37) = (   0.3362066   0.1400861   0.0000000), wk =   0.0380952
        k(   38) = (   0.3362066   0.1400861   0.1200738), wk =   0.0761905
        k(   39) = (   0.3362066   0.1400861   0.2401476), wk =   0.0761905
        k(   40) = (   0.3362066   0.1400861   0.3602214), wk =   0.0761905
        k(   41) = (   0.3362066   0.2801722   0.0000000), wk =   0.0380952
        k(   42) = (   0.3362066   0.2801722   0.1200738), wk =   0.0761905
        k(   43) = (   0.3362066   0.2801722   0.2401476), wk =   0.0761905
        k(   44) = (   0.3362066   0.2801722   0.3602214), wk =   0.0761905
        k(   45) = (   0.3362066  -0.4202582   0.0000000), wk =   0.0190476
        k(   46) = (   0.3362066  -0.4202582   0.1200738), wk =   0.0380952
        k(   47) = (   0.3362066  -0.4202582   0.2401476), wk =   0.0380952
        k(   48) = (   0.3362066  -0.4202582   0.3602214), wk =   0.0380952

     Largest allocated arrays     est. size (Mb)     dimensions
     Largest temporary arrays     est. size (Mb)     dimensions

     Initial potential from superposition of free atoms

     Starting from uniform charge
     Starting wfc are    0 randomized atomic wfcs

     Writing output data file Prototype-La-cP8-Cr3Si.save

     Self-consistent Calculation

[...]

     iteration #  8     ecut=    40.00 Ry     beta=0.70
     CG style diagonalization
     c_bands:  1 eigenvalues not converged
     c_bands:  1 eigenvalues not converged
     ethr =  7.72E-06,  avg # of iterations =  3.9

[...]

     total energy              =   -1430.58121897 Ry
     Harris-Foulkes estimate   =   -1430.58121999 Ry
     estimated scf accuracy    <       0.00000193 Ry

     iteration # 12     ecut=    40.00 Ry     beta=0.70
     CG style diagonalization
     ethr =  1.42E-09,  avg # of iterations =  3.7

     End of self-consistent calculation

[...]

          k = 0.3362-0.4203 0.3602 (  4490 PWs)   bands (ev):

   -57.6206 -57.6204 -32.7836 -32.7704 -32.7324 -32.7322 -32.6953 -32.6816
   -24.5393 -24.5393 -24.5372 -24.5370 -24.5320 -24.5320  -8.5587  -8.4651
    -8.2251  -8.2222  -8.0946  -8.0930  -8.0025  -7.9419  -7.8274  -7.8044
    -7.7701  -7.7516  -7.7047  -7.7035  -7.6754  -7.6728  -7.6584  -7.6575
    15.9949  16.0071  16.0544  16.0796  16.0974  16.1029  16.1395  16.1470
    16.1766  16.1819  18.7250  18.7254  20.1440  20.2079  20.5164  20.5518
    20.6580  20.6823  20.9776  21.0822  21.2800  21.3446  21.5394  21.5659
    21.9187  22.0596  22.5974  22.6765  22.8987  23.0483  23.1395  23.1730
    23.5261  23.6217  24.2556  24.4070  24.5595  24.5806  24.6153  24.6621
    25.3603  25.3959  26.0929  26.2834  26.5077  26.8191  27.4668  27.5561
    32.5958  32.6010

     the Fermi energy is    24.8456 ev

!    total energy              =   -1430.58121959 Ry
     Harris-Foulkes estimate   =   -1430.58121961 Ry
     estimated scf accuracy    <       0.00000002 Ry

     The total energy is the sum of the following terms:

     one-electron contribution =    -138.54543223 Ry
     hartree contribution      =     174.22915001 Ry
     xc contribution           =    -146.53163790 Ry
     ewald contribution        =   -1319.21311307 Ry
     smearing contrib. (-TS)   =      -0.52018640 Ry

     convergence has been achieved in  12 iterations

     Forces acting on atoms (Ry/au):

     atom    1 type  1   force =     0.00000000    0.00000000    0.00000000
     atom    2 type  1   force =     0.00000000    0.00000000    0.00000000
     atom    3 type  1   force =     0.00000000    0.00000000    0.00000000
     atom    4 type  1   force =     0.00000000    0.00000000    0.00000000
     atom    5 type  1   force =     0.00000000    0.00000000    0.00000000
     atom    6 type  1   force =     0.00000000    0.00000000    0.00000000
     atom    7 type  2   force =     0.00000000    0.00000000    0.00000000
     atom    8 type  2   force =     0.00000000    0.00000000    0.00000000

     Total force =     0.000000     Total SCF correction =     0.000000

     entering subroutine stress ...

          total   stress  (Ry/bohr**3)                   (kbar)     P=   46.40
   0.00031541   0.00000000   0.00000000         46.40      0.00      0.00
   0.00000000   0.00031541   0.00000000          0.00     46.40      0.00
   0.00000000   0.00000000   0.00031541          0.00      0.00     46.40

     Writing output data file Prototype-La-cP8-Cr3Si.save

     General routines

     Parallel routines

   This run was terminated on:  19: 2:15  22Mar2018

   JOB DONE.