     Program PWSCF v.5.0.2 starts on 22Mar2018 at 18:41:58

     Current dimensions of program PWSCF are:
     Max number of different atomic species (ntypx) = 10
     Max number of k-points (npk) =  40000
     Max angular momentum in pseudopotentials (lmaxx) =  3
     Waiting for input...
     Reading input from standard input

     Subspace diagonalization in iterative solution of the eigenvalue problem:
     a serial algorithm will be used

     bravais-lattice index     =            0
     lattice parameter (alat)  =       7.0151  a.u.
     unit-cell volume          =     862.2778 (a.u.)^3
     number of atoms/cell      =           12
     number of atomic types    =            2
     number of electrons       =       208.00
     number of Kohn-Sham states=          125
     kinetic-energy cutoff     =      40.0000  Ry
     charge density cutoff     =     160.0000  Ry
     convergence threshold     =      1.0E-04
     mixing beta               =       0.7000
     number of iterations used =            8  plain     mixing
     Exchange-correlation      = SLA-PZ-NOGX-NOGC ( 1 1 0 0 0)
     EXX-fraction              =        0.00
     nstep                     =           50

     celldm(1)=   7.015105  celldm(2)=   0.000000  celldm(3)=   0.000000
     celldm(4)=   0.000000  celldm(5)=   0.000000  celldm(6)=   0.000000

     crystal axes: (cart. coord. in units of alat)
               a(1) = (   1.000000   0.000000   0.000000 )
               a(2) = (   0.000000   1.315963   0.000000 )
               a(3) = (   0.000000   0.000000   1.898020 )

     reciprocal axes: (cart. coord. in units 2 pi/alat)
               b(1) = (  1.000000  0.000000  0.000000 )
               b(2) = (  0.000000  0.759900  0.000000 )
               b(3) = (  0.000000  0.000000  0.526865 )

     PseudoPot. # 1 for Sm read from file:
     /home/cwx6513/pp.La/Sm.UPF
     MD5 check sum: 5079e8b144a06bfcdbc14fb02b96ab09
     Pseudo is Norm-conserving, Zval = 16.0
     Generated in analytical, separable form
     Using radial grid of 1259 points,  6 beta functions with:
                l(1) =   0
                l(2) =   0
                l(3) =   1
                l(4) =   1
                l(5) =   2
                l(6) =   3

     PseudoPot. # 2 for Dy read from file:
     /home/cwx6513/pp.La/Dy.UPF
     MD5 check sum: 9597327bec62616a94a14d07f3fd9936
     Pseudo is Norm-conserving, Zval = 20.0
     Generated in analytical, separable form
     Using radial grid of 1265 points,  6 beta functions with:
                l(1) =   0
                l(2) =   0
                l(3) =   1
                l(4) =   1
                l(5) =   2
                l(6) =   3

     atomic species   valence    mass     pseudopotential
        Co            16.00    58.93320     Sm( 1.00)
        Si            20.00    28.08550     Dy( 1.00)

      8 Sym. Ops., with inversion, found ( 6 have fractional translation)

   Cartesian axes

     site n.     atom                  positions (alat units)
         1           Co  tau(   1) = (   0.7500000   1.0875135   0.8270358  )
         2           Co  tau(   2) = (   0.2500000   0.2284499   1.0709846  )
         3           Co  tau(   3) = (   0.7500000   0.4295318   0.1219744  )
         4           Co  tau(   4) = (   0.2500000   0.8864316   1.7760460  )
         5           Co  tau(   5) = (   0.2500000   0.7067855   0.5358966  )
         6           Co  tau(   6) = (   0.7500000   0.6091779   1.3621238  )
         7           Co  tau(   7) = (   0.2500000   0.0488038   0.4131136  )
         8           Co  tau(   8) = (   0.7500000   1.2671596   1.4849068  )
         9           Si  tau(   9) = (   0.2500000   0.2669484   1.6960710  )
        10           Si  tau(  10) = (   0.7500000   1.0490149   0.2019494  )
        11           Si  tau(  11) = (   0.2500000   0.9249301   1.1509596  )
        12           Si  tau(  12) = (   0.7500000   0.3910333   0.7470608  )

     number of k points=    12  gaussian smearing, width (Ry)=  0.1000
                       cart. coord. in units 2pi/alat
        k(    1) = (   0.0000000   0.0000000   0.0000000), wk =   0.0833333
        k(    2) = (   0.0000000   0.0000000   0.1317162), wk =   0.1666667
        k(    3) = (   0.0000000   0.0000000  -0.2634324), wk =   0.0833333
        k(    4) = (   0.0000000   0.2532999   0.0000000), wk =   0.1666667
        k(    5) = (   0.0000000   0.2532999   0.1317162), wk =   0.3333333
        k(    6) = (   0.0000000   0.2532999  -0.2634324), wk =   0.1666667
        k(    7) = (  -0.5000000   0.0000000   0.0000000), wk =   0.0833333
        k(    8) = (  -0.5000000   0.0000000   0.1317162), wk =   0.1666667
        k(    9) = (  -0.5000000   0.0000000  -0.2634324), wk =   0.0833333
        k(   10) = (  -0.5000000   0.2532999   0.0000000), wk =   0.1666667
        k(   11) = (  -0.5000000   0.2532999   0.1317162), wk =   0.3333333
        k(   12) = (  -0.5000000   0.2532999  -0.2634324), wk =   0.1666667

     Largest allocated arrays     est. size (Mb)     dimensions
     Largest temporary arrays     est. size (Mb)     dimensions

     Initial potential from superposition of free atoms

     Starting from uniform charge
     Starting wfc are    0 randomized atomic wfcs

     Self-consistent Calculation

     iteration #  1     ecut=    40.00 Ry     beta=0.70
     CG style diagonalization
     c_bands:  2 eigenvalues not converged
     c_bands:  1 eigenvalues not converged
     c_bands:  2 eigenvalues not converged
     c_bands:  3 eigenvalues not converged
     c_bands:  1 eigenvalues not converged
     c_bands:  1 eigenvalues not converged
     c_bands:  1 eigenvalues not converged
     ethr =  1.00E-02,  avg # of iterations = 12.3

     total energy              =   -1618.46077877 Ry
     Harris-Foulkes estimate   =   -2516.86884420 Ry
     estimated scf accuracy    <    1101.03294319 Ry

[...]

     iteration #  3     ecut=    40.00 Ry     beta=0.70
     CG style diagonalization
     ethr =  1.00E-02,  avg # of iterations = 11.6

[...]

     End of self-consistent calculation

          k = 0.0000 0.0000 0.0000 (  3675 PWs)   bands (ev):

   -36.9734 -36.9477 -36.9472 -36.9440 -11.1586 -10.8681 -10.6266 -10.0265
    -9.9296  -9.9043  -9.8056  -9.7480  -4.8124  -4.7192  -4.6608  -4.6023
    -4.5760  -4.4831  -4.3076  -4.2317  -4.2157  -4.1860  -4.0918  -3.9594
    10.9425  11.5398  11.7945  12.2632  12.3807  12.4691  12.9733  13.0612
    13.5366  13.6524  13.6730  13.6869  13.8798  14.2376  14.6486  14.7099
    14.7391  14.7961  14.9613  15.3229  15.7441  16.0038  16.2835  16.5508
    31.8793  32.0607  32.4641  32.9259  33.0371  33.1306  33.1909  33.3113
    33.9908  34.0925  34.2466  34.8298  34.9964  35.2097  35.9092  35.9770
    36.4000  36.5302  37.0733  37.1068  37.7621  37.7626  39.7469  39.7791
    39.9266  40.3713  40.7225  40.7286  41.2177  41.4070  41.6648  41.9148
    42.1948  42.2843  42.4816  43.3792  43.4578  44.0238  44.1153  44.1260
    44.5213  45.0568  45.4192  45.6866  46.0873  46.4638  46.9380  47.2445
    48.2261  48.4984  48.7346  48.8779  48.9802  49.2509  49.7001  50.3995
    50.4625  50.5174  50.7691  50.8249  51.4306  52.3669  52.5225  52.9235
    53.9105  54.4690  55.6710  55.8639  55.9844  56.6744  56.6753  57.0505
    57.2233  57.2274  57.2333  57.6420  58.3765

[...]

          k =-0.5000 0.0000 0.0000 (  3722 PWs)   bands (ev):

[...]

     the Fermi energy is    49.6585 ev

!    total energy              =   -2242.58146765 Ry
     Harris-Foulkes estimate   =   -2242.58146980 Ry
     estimated scf accuracy    <       0.00000250 Ry

     The total energy is the sum of the following terms:

     one-electron contribution =     364.18120291 Ry
     hartree contribution      =     147.91088168 Ry
     xc contribution           =    -243.07951056 Ry
     ewald contribution        =   -2511.19974440 Ry
     smearing contrib. (-TS)   =      -0.39429728 Ry

     convergence has been achieved in  11 iterations

     Forces acting on atoms (Ry/au):

     atom    1 type  1   force =     0.00000000   -0.05136201   -0.04421877
     atom    2 type  1   force =     0.00000000    0.05136201    0.04421877
     atom    3 type  1   force =     0.00000000   -0.05136201    0.04421877
     atom    4 type  1   force =     0.00000000    0.05136201   -0.04421877
     atom    5 type  1   force =     0.00000000    0.16898309   -0.26358283
     atom    6 type  1   force =     0.00000000   -0.16898309    0.26358283
     atom    7 type  1   force =     0.00000000    0.16898309    0.26358283
     atom    8 type  1   force =     0.00000000   -0.16898309   -0.26358283
     atom    9 type  2   force =     0.00000000   -0.21531905    0.00713669
     atom   10 type  2   force =     0.00000000    0.21531905   -0.00713669
     atom   11 type  2   force =     0.00000000   -0.21531905   -0.00713669
     atom   12 type  2   force =     0.00000000    0.21531905    0.00713669

     Total force =     0.772108     Total SCF correction =     0.000000

     entering subroutine stress ...

          total   stress  (Ry/bohr**3)                   (kbar)     P= 6880.63
   0.05008071   0.00000000   0.00000000       7367.12      0.00      0.00
   0.00000000   0.04325363   0.00000000          0.00   6362.83      0.00
   0.00000000   0.00000000   0.04698651          0.00      0.00   6911.95

     BFGS Geometry Optimization

     number of scf cycles    =   1
     number of bfgs steps    =   0

     enthalpy new            =   -2242.5814676496 Ry

     new trust radius        =       0.5000000000 bohr
     new conv_thr            =       0.0001000000 Ry

     new unit-cell volume =   1084.72637 a.u.^3 (   160.73986 Ang^3 )

CELL_PARAMETERS (alat=  7.01510508)
   1.085136619   0.000000000   0.000000000
   0.000000000   1.412727053   0.000000000
   0.000000000   0.000000000   2.049627660

ATOMIC_POSITIONS (crystal)
Co       0.750000000   0.826022671   0.435510172
Co       0.250000000   0.173977329   0.564489828
Co       0.750000000   0.326022671   0.064489828
Co       0.250000000   0.673977329   0.935510172
Co       0.250000000   0.538330719   0.280998867
Co       0.750000000   0.461669281   0.719001133
Co       0.250000000   0.038330719   0.219001133
Co       0.750000000   0.961669281   0.780998867
Si       0.250000000   0.201267974   0.893636448
Si       0.750000000   0.798732026   0.106363552
Si       0.250000000   0.701267974   0.606363552
Si       0.750000000   0.298732026   0.393636448

     Writing output data file Prototype-La-oP12-Co2Si.save
     NEW-OLD atomic charge density approx. for the potential
     NEW k-points:
        k(    1) = (   0.0000000   0.0000000   0.0000000), wk =   0.0833333
        k(    2) = (   0.0000000   0.0000000   0.1219734), wk =   0.1666667
        k(    3) = (   0.0000000   0.0000000  -0.2439467), wk =   0.0833333
        k(    4) = (   0.0000000   0.2359503   0.0000000), wk =   0.1666667
        k(    5) = (   0.0000000   0.2359503   0.1219734), wk =   0.3333333
        k(    6) = (   0.0000000   0.2359503  -0.2439467), wk =   0.1666667
        k(    7) = (  -0.4607715   0.0000000   0.0000000), wk =   0.0833333
        k(    8) = (  -0.4607715   0.0000000   0.1219734), wk =   0.1666667
        k(    9) = (  -0.4607715   0.0000000  -0.2439467), wk =   0.0833333
        k(   10) = (  -0.4607715   0.2359503   0.0000000), wk =   0.1666667
        k(   11) = (  -0.4607715   0.2359503   0.1219734), wk =   0.3333333
        k(   12) = (  -0.4607715   0.2359503  -0.2439467), wk =   0.1666667

[...]

     enthalpy old            =   -2242.5814676496 Ry
     enthalpy new            =   -2249.0488076179 Ry

     CASE: enthalpy_new < enthalpy_old

     small trust_radius: resetting bfgs history

     new trust radius        =       2.7176793234 bohr
     new conv_thr            =       0.0001000000 Ry

[...]

          total   stress  (Ry/bohr**3)                   (kbar)     P=-1547.42
  -0.01117706   0.00000000   0.00000000      -1644.20      0.00      0.00
   0.00000000  -0.00984893   0.00000000          0.00  -1448.83      0.00
   0.00000000   0.00000000  -0.01053139          0.00      0.00  -1549.22

     number of scf cycles    =   3
     number of bfgs steps    =   2

     enthalpy old            =   -2249.0488076179 Ry
     enthalpy new            =   -2237.9369093456 Ry

     CASE: enthalpy_new > enthalpy_old

     new trust radius        =       0.9918496293 bohr

     trust_radius < trust_radius_min

     resetting bfgs history

     Message from routine bfgs:
     history already reset at previous step: stopping
     new conv_thr            =       0.0001000000 Ry

     new unit-cell volume =   1287.12470 a.u.^3 (   190.73220 Ang^3 )

[...]

ATOMIC_POSITIONS (crystal)
Co       0.750000000   0.825551822   0.435490594
Co       0.250000000   0.174448178   0.564509406
Co       0.750000000   0.325551822   0.064509406
Co       0.250000000   0.674448178   0.935490594
Co       0.250000000   0.539541391   0.279838619
Co       0.750000000   0.460458609   0.720161381
Co       0.250000000   0.039541391   0.220161381
Co       0.750000000   0.960458609   0.779838619
Si       0.250000000   0.199764557   0.893837225
Si       0.750000000   0.800235443   0.106162775
Si       0.250000000   0.699764557   0.606162775
Si       0.750000000   0.300235443   0.393837225

     Writing output data file Prototype-La-oP12-Co2Si.save
     NEW-OLD atomic charge density approx. for the potential
     NEW k-points:
        k(    1) = (   0.0000000   0.0000000   0.0000000), wk =   0.0833333
        k(    2) = (   0.0000000   0.0000000   0.1151530), wk =   0.1666667
        k(    3) = (   0.0000000   0.0000000  -0.2303060), wk =   0.0833333
        k(    4) = (   0.0000000   0.2245273   0.0000000), wk =   0.1666667
        k(    5) = (   0.0000000   0.2245273   0.1151530), wk =   0.3333333
        k(    6) = (   0.0000000   0.2245273  -0.2303060), wk =   0.1666667
        k(    7) = (  -0.4322414   0.0000000   0.0000000), wk =   0.0833333
        k(    8) = (  -0.4322414   0.0000000   0.1151530), wk =   0.1666667
        k(    9) = (  -0.4322414   0.0000000  -0.2303060), wk =   0.0833333
        k(   10) = (  -0.4322414   0.2245273   0.0000000), wk =   0.1666667
        k(   11) = (  -0.4322414   0.2245273   0.1151530), wk =   0.3333333
        k(   12) = (  -0.4322414   0.2245273  -0.2303060), wk =   0.1666667

[...]

     The maximum number of steps has been reached.

     End of BFGS Geometry Optimization
Begin final coordinates
     new unit-cell volume =   1287.12470 a.u.^3 (   190.73220 Ang^3 )

CELL_PARAMETERS (alat=  7.01510508)
   1.156760959   0.000000000   0.000000000
   0.000000000   1.484600760   0.000000000
   0.000000000   0.000000000   2.171024778

ATOMIC_POSITIONS (crystal)
Co       0.750000000   0.825551822   0.435490594
Co       0.250000000   0.174448178   0.564509406
Co       0.750000000   0.325551822   0.064509406
Co       0.250000000   0.674448178   0.935490594
Co       0.250000000   0.539541391   0.279838619
Co       0.750000000   0.460458609   0.720161381
Co       0.250000000   0.039541391   0.220161381
Co       0.750000000   0.960458609   0.779838619
Si       0.250000000   0.199764557   0.893837225
Si       0.750000000   0.800235443   0.106162775
Si       0.250000000   0.699764557   0.606162775
Si       0.750000000   0.300235443   0.393837225
End final coordinates

     A final scf calculation at the relaxed structure.
     The G-vectors are recalculated for the final unit cell
     Results may differ from those at the preceding step.

     bravais-lattice index     =            0
     lattice parameter (alat)  =       7.0151  a.u.
     unit-cell volume          =    1287.1247 (a.u.)^3
     number of atoms/cell      =           12
     number of atomic types    =            2
     number of electrons       =       208.00
     number of Kohn-Sham states=          125
     kinetic-energy cutoff     =      40.0000  Ry
     charge density cutoff     =     160.0000  Ry
     convergence threshold     =      1.0E-04
     mixing beta               =       0.7000
     number of iterations used =            8  plain     mixing
     Exchange-correlation      = SLA-PZ-NOGX-NOGC ( 1 1 0 0 0)
     EXX-fraction              =        0.00

     celldm(1)=   7.015105  celldm(2)=   0.000000  celldm(3)=   0.000000
     celldm(4)=   0.000000  celldm(5)=   0.000000  celldm(6)=   0.000000

     crystal axes: (cart. coord. in units of alat)
               a(1) = (   1.156761   0.000000   0.000000 )
               a(2) = (   0.000000   1.484601   0.000000 )
               a(3) = (   0.000000   0.000000   2.171025 )

     reciprocal axes: (cart. coord. in units 2 pi/alat)
               b(1) = (  0.864483  0.000000  0.000000 )
               b(2) = (  0.000000  0.673582  0.000000 )
               b(3) = (  0.000000  0.000000  0.460612 )

     PseudoPot. # 1 for Sm read from file:
     /home/cwx6513/pp.La/Sm.UPF
     MD5 check sum: 5079e8b144a06bfcdbc14fb02b96ab09
     Pseudo is Norm-conserving, Zval = 16.0
     Generated in analytical, separable form
     Using radial grid of 1259 points,  6 beta functions with:
                l(1) =   0
                l(2) =   0
                l(3) =   1
                l(4) =   1
                l(5) =   2
                l(6) =   3

     PseudoPot. # 2 for Dy read from file:
     /home/cwx6513/pp.La/Dy.UPF
     MD5 check sum: 9597327bec62616a94a14d07f3fd9936
     Pseudo is Norm-conserving, Zval = 20.0
     Generated in analytical, separable form
     Using radial grid of 1265 points,  6 beta functions with:
                l(1) =   0
                l(2) =   0
                l(3) =   1
                l(4) =   1
                l(5) =   2
                l(6) =   3

     atomic species   valence    mass     pseudopotential
        Co            16.00    58.93320     Sm( 1.00)
        Si            20.00    28.08550     Dy( 1.00)

      8 Sym. Ops., with inversion, found ( 6 have fractional translation)

   Cartesian axes

     site n.     atom                  positions (alat units)
         1           Co  tau(   1) = (   0.8675707   1.2256149   0.9454609  )
         2           Co  tau(   2) = (   0.2891902   0.2589859   1.2255639  )
         3           Co  tau(   3) = (   0.8675707   0.4833145   0.1400515  )
         4           Co  tau(   4) = (   0.2891902   1.0012863   2.0309733  )
         5           Co  tau(   5) = (   0.2891902   0.8010036   0.6075366  )
         6           Co  tau(   6) = (   0.8675707   0.6835972   1.5634882  )
         7           Co  tau(   7) = (   0.2891902   0.0587032   0.4779758  )
         8           Co  tau(   8) = (   0.8675707   1.4258976   1.6930490  )
         9           Si  tau(   9) = (   0.2891902   0.2965706   1.9405428  )
        10           Si  tau(  10) = (   0.8675707   1.1880301   0.2304820  )
        11           Si  tau(  11) = (   0.2891902   1.0388710   1.3159944  )
        12           Si  tau(  12) = (   0.8675707   0.4457298   0.8550304  )

     number of k points=    12  gaussian smearing, width (Ry)=  0.1000
                       cart. coord. in units 2pi/alat
        k(    1) = (   0.0000000   0.0000000   0.0000000), wk =   0.0833333
        k(    2) = (   0.0000000   0.0000000   0.1151530), wk =   0.1666667
        k(    3) = (   0.0000000   0.0000000  -0.2303060), wk =   0.0833333
        k(    4) = (   0.0000000   0.2245273   0.0000000), wk =   0.1666667
        k(    5) = (   0.0000000   0.2245273   0.1151530), wk =   0.3333333
        k(    6) = (   0.0000000   0.2245273  -0.2303060), wk =   0.1666667
        k(    7) = (  -0.4322414   0.0000000   0.0000000), wk =   0.0833333
        k(    8) = (  -0.4322414   0.0000000   0.1151530), wk =   0.1666667
        k(    9) = (  -0.4322414   0.0000000  -0.2303060), wk =   0.0833333
        k(   10) = (  -0.4322414   0.2245273   0.0000000), wk =   0.1666667
        k(   11) = (  -0.4322414   0.2245273   0.1151530), wk =   0.3333333
        k(   12) = (  -0.4322414   0.2245273  -0.2303060), wk =   0.1666667

     Largest allocated arrays     est. size (Mb)     dimensions
     Largest temporary arrays     est. size (Mb)     dimensions

     Initial potential from superposition of free atoms

     Starting from uniform charge
     Starting wfc are    0 randomized atomic wfcs

     Writing output data file Prototype-La-oP12-Co2Si.save

     Self-consistent Calculation

[...]

     iteration # 10     ecut=    40.00 Ry     beta=0.70
     CG style diagonalization
     c_bands:  1 eigenvalues not converged
     c_bands:  1 eigenvalues not converged
     ethr =  1.02E-06,  avg # of iterations =  4.4

     total energy              =   -2253.23581636 Ry
     Harris-Foulkes estimate   =   -2253.23619913 Ry
     estimated scf accuracy    <       0.00071317 Ry

     iteration # 11     ecut=    40.00 Ry     beta=0.70
     CG style diagonalization
     ethr =  3.43E-07,  avg # of iterations =  3.6

     End of self-consistent calculation

[...]

          k = 0.0000 0.2245-0.2303 (  5488 PWs)   bands (ev):

[...]

          k =-0.4322 0.2245-0.2303 (  5516 PWs)   bands (ev):

   -51.8870 -51.8870 -51.8860 -51.8860 -26.3638 -26.3638 -26.2521 -26.2521
   -26.1534 -26.1534 -26.1523 -26.1523 -18.9531 -18.9531 -18.9492 -18.9492
   -18.9412 -18.9412 -18.9271 -18.9271 -18.8402 -18.8402 -18.8328 -18.8328
    -2.3867  -2.3867  -2.1151  -2.1151  -2.0845  -2.0845  -1.9923  -1.9923
    -1.9328  -1.9328  -1.5520  -1.5520  -1.3788  -1.3788  -1.2770  -1.2770
    -1.1963  -1.1963  -1.1773  -1.1773  -1.0248  -1.0248  -0.9897  -0.9897
    20.7401  20.7401  20.8882  20.8882  20.9302  20.9302  21.1717  21.1717
    21.3071  21.3071  21.3622  21.3622  21.5341  21.5341  21.5784  21.5784
    22.0972  22.0972  22.3076  22.3076  24.2268  24.2268  24.4736  24.4736
    25.5460  25.5460  25.9671  25.9671  26.2744  26.2744  26.3449  26.3449
    26.4652  26.4652  27.1684  27.1684  27.3841  27.3841  27.8889  27.8889
    28.1104  28.1104  28.5430  28.5430  28.6748  28.6748  29.4892  29.4892
    29.5562  29.5562  29.9602  29.9602  30.6084  30.6084  31.2813  31.2813
    31.6139  31.6139  32.0037  32.0037  32.4132  32.4132  32.5385  32.5385
    34.1849  34.1849  34.7786  34.7786  36.0107  36.0108  38.9119  38.9120
    39.7319  39.7321  40.2067  40.2067  40.3965

     the Fermi energy is    31.5177 ev

!    total energy              =   -2253.23595072 Ry
     Harris-Foulkes estimate   =   -2253.23596309 Ry
     estimated scf accuracy    <       0.00001387 Ry

     The total energy is the sum of the following terms:

     one-electron contribution =     -58.40588619 Ry
     hartree contribution      =     235.48276501 Ry
     xc contribution           =    -231.23368648 Ry
     ewald contribution        =   -2198.46430434 Ry
     smearing contrib. (-TS)   =      -0.61483871 Ry

     convergence has been achieved in  11 iterations

     Forces acting on atoms (Ry/au):

     atom    1 type  1   force =     0.00000000   -0.03685085    0.00023603
     atom    2 type  1   force =     0.00000000    0.03685085   -0.00023603
     atom    3 type  1   force =     0.00000000   -0.03685085   -0.00023603
     atom    4 type  1   force =     0.00000000    0.03685085    0.00023603
     atom    5 type  1   force =     0.00000000    0.06222865   -0.09202042
     atom    6 type  1   force =     0.00000000   -0.06222865    0.09202042
     atom    7 type  1   force =     0.00000000    0.06222865    0.09202042
     atom    8 type  1   force =     0.00000000   -0.06222865   -0.09202042
     atom    9 type  2   force =     0.00000000   -0.08542257    0.00532462
     atom   10 type  2   force =     0.00000000    0.08542257   -0.00532462
     atom   11 type  2   force =     0.00000000   -0.08542257   -0.00532462
     atom   12 type  2   force =     0.00000000    0.08542257    0.00532462

     Total force =     0.289990     Total SCF correction =     0.000000

     entering subroutine stress ...

          total   stress  (Ry/bohr**3)                   (kbar)     P=  972.73
   0.00715973   0.00000000   0.00000000       1053.23      0.00      0.00
   0.00000000   0.00606064   0.00000000          0.00    891.55      0.00
   0.00000000   0.00000000   0.00661703          0.00      0.00    973.40

     Writing output data file Prototype-La-oP12-Co2Si.save

     General routines

     Parallel routines

   This run was terminated on:  18:57:40  22Mar2018

   JOB DONE.