     Program PWSCF v.5.0.2 starts on 22Mar2018 at 18:41:57

     Current dimensions of program PWSCF are:
     Max number of different atomic species (ntypx) = 10
     Max number of k-points (npk) =  40000
     Max angular momentum in pseudopotentials (lmaxx) =  3
     Waiting for input...
     Reading input from standard input

     Subspace diagonalization in iterative solution of the eigenvalue problem:
     a serial algorithm will be used

     bravais-lattice index     =            0
     lattice parameter (alat)  =       9.9235  a.u.
     unit-cell volume          =    1361.0366 (a.u.)^3
     number of atoms/cell      =           12
     number of atomic types    =            2
     number of electrons       =       224.00
     number of Kohn-Sham states=          134
     kinetic-energy cutoff     =      40.0000  Ry
     charge density cutoff     =     160.0000  Ry
     convergence threshold     =      1.0E-04
     mixing beta               =       0.7000
     number of iterations used =            8  plain     mixing
     Exchange-correlation      = SLA-PZ-NOGX-NOGC ( 1 1 0 0 0)
     EXX-fraction              =        0.00
     nstep                     =           50

     celldm(1)=   9.923489  celldm(2)=   0.000000  celldm(3)=   0.000000
     celldm(4)=   0.000000  celldm(5)=   0.000000  celldm(6)=   0.000000

     crystal axes: (cart. coord. in units of alat)
               a(1) = (   1.000000   0.000000   0.000000 )
               a(2) = (  -0.500000   0.866025   0.000000 )
               a(3) = (   0.000000   0.000000   1.608222 )

     reciprocal axes: (cart. coord. in units 2 pi/alat)
               b(1) = (  1.000000  0.577350  0.000000 )
               b(2) = (  0.000000  1.154701  0.000000 )
               b(3) = (  0.000000  0.000000  0.621805 )

     PseudoPot. # 1 for Sm read from file:
     /home/cwx6513/pp.La/Sm.UPF
     MD5 check sum: 5079e8b144a06bfcdbc14fb02b96ab09
     Pseudo is Norm-conserving, Zval = 16.0
     Generated in analytical, separable form
     Using radial grid of 1259 points,  6 beta functions with:
                l(1) =   0
                l(2) =   0
                l(3) =   1
                l(4) =   1
                l(5) =   2
                l(6) =   3

     PseudoPot. # 2 for Dy read from file:
     /home/cwx6513/pp.La/Dy.UPF
     MD5 check sum: 9597327bec62616a94a14d07f3fd9936
     Pseudo is Norm-conserving, Zval = 20.0
     Generated in analytical, separable form
     Using radial grid of 1265 points,  6 beta functions with:
                l(1) =   0
                l(2) =   0
                l(3) =   1
                l(4) =   1
                l(5) =   2
                l(6) =   3

     atomic species   valence    mass     pseudopotential
        Mg            16.00    24.30500     Sm( 1.00)
        Zn            20.00    65.39000     Dy( 1.00)

     24 Sym. Ops., with inversion, found (12 have fractional translation)

   Cartesian axes

     site n.     atom                  positions (alat units)
         1           Mg  tau(   1) = (  -0.0000005   0.5773506   0.1003820  )
         2           Mg  tau(   2) = (   0.5000005   0.2886748   0.9044931  )
         3           Mg  tau(   3) = (   0.5000005   0.2886748   1.5078402  )
         4           Mg  tau(   4) = (  -0.0000005   0.5773506   0.7037291  )
         5           Zn  tau(   5) = (   0.0000000   0.0000000   0.0000000  )
         6           Zn  tau(   6) = (   0.0000000   0.0000000   0.8041111  )
         7           Zn  tau(   7) = (   0.0000000   0.2950739   1.2061667  )
         8           Zn  tau(   8) = (   0.7444585   0.1475370   0.4020556  )
         9           Zn  tau(   9) = (   0.2555415   0.1475370   0.4020556  )
        10           Zn  tau(  10) = (   0.2444585   0.7184884   1.2061667  )
        11           Zn  tau(  11) = (  -0.2444585   0.7184884   1.2061667  )
        12           Zn  tau(  12) = (   0.5000000   0.5709515   0.4020556  )

     number of k points=    12  gaussian smearing, width (Ry)=  0.1000
                       cart. coord. in units 2pi/alat
        k(    1) = (   0.0000000   0.0000000   0.0000000), wk =   0.0833333
        k(    2) = (   0.0000000   0.0000000   0.1554512), wk =   0.1666667
        k(    3) = (   0.0000000   0.0000000  -0.3109023), wk =   0.0833333
        k(    4) = (   0.0000000   0.3849002   0.0000000), wk =   0.1666667
        k(    5) = (   0.0000000   0.3849002   0.1554512), wk =   0.3333333
        k(    6) = (   0.0000000   0.3849002  -0.3109023), wk =   0.1666667
        k(    7) = (  -0.5000000  -0.2886751   0.0000000), wk =   0.0833333
        k(    8) = (  -0.5000000  -0.2886751   0.1554512), wk =   0.1666667
        k(    9) = (  -0.5000000  -0.2886751  -0.3109023), wk =   0.0833333
        k(   10) = (  -0.5000000   0.0962250   0.0000000), wk =   0.1666667
        k(   11) = (  -0.5000000   0.0962250   0.1554512), wk =   0.3333333
        k(   12) = (  -0.5000000   0.0962250  -0.3109023), wk =   0.1666667

     Largest allocated arrays     est. size (Mb)     dimensions
     Largest temporary arrays     est. size (Mb)     dimensions

     Initial potential from superposition of free atoms

     Starting from uniform charge
     Starting wfc are    0 randomized atomic wfcs

     Self-consistent Calculation

     iteration #  1     ecut=    40.00 Ry     beta=0.70
     CG style diagonalization
     c_bands:  1 eigenvalues not converged
     c_bands:  1 eigenvalues not converged
     ethr =  1.00E-02,  avg # of iterations = 19.6

     total energy              =   -1778.74745893 Ry
     Harris-Foulkes estimate   =   -3393.78033066 Ry
     estimated scf accuracy    <    1954.45533259 Ry

     iteration #  2     ecut=    40.00 Ry     beta=0.70
     CG style diagonalization
     ethr =  1.00E-02,  avg # of iterations = 19.4

[...]

     End of self-consistent calculation

          k = 0.0000 0.0000 0.0000 (  5769 PWs)   bands (ev):

   -53.4645 -53.4300 -53.2962 -53.2665 -53.2665 -53.2608 -53.2608 -53.2337
   -26.4278 -26.4065 -26.3655 -26.3397 -21.7146 -21.4783 -21.0817 -20.7185
   -20.7185 -20.6676 -20.6676 -20.5381 -20.5381 -20.4202 -20.3646 -20.2066
   -20.2066 -20.1623 -20.1623 -19.9155 -19.9155 -19.8972 -19.8547 -19.8547
   -19.8472 -19.8354 -19.8275 -19.8275  -1.8324  -1.8312  -1.8167  -1.8167
    -1.7950  -1.7950  -1.5354  -1.5167  -1.5086  -1.5086  -1.4851  -1.4851
    14.9924  15.7114  16.2046  17.2378  17.2378  17.5818  17.5818  17.8243
    17.9326  17.9327  18.4223  18.4223  19.0123  19.0987  19.3889  19.4136
    19.4137  19.9407  19.9408  20.8190  21.0076  21.0076  21.0346  21.0347
    21.1113  22.0217  22.1742  22.1742  22.1870  22.1870  22.1892  22.2382
    22.2383  22.2936  22.3089  22.3089  23.3062  23.5588  23.5588  24.2996
    24.2996  25.2904  25.2930  25.9406  25.9406  25.9620  26.1304  26.1304
    26.8703  26.9544  27.0265  27.0265  27.5037  27.5038  27.8570  27.8571
    28.2908  28.2909  29.6764  30.0928  30.2964  30.3672  30.3672  30.5571
    30.5571  32.7530  32.7531  33.9769  34.5242  34.5242  34.8836  35.3066
    35.4275  35.8815  36.0149  36.0150  36.0783  36.0784  36.3724  36.3725
    36.4495  37.7649  37.9866  37.9868  38.2124  38.2548

[...]

          k =-0.5000-0.2887 0.0000 (  5800 PWs)   bands (ev):

[...]

     the Fermi energy is    30.8132 ev

!    total energy              =   -2688.80749964 Ry
     Harris-Foulkes estimate   =   -2688.80751629 Ry
     estimated scf accuracy    <       0.00001967 Ry

     The total energy is the sum of the following terms:

     one-electron contribution =    -338.90947166 Ry
     hartree contribution      =     371.77617582 Ry
     xc contribution           =    -260.82827768 Ry
     ewald contribution        =   -2460.43782463 Ry
     smearing contrib. (-TS)   =      -0.40810149 Ry

     convergence has been achieved in  10 iterations

     Forces acting on atoms (Ry/au):

     atom    1 type  1   force =     0.00000000    0.00000000    0.02480976
     atom    2 type  1   force =     0.00000000    0.00000000    0.02480976
     atom    3 type  1   force =     0.00000000    0.00000000   -0.02480976
     atom    4 type  1   force =     0.00000000    0.00000000   -0.02480976
     atom    5 type  2   force =     0.00000000    0.00000000    0.00000000
     atom    6 type  2   force =     0.00000000    0.00000000    0.00000000
     atom    7 type  2   force =     0.00000000    0.08075210    0.00000000
     atom    8 type  2   force =    -0.06993337    0.04037605    0.00000000
     atom    9 type  2   force =     0.06993337    0.04037605    0.00000000
     atom   10 type  2   force =    -0.06993337   -0.04037605    0.00000000
     atom   11 type  2   force =     0.06993337   -0.04037605    0.00000000
     atom   12 type  2   force =     0.00000000   -0.08075210    0.00000000

     Total force =     0.203930     Total SCF correction =     0.000000

     entering subroutine stress ...

          total   stress  (Ry/bohr**3)                   (kbar)     P=  785.62
   0.00535305   0.00000000   0.00000000        787.46      0.00      0.00
   0.00000000   0.00535305   0.00000000          0.00    787.46      0.00
   0.00000000   0.00000000   0.00531546          0.00      0.00    781.93

     BFGS Geometry Optimization

     number of scf cycles    =   1
     number of bfgs steps    =   0

     enthalpy new            =   -2688.8074996400 Ry

     new trust radius        =       0.5000000000 bohr
     new conv_thr            =       0.0001000000 Ry

     new unit-cell volume =   1656.16358 a.u.^3 (   245.41812 Ang^3 )

CELL_PARAMETERS (alat=  9.92348860)
   1.067764947   0.000000000   0.000000000
  -0.533882474   0.924711570   0.000000000
   0.000000000   0.000000000   1.716438125

ATOMIC_POSITIONS (crystal)
Mg       0.333333000   0.666667000   0.063205184
Mg       0.666667000   0.333333000   0.563205184
Mg       0.666667000   0.333333000   0.936794816
Mg       0.333333000   0.666667000   0.436794816
Zn       0.000000000   0.000000000   0.000000000
Zn       0.000000000   0.000000000   0.500000000
Zn       0.172739990   0.345479981   0.750000000
Zn       0.827260010   0.172739990   0.250000000
Zn       0.345479981   0.172739990   0.250000000
Zn       0.654520019   0.827260010   0.750000000
Zn       0.172739990   0.827260010   0.750000000
Zn       0.827260010   0.654520019   0.250000000

     Writing output data file Prototype-La-hP12-MgZn2.save
     NEW-OLD atomic charge density approx. for the potential
     NEW k-points:
        k(    1) = (   0.0000000   0.0000000   0.0000000), wk =   0.0833333
        k(    2) = (   0.0000000   0.0000000   0.1456505), wk =   0.1666667
        k(    3) = (   0.0000000   0.0000000  -0.2913009), wk =   0.0833333
        k(    4) = (   0.0000000   0.3604728   0.0000000), wk =   0.1666667
        k(    5) = (   0.0000000   0.3604728   0.1456505), wk =   0.3333333
        k(    6) = (   0.0000000   0.3604728  -0.2913009), wk =   0.1666667
        k(    7) = (  -0.4682679  -0.2703546   0.0000000), wk =   0.0833333
        k(    8) = (  -0.4682679  -0.2703546   0.1456505), wk =   0.1666667
        k(    9) = (  -0.4682679  -0.2703546  -0.2913009), wk =   0.0833333
        k(   10) = (  -0.4682679   0.0901182   0.0000000), wk =   0.1666667
        k(   11) = (  -0.4682679   0.0901182   0.1456505), wk =   0.3333333
        k(   12) = (  -0.4682679   0.0901182  -0.2913009), wk =   0.1666667

[...]

     enthalpy old            =   -2688.8074996400 Ry
     enthalpy new            =   -2689.1451851684 Ry

     CASE: enthalpy_new < enthalpy_old

     small trust_radius: resetting bfgs history

     new trust radius        =       0.4380501946 bohr
     new conv_thr            =       0.0000223159 Ry

[...]

     number of scf cycles    =   3
     number of bfgs steps    =   2

     enthalpy old            =   -2689.1451851684 Ry
     enthalpy new            =   -2689.0690342225 Ry

     CASE: enthalpy_new > enthalpy_old

     new trust radius        =       0.1861281170 bohr

     trust_radius < trust_radius_min

     resetting bfgs history

     Message from routine bfgs:
     history already reset at previous step: stopping
     new conv_thr            =       0.0000223159 Ry

     new unit-cell volume =   1408.33268 a.u.^3 (   208.69337 Ang^3 )

[...]

ATOMIC_POSITIONS (crystal)
Mg       0.333333000   0.666667000   0.064420143
Mg       0.666667000   0.333333000   0.564420143
Mg       0.666667000   0.333333000   0.935579857
Mg       0.333333000   0.666667000   0.435579857
Zn       0.000000000   0.000000000   0.000000000
Zn       0.000000000   0.000000000   0.500000000
Zn       0.171398162   0.342796325   0.750000000
Zn       0.828601838   0.171398162   0.250000000
Zn       0.342796325   0.171398162   0.250000000
Zn       0.657203675   0.828601838   0.750000000
Zn       0.171398162   0.828601838   0.750000000
Zn       0.828601838   0.657203675   0.250000000

     Writing output data file Prototype-La-hP12-MgZn2.save
     NEW-OLD atomic charge density approx. for the potential
     NEW k-points:
        k(    1) = (   0.0000000   0.0000000   0.0000000), wk =   0.0833333
        k(    2) = (   0.0000000   0.0000000   0.1543226), wk =   0.1666667
        k(    3) = (   0.0000000   0.0000000  -0.3086453), wk =   0.0833333
        k(    4) = (   0.0000000   0.3797629   0.0000000), wk =   0.1666667
        k(    5) = (   0.0000000   0.3797629   0.1543226), wk =   0.3333333
        k(    6) = (   0.0000000   0.3797629  -0.3086453), wk =   0.1666667
        k(    7) = (  -0.4933265  -0.2848222   0.0000000), wk =   0.0833333
        k(    8) = (  -0.4933265  -0.2848222   0.1543226), wk =   0.1666667
        k(    9) = (  -0.4933265  -0.2848222  -0.3086453), wk =   0.0833333
        k(   10) = (  -0.4933265   0.0949407   0.0000000), wk =   0.1666667
        k(   11) = (  -0.4933265   0.0949407   0.1543226), wk =   0.3333333
        k(   12) = (  -0.4933265   0.0949407  -0.3086453), wk =   0.1666667

[...]

     The maximum number of steps has been reached.

     End of BFGS Geometry Optimization
Begin final coordinates
     new unit-cell volume =   1408.33268 a.u.^3 (   208.69337 Ang^3 )

CELL_PARAMETERS (alat=  9.92348860)
   1.013527545   0.000000000   0.000000000
  -0.506763773   0.877740601   0.000000000
   0.000000000   0.000000000   1.619982744

ATOMIC_POSITIONS (crystal)
Mg       0.333333000   0.666667000   0.064420143
Mg       0.666667000   0.333333000   0.564420143
Mg       0.666667000   0.333333000   0.935579857
Mg       0.333333000   0.666667000   0.435579857
Zn       0.000000000   0.000000000   0.000000000
Zn       0.000000000   0.000000000   0.500000000
Zn       0.171398162   0.342796325   0.750000000
Zn       0.828601838   0.171398162   0.250000000
Zn       0.342796325   0.171398162   0.250000000
Zn       0.657203675   0.828601838   0.750000000
Zn       0.171398162   0.828601838   0.750000000
Zn       0.828601838   0.657203675   0.250000000
End final coordinates

     A final scf calculation at the relaxed structure.
     The G-vectors are recalculated for the final unit cell
     Results may differ from those at the preceding step.

     bravais-lattice index     =            0
     lattice parameter (alat)  =       9.9235  a.u.
     unit-cell volume          =    1408.3327 (a.u.)^3
     number of atoms/cell      =           12
     number of atomic types    =            2
     number of electrons       =       224.00
     number of Kohn-Sham states=          134
     kinetic-energy cutoff     =      40.0000  Ry
     charge density cutoff     =     160.0000  Ry
     convergence threshold     =      2.2E-05
     mixing beta               =       0.7000
     number of iterations used =            8  plain     mixing
     Exchange-correlation      = SLA-PZ-NOGX-NOGC ( 1 1 0 0 0)
     EXX-fraction              =        0.00

     celldm(1)=   9.923489  celldm(2)=   0.000000  celldm(3)=   0.000000
     celldm(4)=   0.000000  celldm(5)=   0.000000  celldm(6)=   0.000000

     crystal axes: (cart. coord. in units of alat)
               a(1) = (   1.013528   0.000000   0.000000 )
               a(2) = (  -0.506764   0.877741   0.000000 )
               a(3) = (   0.000000   0.000000   1.619983 )

     reciprocal axes: (cart. coord. in units 2 pi/alat)
               b(1) = (  0.986653  0.569644  0.000000 )
               b(2) = (  0.000000  1.139289  0.000000 )
               b(3) = (  0.000000  0.000000  0.617291 )

     PseudoPot. # 1 for Sm read from file:
     /home/cwx6513/pp.La/Sm.UPF
     MD5 check sum: 5079e8b144a06bfcdbc14fb02b96ab09
     Pseudo is Norm-conserving, Zval = 16.0
     Generated in analytical, separable form
     Using radial grid of 1259 points,  6 beta functions with:
                l(1) =   0
                l(2) =   0
                l(3) =   1
                l(4) =   1
                l(5) =   2
                l(6) =   3

     PseudoPot. # 2 for Dy read from file:
     /home/cwx6513/pp.La/Dy.UPF
     MD5 check sum: 9597327bec62616a94a14d07f3fd9936
     Pseudo is Norm-conserving, Zval = 20.0
     Generated in analytical, separable form
     Using radial grid of 1265 points,  6 beta functions with:
                l(1) =   0
                l(2) =   0
                l(3) =   1
                l(4) =   1
                l(5) =   2
                l(6) =   3

     atomic species   valence    mass     pseudopotential
        Mg            16.00    24.30500     Sm( 1.00)
        Zn            20.00    65.39000     Dy( 1.00)

     24 Sym. Ops., with inversion, found (12 have fractional translation)

   Cartesian axes

     site n.     atom                  positions (alat units)
         1           Mg  tau(   1) = (  -0.0000005   0.5851607   0.1043595  )
         2           Mg  tau(   2) = (   0.5067643   0.2925799   0.9143509  )
         3           Mg  tau(   3) = (   0.5067643   0.2925799   1.5156232  )
         4           Mg  tau(   4) = (  -0.0000005   0.5851607   0.7056319  )
         5           Zn  tau(   5) = (   0.0000000   0.0000000   0.0000000  )
         6           Zn  tau(   6) = (   0.0000000   0.0000000   0.8099914  )
         7           Zn  tau(   7) = (   0.0000000   0.3008863   1.2149871  )
         8           Zn  tau(   8) = (   0.7529524   0.1504431   0.4049957  )
         9           Zn  tau(   9) = (   0.2605751   0.1504431   0.4049957  )
        10           Zn  tau(  10) = (   0.2461886   0.7272975   1.2149871  )
        11           Zn  tau(  11) = (  -0.2461886   0.7272975   1.2149871  )
        12           Zn  tau(  12) = (   0.5067638   0.5768543   0.4049957  )

     number of k points=    12  gaussian smearing, width (Ry)=  0.1000
                       cart. coord. in units 2pi/alat
        k(    1) = (   0.0000000   0.0000000   0.0000000), wk =   0.0833333
        k(    2) = (   0.0000000   0.0000000   0.1543226), wk =   0.1666667
        k(    3) = (   0.0000000   0.0000000  -0.3086453), wk =   0.0833333
        k(    4) = (   0.0000000   0.3797629   0.0000000), wk =   0.1666667
        k(    5) = (   0.0000000   0.3797629   0.1543226), wk =   0.3333333
        k(    6) = (   0.0000000   0.3797629  -0.3086453), wk =   0.1666667
        k(    7) = (  -0.4933265  -0.2848222   0.0000000), wk =   0.0833333
        k(    8) = (  -0.4933265  -0.2848222   0.1543226), wk =   0.1666667
        k(    9) = (  -0.4933265  -0.2848222  -0.3086453), wk =   0.0833333
        k(   10) = (  -0.4933265   0.0949407   0.0000000), wk =   0.1666667
        k(   11) = (  -0.4933265   0.0949407   0.1543226), wk =   0.3333333
        k(   12) = (  -0.4933265   0.0949407  -0.3086453), wk =   0.1666667

     Largest allocated arrays     est. size (Mb)     dimensions
     Largest temporary arrays     est. size (Mb)     dimensions

     Initial potential from superposition of free atoms

     Starting from uniform charge
     Starting wfc are    0 randomized atomic wfcs

     Writing output data file Prototype-La-hP12-MgZn2.save

     Self-consistent Calculation

[...]

     iteration #  9     ecut=    40.00 Ry     beta=0.70
     CG style diagonalization
     c_bands:  1 eigenvalues not converged
     c_bands:  1 eigenvalues not converged
     c_bands:  1 eigenvalues not converged
     c_bands:  2 eigenvalues not converged
     ethr =  9.21E-07,  avg # of iterations =  4.4

[...]

     total energy              =   -2689.22623960 Ry
     Harris-Foulkes estimate   =   -2689.22626026 Ry
     estimated scf accuracy    <       0.00003787 Ry

     iteration # 11     ecut=    40.00 Ry     beta=0.70
     CG style diagonalization
     ethr =  1.69E-08,  avg # of iterations =  3.6

     End of self-consistent calculation

[...]

          k = 0.0000 0.3798-0.3086 (  6012 PWs)   bands (ev):

[...]

          k =-0.4933 0.0949-0.3086 (  6024 PWs)   bands (ev):

   -54.4160 -54.4160 -54.3744 -54.3744 -54.3024 -54.3023 -54.2951 -54.2951
   -27.6006 -27.6005 -27.5686 -27.5684 -22.2009 -22.2009 -21.9121 -21.9121
   -21.5875 -21.5875 -21.5135 -21.5135 -21.4461 -21.4460 -21.4020 -21.4020
   -21.2683 -21.2683 -21.1497 -21.1497 -21.0381 -21.0381 -20.9879 -20.9878
   -20.9766 -20.9766 -20.9522 -20.9522  -3.0200  -3.0198  -2.9767  -2.9767
    -2.8918  -2.8917  -2.7647  -2.7645  -2.6661  -2.6661  -2.6604  -2.6603
    15.7868  15.7868  16.7735  16.7735  17.1105  17.1105  17.3978  17.3978
    17.5745  17.5746  18.0594  18.0594  18.4477  18.4477  18.5249  18.5249
    18.9448  18.9448  19.1036  19.1036  19.3499  19.3500  19.7303  19.7303
    19.9566  19.9566  20.4422  20.4422  20.5728  20.5728  20.7627  20.7627
    21.0538  21.0538  21.1563  21.1563  21.2938  21.2939  21.6570  21.6570
    22.5627  22.5627  23.0490  23.0490  24.8579  24.8579  25.5938  25.5939
    26.2306  26.2306  26.4880  26.4881  26.5570  26.5570  27.1111  27.1111
    27.7257  27.7258  28.4649  28.4649  28.6770  28.6771  28.9021  28.9021
    29.5538  29.5539  30.1055  30.1055  31.9842  31.9842  33.5689  33.5689
    34.2665  34.2666  34.5849  34.5849  36.5426  36.5426  36.9106  36.9107
    37.2983  37.2984  37.6207  37.6208  38.0163  38.0166

     the Fermi energy is    29.5690 ev

!    total energy              =   -2689.22624868 Ry
     Harris-Foulkes estimate   =   -2689.22625174 Ry
     estimated scf accuracy    <       0.00000337 Ry

     The total energy is the sum of the following terms:

     one-electron contribution =    -376.99459121 Ry
     hartree contribution      =     381.83937370 Ry
     xc contribution           =    -260.13491105 Ry
     ewald contribution        =   -2433.51380870 Ry
     smearing contrib. (-TS)   =      -0.42231143 Ry

     convergence has been achieved in  11 iterations

     Forces acting on atoms (Ry/au):

     atom    1 type  1   force =     0.00000000    0.00000000    0.01443163
     atom    2 type  1   force =     0.00000000    0.00000000    0.01443163
     atom    3 type  1   force =     0.00000000    0.00000000   -0.01443163
     atom    4 type  1   force =     0.00000000    0.00000000   -0.01443163
     atom    5 type  2   force =     0.00000000    0.00000000    0.00000000
     atom    6 type  2   force =     0.00000000    0.00000000    0.00000000
     atom    7 type  2   force =     0.00000000    0.03158553    0.00000000
     atom    8 type  2   force =    -0.02735387    0.01579277    0.00000000
     atom    9 type  2   force =     0.02735387    0.01579277    0.00000000
     atom   10 type  2   force =    -0.02735387   -0.01579277    0.00000000
     atom   11 type  2   force =     0.02735387   -0.01579277    0.00000000
     atom   12 type  2   force =     0.00000000   -0.03158553    0.00000000

     Total force =     0.082577     Total SCF correction =     0.000000

     entering subroutine stress ...

          total   stress  (Ry/bohr**3)                   (kbar)     P=  590.97
   0.00404783   0.00000000   0.00000000        595.46      0.00      0.00
   0.00000000   0.00404783   0.00000000          0.00    595.46      0.00
   0.00000000   0.00000000   0.00395635          0.00      0.00    582.00

     Writing output data file Prototype-La-hP12-MgZn2.save

     General routines

     Parallel routines

   This run was terminated on:  19: 6:24  22Mar2018

   JOB DONE.