     Program PWSCF v.5.0.2 starts on 22Mar2018 at  0:35:15

     Current dimensions of program PWSCF are:
     Max number of different atomic species (ntypx) = 10
     Max number of k-points (npk) =  40000
     Max angular momentum in pseudopotentials (lmaxx) =  3
     Waiting for input...
     Reading input from standard input

     Subspace diagonalization in iterative solution of the eigenvalue problem:
     a serial algorithm will be used

     bravais-lattice index     =            0
     lattice parameter (alat)  =       9.9235  a.u.
     unit-cell volume          =    1361.0366 (a.u.)^3
     number of atoms/cell      =           12
     number of atomic types    =            2
     number of electrons       =       184.00
     number of Kohn-Sham states=          110
     kinetic-energy cutoff     =      40.0000  Ry
     charge density cutoff     =     160.0000  Ry
     convergence threshold     =      1.0E-04
     mixing beta               =       0.7000
     number of iterations used =            8  plain     mixing
     Exchange-correlation      = SLA-PZ-NOGX-NOGC ( 1 1 0 0 0)
     EXX-fraction              =        0.00
     nstep                     =           50

     celldm(1)=   9.923489  celldm(2)=   0.000000  celldm(3)=   0.000000
     celldm(4)=   0.000000  celldm(5)=   0.000000  celldm(6)=   0.000000

     crystal axes: (cart. coord. in units of alat)
               a(1) = (   1.000000   0.000000   0.000000 )
               a(2) = (  -0.500000   0.866025   0.000000 )
               a(3) = (   0.000000   0.000000   1.608222 )

     reciprocal axes: (cart. coord. in units 2 pi/alat)
               b(1) = (  1.000000  0.577350  0.000000 )
               b(2) = (  0.000000  1.154701  0.000000 )
               b(3) = (  0.000000  0.000000  0.621805 )

     PseudoPot. # 1 for Ce read from file:
     /home/jld5415/pp.La/Ce.UPF
     MD5 check sum: 44451aa79a44a00cf2bc029dc19922f6
     Pseudo is Norm-conserving, Zval = 12.0
     Generated in analytical, separable form
     Using radial grid of 1255 points,  6 beta functions with:
                l(1) =   0
                l(2) =   0
                l(3) =   1
                l(4) =   1
                l(5) =   2
                l(6) =   3

     PseudoPot. # 2 for Eu read from file:
     /home/jld5415/pp.La/Eu.UPF
     MD5 check sum: 5efdbbfc50c6a10138933a6429836ad2
     Pseudo is Norm-conserving, Zval = 17.0
     Generated in analytical, separable form
     Using radial grid of 1261 points,  6 beta functions with:
                l(1) =   0
                l(2) =   0
                l(3) =   1
                l(4) =   1
                l(5) =   2
                l(6) =   3

     atomic species   valence    mass     pseudopotential
        Mg            12.00    24.30500     Ce( 1.00)
        Zn            17.00    65.39000     Eu( 1.00)

     24 Sym. Ops., with inversion, found (12 have fractional translation)

   Cartesian axes

     site n.     atom                  positions (alat units)
         1           Mg  tau(   1) = (  -0.0000005   0.5773506   0.1003820  )
         2           Mg  tau(   2) = (   0.5000005   0.2886748   0.9044931  )
         3           Mg  tau(   3) = (   0.5000005   0.2886748   1.5078402  )
         4           Mg  tau(   4) = (  -0.0000005   0.5773506   0.7037291  )
         5           Zn  tau(   5) = (   0.0000000   0.0000000   0.0000000  )
         6           Zn  tau(   6) = (   0.0000000   0.0000000   0.8041111  )
         7           Zn  tau(   7) = (   0.0000000   0.2950739   1.2061667  )
         8           Zn  tau(   8) = (   0.7444585   0.1475370   0.4020556  )
         9           Zn  tau(   9) = (   0.2555415   0.1475370   0.4020556  )
        10           Zn  tau(  10) = (   0.2444585   0.7184884   1.2061667  )
        11           Zn  tau(  11) = (  -0.2444585   0.7184884   1.2061667  )
        12           Zn  tau(  12) = (   0.5000000   0.5709515   0.4020556  )

     number of k points=    12  gaussian smearing, width (Ry)=  0.1000
                       cart. coord. in units 2pi/alat
        k(    1) = (   0.0000000   0.0000000   0.0000000), wk =   0.0833333
        k(    2) = (   0.0000000   0.0000000   0.1554512), wk =   0.1666667
        k(    3) = (   0.0000000   0.0000000  -0.3109023), wk =   0.0833333
        k(    4) = (   0.0000000   0.3849002   0.0000000), wk =   0.1666667
        k(    5) = (   0.0000000   0.3849002   0.1554512), wk =   0.3333333
        k(    6) = (   0.0000000   0.3849002  -0.3109023), wk =   0.1666667
        k(    7) = (  -0.5000000  -0.2886751   0.0000000), wk =   0.0833333
        k(    8) = (  -0.5000000  -0.2886751   0.1554512), wk =   0.1666667
        k(    9) = (  -0.5000000  -0.2886751  -0.3109023), wk =   0.0833333
        k(   10) = (  -0.5000000   0.0962250   0.0000000), wk =   0.1666667
        k(   11) = (  -0.5000000   0.0962250   0.1554512), wk =   0.3333333
        k(   12) = (  -0.5000000   0.0962250  -0.3109023), wk =   0.1666667

     Largest allocated arrays     est. size (Mb)     dimensions
     Largest temporary arrays     est. size (Mb)     dimensions

     Initial potential from superposition of free atoms

     Starting from uniform charge
     Starting wfc are    0 randomized atomic wfcs

     Self-consistent Calculation

     iteration #  1     ecut=    40.00 Ry     beta=0.70
     CG style diagonalization
     ethr =  1.00E-02,  avg # of iterations = 18.6

     total energy              =   -1165.99540140 Ry
     Harris-Foulkes estimate   =   -2145.18576306 Ry
     estimated scf accuracy    <    1188.56868442 Ry

[...]

     iteration #  3     ecut=    40.00 Ry     beta=0.70
     CG style diagonalization
     c_bands:  3 eigenvalues not converged
     c_bands:  3 eigenvalues not converged
     c_bands:  3 eigenvalues not converged
     c_bands:  2 eigenvalues not converged
     c_bands:  2 eigenvalues not converged
     c_bands:  1 eigenvalues not converged
     ethr =  1.00E-02,  avg # of iterations = 12.4

[...]

     End of self-consistent calculation

          k = 0.0000 0.0000 0.0000 (  5769 PWs)   bands (ev):

   -35.3428 -35.1618 -34.9688 -34.7740 -34.6897 -34.6897 -34.6882 -34.6882
   -10.3155  -9.8464  -9.3682  -9.3297  -9.2516  -8.9232  -8.7951  -8.6253
    -8.6252  -8.4953  -8.4953  -8.4476  -8.4475  -7.7817  -7.6850  -7.6761
    -7.6761  -7.6140  -7.6140  -6.8662  -6.8662  -6.8633  -6.8258  -6.8178
    -6.6561  -6.6560  -6.5745  -6.5745   8.1460   8.1733   8.1848   8.1849
     8.2189   8.2189   9.2529   9.3025   9.3214   9.3214   9.3805   9.3805
    18.4199  19.2685  19.5426  20.4116  20.4116  20.9954  20.9954  21.4730
    21.4973  21.4973  21.7873  21.7873  21.8468  22.0964  22.5096  22.5096
    22.9512  23.8502  23.9160  23.9160  24.0291  24.0291  25.2414  25.2414
    25.3446  25.6121  26.3989  26.3989  26.5012  26.5012  26.6292  26.7042
    26.7042  27.0497  27.3429  27.3429  27.3800  27.5678  27.5678  27.7166
    27.7166  28.0403  28.3842  28.3842  28.3941  28.3941  29.7908  30.3796
    30.3797  30.4855  30.5228  30.5228  31.3906  31.3902  32.0810  32.0809
    32.2926  32.3083  33.6340  33.7176  34.0300  34.2814

[...]

          k =-0.5000-0.2887 0.0000 (  5800 PWs)   bands (ev):

[...]

     the Fermi energy is    28.8165 ev

!    total energy              =   -1709.03146697 Ry
     Harris-Foulkes estimate   =   -1709.03152332 Ry
     estimated scf accuracy    <       0.00006894 Ry

     The total energy is the sum of the following terms:

     one-electron contribution =     -59.11017289 Ry
     hartree contribution      =     203.91335519 Ry
     xc contribution           =    -190.71518611 Ry
     ewald contribution        =   -1662.55720104 Ry
     smearing contrib. (-TS)   =      -0.56226212 Ry

     convergence has been achieved in  10 iterations

     Forces acting on atoms (Ry/au):

     atom    1 type  1   force =     0.00000000    0.00000000    0.03904052
     atom    2 type  1   force =     0.00000000    0.00000000    0.03904052
     atom    3 type  1   force =     0.00000000    0.00000000   -0.03904052
     atom    4 type  1   force =     0.00000000    0.00000000   -0.03904052
     atom    5 type  2   force =     0.00000000    0.00000000    0.00000000
     atom    6 type  2   force =     0.00000000    0.00000000    0.00000000
     atom    7 type  2   force =     0.00000000    0.00548294    0.00000000
     atom    8 type  2   force =    -0.00474836    0.00274147    0.00000000
     atom    9 type  2   force =     0.00474836    0.00274147    0.00000000
     atom   10 type  2   force =    -0.00474836   -0.00274147    0.00000000
     atom   11 type  2   force =     0.00474836   -0.00274147    0.00000000
     atom   12 type  2   force =     0.00000000   -0.00548294    0.00000000

     Total force =     0.079228     Total SCF correction =     0.000000

     entering subroutine stress ...

          total   stress  (Ry/bohr**3)                   (kbar)     P=  880.28
   0.00601820   0.00000000   0.00000000        885.31      0.00      0.00
   0.00000000   0.00601820   0.00000000          0.00    885.31      0.00
   0.00000000   0.00000000   0.00591575          0.00      0.00    870.24

     BFGS Geometry Optimization

     number of scf cycles    =   1
     number of bfgs steps    =   0

     enthalpy new            =   -1709.0314669700 Ry

     new trust radius        =       0.5000000000 bohr
     new conv_thr            =       0.0001000000 Ry

     new unit-cell volume =   1655.11169 a.u.^3 (   245.26224 Ang^3 )

CELL_PARAMETERS (alat=  9.92348860)
   1.067764947   0.000000000   0.000000000
  -0.533882474   0.924711570   0.000000000
   0.000000000   0.000000000   1.715347957

ATOMIC_POSITIONS (crystal)
Mg       0.333333000   0.666667000   0.063519801
Mg       0.666667000   0.333333000   0.563519801
Mg       0.666667000   0.333333000   0.936480199
Mg       0.333333000   0.666667000   0.436480199
Zn       0.000000000   0.000000000   0.000000000
Zn       0.000000000   0.000000000   0.500000000
Zn       0.170504677   0.341009354   0.750000000
Zn       0.829495323   0.170504677   0.250000000
Zn       0.341009354   0.170504677   0.250000000
Zn       0.658990646   0.829495323   0.750000000
Zn       0.170504677   0.829495323   0.750000000
Zn       0.829495323   0.658990646   0.250000000

     Writing output data file Prototype-La-hP12-MgZn2.save
     NEW-OLD atomic charge density approx. for the potential
     NEW k-points:
        k(    1) = (   0.0000000   0.0000000   0.0000000), wk =   0.0833333
        k(    2) = (   0.0000000   0.0000000   0.1457430), wk =   0.1666667
        k(    3) = (   0.0000000   0.0000000  -0.2914860), wk =   0.0833333
        k(    4) = (   0.0000000   0.3604728   0.0000000), wk =   0.1666667
        k(    5) = (   0.0000000   0.3604728   0.1457430), wk =   0.3333333
        k(    6) = (   0.0000000   0.3604728  -0.2914860), wk =   0.1666667
        k(    7) = (  -0.4682679  -0.2703546   0.0000000), wk =   0.0833333
        k(    8) = (  -0.4682679  -0.2703546   0.1457430), wk =   0.1666667
        k(    9) = (  -0.4682679  -0.2703546  -0.2914860), wk =   0.0833333
        k(   10) = (  -0.4682679   0.0901182   0.0000000), wk =   0.1666667
        k(   11) = (  -0.4682679   0.0901182   0.1457430), wk =   0.3333333
        k(   12) = (  -0.4682679   0.0901182  -0.2914860), wk =   0.1666667

[...]

     enthalpy old            =   -1709.0314669700 Ry
     enthalpy new            =   -1709.6245032175 Ry

     CASE: enthalpy_new < enthalpy_old

     small trust_radius: resetting bfgs history

[...]

     number of scf cycles    =   3
     number of bfgs steps    =   2

     enthalpy old            =   -1709.6245032175 Ry
     enthalpy new            =   -1709.6270838194 Ry

     CASE: enthalpy_new < enthalpy_old

     Message from routine bfgs:
     history already reset at previous step: stopping
     small trust_radius: resetting bfgs history

     new trust radius        =       0.2242387253 bohr
     new conv_thr            =       0.0000116939 Ry

     new unit-cell volume =   1671.79223 a.u.^3 (   247.73405 Ang^3 )

[...]

ATOMIC_POSITIONS (crystal)
Mg       0.333333000   0.666667000   0.065309247
Mg       0.666667000   0.333333000   0.565309247
Mg       0.666667000   0.333333000   0.934690753
Mg       0.333333000   0.666667000   0.434690753
Zn       0.000000000   0.000000000   0.000000000
Zn       0.000000000   0.000000000   0.500000000
Zn       0.170339107   0.340678213   0.750000000
Zn       0.829660893   0.170339107   0.250000000
Zn       0.340678213   0.170339107   0.250000000
Zn       0.659321787   0.829660893   0.750000000
Zn       0.170339107   0.829660893   0.750000000
Zn       0.829660893   0.659321787   0.250000000

     Writing output data file Prototype-La-hP12-MgZn2.save
     NEW-OLD atomic charge density approx. for the potential
     NEW k-points:
        k(    1) = (   0.0000000   0.0000000   0.0000000), wk =   0.0833333
        k(    2) = (   0.0000000   0.0000000   0.1451653), wk =   0.1666667
        k(    3) = (   0.0000000   0.0000000  -0.2903305), wk =   0.0833333
        k(    4) = (   0.0000000   0.3593830   0.0000000), wk =   0.1666667
        k(    5) = (   0.0000000   0.3593830   0.1451653), wk =   0.3333333
        k(    6) = (   0.0000000   0.3593830  -0.2903305), wk =   0.1666667
        k(    7) = (  -0.4668522  -0.2695372   0.0000000), wk =   0.0833333
        k(    8) = (  -0.4668522  -0.2695372   0.1451653), wk =   0.1666667
        k(    9) = (  -0.4668522  -0.2695372  -0.2903305), wk =   0.0833333
        k(   10) = (  -0.4668522   0.0898457   0.0000000), wk =   0.1666667
        k(   11) = (  -0.4668522   0.0898457   0.1451653), wk =   0.3333333
        k(   12) = (  -0.4668522   0.0898457  -0.2903305), wk =   0.1666667

[...]

     The maximum number of steps has been reached.

     End of BFGS Geometry Optimization
Begin final coordinates
     new unit-cell volume =   1671.79223 a.u.^3 (   247.73405 Ang^3 )

CELL_PARAMETERS (alat=  9.92348860)
   1.071002840   0.000000000   0.000000000
  -0.535501420   0.927515667   0.000000000
   0.000000000   0.000000000   1.722175076

ATOMIC_POSITIONS (crystal)
Mg       0.333333000   0.666667000   0.065309247
Mg       0.666667000   0.333333000   0.565309247
Mg       0.666667000   0.333333000   0.934690753
Mg       0.333333000   0.666667000   0.434690753
Zn       0.000000000   0.000000000   0.000000000
Zn       0.000000000   0.000000000   0.500000000
Zn       0.170339107   0.340678213   0.750000000
Zn       0.829660893   0.170339107   0.250000000
Zn       0.340678213   0.170339107   0.250000000
Zn       0.659321787   0.829660893   0.750000000
Zn       0.170339107   0.829660893   0.750000000
Zn       0.829660893   0.659321787   0.250000000
End final coordinates

     A final scf calculation at the relaxed structure.
     The G-vectors are recalculated for the final unit cell
     Results may differ from those at the preceding step.

     bravais-lattice index     =            0
     lattice parameter (alat)  =       9.9235  a.u.
     unit-cell volume          =    1671.7922 (a.u.)^3
     number of atoms/cell      =           12
     number of atomic types    =            2
     number of electrons       =       184.00
     number of Kohn-Sham states=          110
     kinetic-energy cutoff     =      40.0000  Ry
     charge density cutoff     =     160.0000  Ry
     convergence threshold     =      1.2E-05
     mixing beta               =       0.7000
     number of iterations used =            8  plain     mixing
     Exchange-correlation      = SLA-PZ-NOGX-NOGC ( 1 1 0 0 0)
     EXX-fraction              =        0.00

     celldm(1)=   9.923489  celldm(2)=   0.000000  celldm(3)=   0.000000
     celldm(4)=   0.000000  celldm(5)=   0.000000  celldm(6)=   0.000000

     crystal axes: (cart. coord. in units of alat)
               a(1) = (   1.071003   0.000000   0.000000 )
               a(2) = (  -0.535501   0.927516   0.000000 )
               a(3) = (   0.000000   0.000000   1.722175 )

     reciprocal axes: (cart. coord. in units 2 pi/alat)
               b(1) = (  0.933704  0.539074  0.000000 )
               b(2) = (  0.000000  1.078149  0.000000 )
               b(3) = (  0.000000  0.000000  0.580661 )

     PseudoPot. # 1 for Ce read from file:
     /home/jld5415/pp.La/Ce.UPF
     MD5 check sum: 44451aa79a44a00cf2bc029dc19922f6
     Pseudo is Norm-conserving, Zval = 12.0
     Generated in analytical, separable form
     Using radial grid of 1255 points,  6 beta functions with:
                l(1) =   0
                l(2) =   0
                l(3) =   1
                l(4) =   1
                l(5) =   2
                l(6) =   3

     PseudoPot. # 2 for Eu read from file:
     /home/jld5415/pp.La/Eu.UPF
     MD5 check sum: 5efdbbfc50c6a10138933a6429836ad2
     Pseudo is Norm-conserving, Zval = 17.0
     Generated in analytical, separable form
     Using radial grid of 1261 points,  6 beta functions with:
                l(1) =   0
                l(2) =   0
                l(3) =   1
                l(4) =   1
                l(5) =   2
                l(6) =   3

     atomic species   valence    mass     pseudopotential
        Mg            12.00    24.30500     Ce( 1.00)
        Zn            17.00    65.39000     Eu( 1.00)

     24 Sym. Ops., with inversion, found (12 have fractional translation)

   Cartesian axes

     site n.     atom                  positions (alat units)
         1           Mg  tau(   1) = (  -0.0000005   0.6183441   0.1124740  )
         2           Mg  tau(   2) = (   0.5355020   0.3091716   0.9735615  )
         3           Mg  tau(   3) = (   0.5355020   0.3091716   1.6097011  )
         4           Mg  tau(   4) = (  -0.0000005   0.6183441   0.7486136  )
         5           Zn  tau(   5) = (   0.0000000   0.0000000   0.0000000  )
         6           Zn  tau(   6) = (   0.0000000   0.0000000   0.8610875  )
         7           Zn  tau(   7) = (   0.0000000   0.3159844   1.2916313  )
         8           Zn  tau(   8) = (   0.7973523   0.1579922   0.4305438  )
         9           Zn  tau(   9) = (   0.2736505   0.1579922   0.4305438  )
        10           Zn  tau(  10) = (   0.2618509   0.7695235   1.2916313  )
        11           Zn  tau(  11) = (  -0.2618509   0.7695235   1.2916313  )
        12           Zn  tau(  12) = (   0.5355014   0.6115313   0.4305438  )

     number of k points=    12  gaussian smearing, width (Ry)=  0.1000
                       cart. coord. in units 2pi/alat
        k(    1) = (   0.0000000   0.0000000   0.0000000), wk =   0.0833333
        k(    2) = (   0.0000000   0.0000000   0.1451653), wk =   0.1666667
        k(    3) = (   0.0000000   0.0000000  -0.2903305), wk =   0.0833333
        k(    4) = (   0.0000000   0.3593830   0.0000000), wk =   0.1666667
        k(    5) = (   0.0000000   0.3593830   0.1451653), wk =   0.3333333
        k(    6) = (   0.0000000   0.3593830  -0.2903305), wk =   0.1666667
        k(    7) = (  -0.4668522  -0.2695372   0.0000000), wk =   0.0833333
        k(    8) = (  -0.4668522  -0.2695372   0.1451653), wk =   0.1666667
        k(    9) = (  -0.4668522  -0.2695372  -0.2903305), wk =   0.0833333
        k(   10) = (  -0.4668522   0.0898457   0.0000000), wk =   0.1666667
        k(   11) = (  -0.4668522   0.0898457   0.1451653), wk =   0.3333333
        k(   12) = (  -0.4668522   0.0898457  -0.2903305), wk =   0.1666667

     Largest allocated arrays     est. size (Mb)     dimensions
     Largest temporary arrays     est. size (Mb)     dimensions

     Initial potential from superposition of free atoms

     Starting from uniform charge
     Starting wfc are    0 randomized atomic wfcs

     Writing output data file Prototype-La-hP12-MgZn2.save

     Self-consistent Calculation

[...]

     iteration # 11     ecut=    40.00 Ry     beta=0.70
     CG style diagonalization
     c_bands:  1 eigenvalues not converged
     ethr =  1.23E-07,  avg # of iterations =  4.3

[...]

     total energy              =   -1710.51783228 Ry
     Harris-Foulkes estimate   =   -1710.51788782 Ry
     estimated scf accuracy    <       0.00018792 Ry

     iteration # 13     ecut=    40.00 Ry     beta=0.70
     CG style diagonalization
     ethr =  7.98E-08,  avg # of iterations =  3.1

     End of self-consistent calculation

[...]

          k = 0.0000 0.3594-0.2903 (  7138 PWs)   bands (ev):

[...]

          k =-0.4669 0.0898-0.2903 (  7138 PWs)   bands (ev):

   -40.5209 -40.5209 -40.4298 -40.4297 -40.3259 -40.3259 -40.3090 -40.3090
   -15.4479 -15.4477 -15.3405 -15.3403 -14.0977 -14.0977 -13.7372 -13.7372
   -13.4428 -13.4428 -13.4286 -13.4286 -13.3410 -13.3410 -13.2215 -13.2215
   -13.0691 -13.0691 -12.9229 -12.9229 -12.8260 -12.8260 -12.7727 -12.7727
   -12.6616 -12.6616 -12.6114 -12.6114   2.3137   2.3138   2.3618   2.3618
     2.5608   2.5609   2.8590   2.8591   3.0767   3.0767   3.1126   3.1127
    15.9211  15.9211  16.6159  16.6159  17.0156  17.0156  17.0915  17.0915
    17.2927  17.2927  17.4980  17.4980  17.7847  17.7847  17.9312  17.9312
    18.1499  18.1499  18.5309  18.5309  18.7395  18.7395  19.1834  19.1834
    19.3184  19.3184  19.4989  19.4989  19.8499  19.8499  20.4355  20.4355
    20.5031  20.5031  20.6881  20.6882  21.0738  21.0738  21.4189  21.4189
    21.7910  21.7910  22.7291  22.7291  22.9609  22.9609  23.2067  23.2068
    23.5661  23.5662  23.9915  23.9915  24.2763  24.2763  24.9257  24.9257
    25.3762  25.3762  25.9803  25.9805  26.3537  26.3539

     the Fermi energy is    22.6571 ev

!    total energy              =   -1710.51785821 Ry
     Harris-Foulkes estimate   =   -1710.51785831 Ry
     estimated scf accuracy    <       0.00000014 Ry

     The total energy is the sum of the following terms:

     one-electron contribution =    -211.31485172 Ry
     hartree contribution      =     240.62262442 Ry
     xc contribution           =    -186.72158554 Ry
     ewald contribution        =   -1552.40963142 Ry
     smearing contrib. (-TS)   =      -0.69441396 Ry

     convergence has been achieved in  13 iterations

     Forces acting on atoms (Ry/au):

     atom    1 type  1   force =     0.00000000    0.00000000    0.00717245
     atom    2 type  1   force =     0.00000000    0.00000000    0.00717245
     atom    3 type  1   force =     0.00000000    0.00000000   -0.00717245
     atom    4 type  1   force =     0.00000000    0.00000000   -0.00717245
     atom    5 type  2   force =     0.00000000    0.00000000    0.00000000
     atom    6 type  2   force =     0.00000000    0.00000000    0.00000000
     atom    7 type  2   force =     0.00000000    0.00290768    0.00000000
     atom    8 type  2   force =    -0.00251813    0.00145384    0.00000000
     atom    9 type  2   force =     0.00251813    0.00145384    0.00000000
     atom   10 type  2   force =    -0.00251813   -0.00145384    0.00000000
     atom   11 type  2   force =     0.00251813   -0.00145384    0.00000000
     atom   12 type  2   force =     0.00000000   -0.00290768    0.00000000

     Total force =     0.016016     Total SCF correction =     0.000000

     entering subroutine stress ...

          total   stress  (Ry/bohr**3)                   (kbar)     P=   37.00
   0.00024306   0.00000000   0.00000000         35.76      0.00      0.00
   0.00000000   0.00024306   0.00000000          0.00     35.76      0.00
   0.00000000   0.00000000   0.00026852          0.00      0.00     39.50

     Writing output data file Prototype-La-hP12-MgZn2.save

     General routines

     Parallel routines

   This run was terminated on:   1: 5:31  22Mar2018

   JOB DONE.