     Program PWSCF v.5.0.2 starts on 22Mar2018 at  0:35:17

     Current dimensions of program PWSCF are:
     Max number of different atomic species (ntypx) = 10
     Max number of k-points (npk) =  40000
     Max angular momentum in pseudopotentials (lmaxx) =  3
     Waiting for input...
     Reading input from standard input

     Subspace diagonalization in iterative solution of the eigenvalue problem:
     a serial algorithm will be used

     bravais-lattice index     =            0
     lattice parameter (alat)  =      12.0168  a.u.
     unit-cell volume          =    1187.3413 (a.u.)^3
     number of atoms/cell      =            8
     number of atomic types    =            2
     number of electrons       =       106.00
     number of Kohn-Sham states=           64
     kinetic-energy cutoff     =      40.0000  Ry
     charge density cutoff     =     160.0000  Ry
     convergence threshold     =      1.0E-04
     mixing beta               =       0.7000
     number of iterations used =            8  plain     mixing
     Exchange-correlation      = SLA-PZ-NOGX-NOGC ( 1 1 0 0 0)
     EXX-fraction              =        0.00
     nstep                     =           50

     celldm(1)=  12.016801  celldm(2)=   0.000000  celldm(3)=   0.000000
     celldm(4)=   0.000000  celldm(5)=   0.000000  celldm(6)=   0.000000

     crystal axes: (cart. coord. in units of alat)
               a(1) = (   1.000000   0.000000   0.000000 )
               a(2) = (  -0.500000   0.866025   0.000000 )
               a(3) = (   0.000000   0.000000   0.790093 )

     reciprocal axes: (cart. coord. in units 2 pi/alat)
               b(1) = (  1.000000  0.577350  0.000000 )
               b(2) = (  0.000000  1.154701  0.000000 )
               b(3) = (  0.000000  0.000000  1.265674 )

     PseudoPot. # 1 for Ce read from file:
     /home/jld5415/pp.La/Ce.UPF
     MD5 check sum: 44451aa79a44a00cf2bc029dc19922f6
     Pseudo is Norm-conserving, Zval = 12.0
     Generated in analytical, separable form
     Using radial grid of 1255 points,  6 beta functions with:
                l(1) =   0
                l(2) =   0
                l(3) =   1
                l(4) =   1
                l(5) =   2
                l(6) =   3

     PseudoPot. # 2 for Eu read from file:
     /home/jld5415/pp.La/Eu.UPF
     MD5 check sum: 5efdbbfc50c6a10138933a6429836ad2
     Pseudo is Norm-conserving, Zval = 17.0
     Generated in analytical, separable form
     Using radial grid of 1261 points,  6 beta functions with:
                l(1) =   0
                l(2) =   0
                l(3) =   1
                l(4) =   1
                l(5) =   2
                l(6) =   3

     atomic species   valence    mass     pseudopotential
        Mg            12.00    24.30500     Ce( 1.00)
        Cd            17.00   112.41100     Eu( 1.00)

     24 Sym. Ops., with inversion, found (12 have fractional translation)

   Cartesian axes

     site n.     atom                  positions (alat units)
         1           Mg  tau(   1) = (   0.2478935   0.7204716   0.1975233  )
         2           Mg  tau(   2) = (   0.7478935   0.1455538   0.5925699  )
         3           Mg  tau(   3) = (   0.2521065   0.1455538   0.5925699  )
         4           Mg  tau(   4) = (  -0.2478935   0.7204716   0.1975233  )
         5           Mg  tau(   5) = (   0.0000000   0.2911075   0.1975233  )
         6           Mg  tau(   6) = (   0.5000000   0.5749179   0.5925699  )
         7           Cd  tau(   7) = (   0.5000005   0.2886748   0.1975233  )
         8           Cd  tau(   8) = (  -0.0000005   0.5773506   0.5925699  )

     number of k points=    64  gaussian smearing, width (Ry)=  0.1000
                       cart. coord. in units 2pi/alat
        k(    1) = (   0.0000000   0.0000000   0.0000000), wk =   0.0095238
        k(    2) = (   0.0000000   0.0000000   0.1808105), wk =   0.0190476
        k(    3) = (   0.0000000   0.0000000   0.3616210), wk =   0.0190476
        k(    4) = (   0.0000000   0.0000000   0.5424315), wk =   0.0190476
        k(    5) = (   0.0000000   0.1924501   0.0000000), wk =   0.0190476
        k(    6) = (   0.0000000   0.1924501   0.1808105), wk =   0.0380952
        k(    7) = (   0.0000000   0.1924501   0.3616210), wk =   0.0380952
        k(    8) = (   0.0000000   0.1924501   0.5424315), wk =   0.0380952
        k(    9) = (   0.0000000   0.3849002   0.0000000), wk =   0.0190476
        k(   10) = (   0.0000000   0.3849002   0.1808105), wk =   0.0380952
        k(   11) = (   0.0000000   0.3849002   0.3616210), wk =   0.0380952
        k(   12) = (   0.0000000   0.3849002   0.5424315), wk =   0.0380952
        k(   13) = (   0.0000000  -0.5773503   0.0000000), wk =   0.0095238
        k(   14) = (   0.0000000  -0.5773503   0.1808105), wk =   0.0190476
        k(   15) = (   0.0000000  -0.5773503   0.3616210), wk =   0.0190476
        k(   16) = (   0.0000000  -0.5773503   0.5424315), wk =   0.0190476
        k(   17) = (   0.2000000   0.1154701   0.0000000), wk =   0.0190476
        k(   18) = (   0.2000000   0.1154701   0.1808105), wk =   0.0380952
        k(   19) = (   0.2000000   0.1154701   0.3616210), wk =   0.0380952
        k(   20) = (   0.2000000   0.1154701   0.5424315), wk =   0.0380952
        k(   21) = (   0.2000000   0.3079201   0.0000000), wk =   0.0190476
        k(   22) = (   0.2000000   0.3079201   0.1808105), wk =   0.0380952
        k(   23) = (   0.2000000   0.3079201   0.3616210), wk =   0.0380952
        k(   24) = (   0.2000000   0.3079201   0.5424315), wk =   0.0380952
        k(   25) = (   0.2000000   0.5003702   0.0000000), wk =   0.0190476
        k(   26) = (   0.2000000   0.5003702   0.1808105), wk =   0.0380952
        k(   27) = (   0.2000000   0.5003702   0.3616210), wk =   0.0380952
        k(   28) = (   0.2000000   0.5003702   0.5424315), wk =   0.0380952
        k(   29) = (   0.2000000  -0.4618802   0.0000000), wk =   0.0190476
        k(   30) = (   0.2000000  -0.4618802   0.1808105), wk =   0.0380952
        k(   31) = (   0.2000000  -0.4618802   0.3616210), wk =   0.0380952
        k(   32) = (   0.2000000  -0.4618802   0.5424315), wk =   0.0380952
        k(   33) = (   0.2000000  -0.2694301   0.0000000), wk =   0.0190476
        k(   34) = (   0.2000000  -0.2694301   0.1808105), wk =   0.0380952
        k(   35) = (   0.2000000  -0.2694301   0.3616210), wk =   0.0380952
        k(   36) = (   0.2000000  -0.2694301   0.5424315), wk =   0.0380952
        k(   37) = (   0.2000000  -0.0769800   0.0000000), wk =   0.0190476
        k(   38) = (   0.2000000  -0.0769800   0.1808105), wk =   0.0380952
        k(   39) = (   0.2000000  -0.0769800   0.3616210), wk =   0.0380952
        k(   40) = (   0.2000000  -0.0769800   0.5424315), wk =   0.0380952
        k(   41) = (   0.4000000   0.2309401   0.0000000), wk =   0.0190476
        k(   42) = (   0.4000000   0.2309401   0.1808105), wk =   0.0380952
        k(   43) = (   0.4000000   0.2309401   0.3616210), wk =   0.0380952
        k(   44) = (   0.4000000   0.2309401   0.5424315), wk =   0.0380952
        k(   45) = (   0.4000000   0.4233902   0.0000000), wk =   0.0190476
        k(   46) = (   0.4000000   0.4233902   0.1808105), wk =   0.0380952
        k(   47) = (   0.4000000   0.4233902   0.3616210), wk =   0.0380952
        k(   48) = (   0.4000000   0.4233902   0.5424315), wk =   0.0380952
        k(   49) = (   0.4000000   0.6158403   0.0000000), wk =   0.0190476
        k(   50) = (   0.4000000   0.6158403   0.1808105), wk =   0.0380952
        k(   51) = (   0.4000000   0.6158403   0.3616210), wk =   0.0380952
        k(   52) = (   0.4000000   0.6158403   0.5424315), wk =   0.0380952
        k(   53) = (   0.4000000  -0.3464102   0.0000000), wk =   0.0190476
        k(   54) = (   0.4000000  -0.3464102   0.1808105), wk =   0.0380952
        k(   55) = (   0.4000000  -0.3464102   0.3616210), wk =   0.0380952
        k(   56) = (   0.4000000  -0.3464102   0.5424315), wk =   0.0380952
        k(   57) = (   0.4000000  -0.1539601   0.0000000), wk =   0.0190476
        k(   58) = (   0.4000000  -0.1539601   0.1808105), wk =   0.0380952
        k(   59) = (   0.4000000  -0.1539601   0.3616210), wk =   0.0380952
        k(   60) = (   0.4000000  -0.1539601   0.5424315), wk =   0.0380952
        k(   61) = (   0.4000000   0.0384900   0.0000000), wk =   0.0190476
        k(   62) = (   0.4000000   0.0384900   0.1808105), wk =   0.0380952
        k(   63) = (   0.4000000   0.0384900   0.3616210), wk =   0.0380952
        k(   64) = (   0.4000000   0.0384900   0.5424315), wk =   0.0380952

     Largest allocated arrays     est. size (Mb)     dimensions
     Largest temporary arrays     est. size (Mb)     dimensions

     Initial potential from superposition of free atoms

     Starting from uniform charge
     Starting wfc are    0 randomized atomic wfcs

     Self-consistent Calculation

     iteration #  1     ecut=    40.00 Ry     beta=0.70
     CG style diagonalization
     ethr =  1.00E-02,  avg # of iterations = 15.8

     total energy              =    -387.23352130 Ry
     Harris-Foulkes estimate   =   -1010.93665900 Ry
     estimated scf accuracy    <     756.74134047 Ry

     iteration #  2     ecut=    40.00 Ry     beta=0.70
     CG style diagonalization
     c_bands:  2 eigenvalues not converged
     c_bands:  5 eigenvalues not converged
     c_bands:  2 eigenvalues not converged
     c_bands:  4 eigenvalues not converged
     c_bands:  5 eigenvalues not converged
     c_bands:  4 eigenvalues not converged
     c_bands:  2 eigenvalues not converged
     c_bands:  5 eigenvalues not converged
     c_bands:  5 eigenvalues not converged
     c_bands:  1 eigenvalues not converged
     c_bands:  5 eigenvalues not converged
     c_bands:  5 eigenvalues not converged
     c_bands:  2 eigenvalues not converged
     c_bands:  3 eigenvalues not converged
     c_bands:  5 eigenvalues not converged
     c_bands:  1 eigenvalues not converged
     c_bands:  2 eigenvalues not converged
     c_bands:  1 eigenvalues not converged
     c_bands:  3 eigenvalues not converged
     c_bands:  3 eigenvalues not converged
     c_bands:  5 eigenvalues not converged
     c_bands:  5 eigenvalues not converged
     c_bands:  2 eigenvalues not converged
     c_bands:  2 eigenvalues not converged
     c_bands:  4 eigenvalues not converged
     c_bands:  5 eigenvalues not converged
     c_bands:  4 eigenvalues not converged
     c_bands:  2 eigenvalues not converged
     c_bands:  2 eigenvalues not converged
     c_bands:  3 eigenvalues not converged
     c_bands:  1 eigenvalues not converged
     c_bands:  3 eigenvalues not converged
     c_bands:  2 eigenvalues not converged
     c_bands:  2 eigenvalues not converged
     c_bands:  5 eigenvalues not converged
     c_bands:  4 eigenvalues not converged
     c_bands:  3 eigenvalues not converged
     c_bands:  2 eigenvalues not converged
     c_bands:  4 eigenvalues not converged
     c_bands:  2 eigenvalues not converged
     c_bands:  2 eigenvalues not converged
     c_bands:  4 eigenvalues not converged
     ethr =  1.00E-02,  avg # of iterations = 13.4

[...]

[...]
        k(    9) = (   0.0000000   0.3766235   0.0000000), wk =   0.0190476
        k(   10) = (   0.0000000   0.3766235   0.1751640), wk =   0.0380952
        k(   11) = (   0.0000000   0.3766235   0.3503280), wk =   0.0380952
        k(   12) = (   0.0000000   0.3766235   0.5254920), wk =   0.0380952
        k(   13) = (   0.0000000  -0.5649352   0.0000000), wk =   0.0095238
        k(   14) = (   0.0000000  -0.5649352   0.1751640), wk =   0.0190476
        k(   15) = (   0.0000000  -0.5649352   0.3503280), wk =   0.0190476
        k(   16) = (   0.0000000  -0.5649352   0.5254920), wk =   0.0190476
        k(   17) = (   0.1956993   0.1129870   0.0000000), wk =   0.0190476
        k(   18) = (   0.1956993   0.1129870   0.1751640), wk =   0.0380952
        k(   19) = (   0.1956993   0.1129870   0.3503280), wk =   0.0380952
        k(   20) = (   0.1956993   0.1129870   0.5254920), wk =   0.0380952
        k(   21) = (   0.1956993   0.3012988   0.0000000), wk =   0.0190476
        k(   22) = (   0.1956993   0.3012988   0.1751640), wk =   0.0380952
        k(   23) = (   0.1956993   0.3012988   0.3503280), wk =   0.0380952
        k(   24) = (   0.1956993   0.3012988   0.5254920), wk =   0.0380952
        k(   25) = (   0.1956993   0.4896105   0.0000000), wk =   0.0190476
        k(   26) = (   0.1956993   0.4896105   0.1751640), wk =   0.0380952
        k(   27) = (   0.1956993   0.4896105   0.3503280), wk =   0.0380952
        k(   28) = (   0.1956993   0.4896105   0.5254920), wk =   0.0380952
        k(   29) = (   0.1956993  -0.4519482   0.0000000), wk =   0.0190476
        k(   30) = (   0.1956993  -0.4519482   0.1751640), wk =   0.0380952
        k(   31) = (   0.1956993  -0.4519482   0.3503280), wk =   0.0380952
        k(   32) = (   0.1956993  -0.4519482   0.5254920), wk =   0.0380952
        k(   33) = (   0.1956993  -0.2636364   0.0000000), wk =   0.0190476
        k(   34) = (   0.1956993  -0.2636364   0.1751640), wk =   0.0380952
        k(   35) = (   0.1956993  -0.2636364   0.3503280), wk =   0.0380952
        k(   36) = (   0.1956993  -0.2636364   0.5254920), wk =   0.0380952
        k(   37) = (   0.1956993  -0.0753247   0.0000000), wk =   0.0190476
        k(   38) = (   0.1956993  -0.0753247   0.1751640), wk =   0.0380952
        k(   39) = (   0.1956993  -0.0753247   0.3503280), wk =   0.0380952
        k(   40) = (   0.1956993  -0.0753247   0.5254920), wk =   0.0380952
        k(   41) = (   0.3913986   0.2259741   0.0000000), wk =   0.0190476
        k(   42) = (   0.3913986   0.2259741   0.1751640), wk =   0.0380952
        k(   43) = (   0.3913986   0.2259741   0.3503280), wk =   0.0380952
        k(   44) = (   0.3913986   0.2259741   0.5254920), wk =   0.0380952
        k(   45) = (   0.3913986   0.4142858   0.0000000), wk =   0.0190476
        k(   46) = (   0.3913986   0.4142858   0.1751640), wk =   0.0380952
        k(   47) = (   0.3913986   0.4142858   0.3503280), wk =   0.0380952
        k(   48) = (   0.3913986   0.4142858   0.5254920), wk =   0.0380952
        k(   49) = (   0.3913986   0.6025976   0.0000000), wk =   0.0190476
        k(   50) = (   0.3913986   0.6025976   0.1751640), wk =   0.0380952
        k(   51) = (   0.3913986   0.6025976   0.3503280), wk =   0.0380952
        k(   52) = (   0.3913986   0.6025976   0.5254920), wk =   0.0380952
        k(   53) = (   0.3913986  -0.3389611   0.0000000), wk =   0.0190476
        k(   54) = (   0.3913986  -0.3389611   0.1751640), wk =   0.0380952
        k(   55) = (   0.3913986  -0.3389611   0.3503280), wk =   0.0380952
        k(   56) = (   0.3913986  -0.3389611   0.5254920), wk =   0.0380952
        k(   57) = (   0.3913986  -0.1506494   0.0000000), wk =   0.0190476
        k(   58) = (   0.3913986  -0.1506494   0.1751640), wk =   0.0380952
        k(   59) = (   0.3913986  -0.1506494   0.3503280), wk =   0.0380952
        k(   60) = (   0.3913986  -0.1506494   0.5254920), wk =   0.0380952
        k(   61) = (   0.3913986   0.0376623   0.0000000), wk =   0.0190476
        k(   62) = (   0.3913986   0.0376623   0.1751640), wk =   0.0380952
        k(   63) = (   0.3913986   0.0376623   0.3503280), wk =   0.0380952
        k(   64) = (   0.3913986   0.0376623   0.5254920), wk =   0.0380952

[...]

     The maximum number of steps has been reached.

     End of BFGS Geometry Optimization
Begin final coordinates
     new unit-cell volume =   1280.07619 a.u.^3 (   189.68772 Ang^3 )

CELL_PARAMETERS (alat= 12.01680127)
   1.021976066   0.000000000   0.000000000
  -0.510988033   0.885057235   0.000000000
   0.000000000   0.000000000   0.815562225

ATOMIC_POSITIONS (crystal)
Mg       0.659361580   0.829680790   0.250000000
Mg       0.829680790   0.170319210   0.750000000
Mg       0.340638420   0.170319210   0.750000000
Mg       0.170319210   0.829680790   0.250000000
Mg       0.170319210   0.340638420   0.250000000
Mg       0.829680790   0.659361580   0.750000000
Cd       0.666667000   0.333333000   0.250000000
Cd       0.333333000   0.666667000   0.750000000
End final coordinates

     A final scf calculation at the relaxed structure.
     The G-vectors are recalculated for the final unit cell
     Results may differ from those at the preceding step.

     bravais-lattice index     =            0
     lattice parameter (alat)  =      12.0168  a.u.
     unit-cell volume          =    1280.0762 (a.u.)^3
     number of atoms/cell      =            8
     number of atomic types    =            2
     number of electrons       =       106.00
     number of Kohn-Sham states=           64
     kinetic-energy cutoff     =      40.0000  Ry
     charge density cutoff     =     160.0000  Ry
     convergence threshold     =      7.6E-06
     mixing beta               =       0.7000
     number of iterations used =            8  plain     mixing
     Exchange-correlation      = SLA-PZ-NOGX-NOGC ( 1 1 0 0 0)
     EXX-fraction              =        0.00

     celldm(1)=  12.016801  celldm(2)=   0.000000  celldm(3)=   0.000000
     celldm(4)=   0.000000  celldm(5)=   0.000000  celldm(6)=   0.000000

     crystal axes: (cart. coord. in units of alat)
               a(1) = (   1.021976   0.000000   0.000000 )
               a(2) = (  -0.510988   0.885057   0.000000 )
               a(3) = (   0.000000   0.000000   0.815562 )

     reciprocal axes: (cart. coord. in units 2 pi/alat)
               b(1) = (  0.978496  0.564935  0.000000 )
               b(2) = (  0.000000  1.129870  0.000000 )
               b(3) = (  0.000000  0.000000  1.226148 )

     PseudoPot. # 1 for Ce read from file:
     /home/jld5415/pp.La/Ce.UPF
     MD5 check sum: 44451aa79a44a00cf2bc029dc19922f6
     Pseudo is Norm-conserving, Zval = 12.0
     Generated in analytical, separable form
     Using radial grid of 1255 points,  6 beta functions with:
                l(1) =   0
                l(2) =   0
                l(3) =   1
                l(4) =   1
                l(5) =   2
                l(6) =   3

     PseudoPot. # 2 for Eu read from file:
     /home/jld5415/pp.La/Eu.UPF
     MD5 check sum: 5efdbbfc50c6a10138933a6429836ad2
     Pseudo is Norm-conserving, Zval = 17.0
     Generated in analytical, separable form
     Using radial grid of 1261 points,  6 beta functions with:
                l(1) =   0
                l(2) =   0
                l(3) =   1
                l(4) =   1
                l(5) =   2
                l(6) =   3

     atomic species   valence    mass     pseudopotential
        Mg            12.00    24.30500     Ce( 1.00)
        Cd            17.00   112.41100     Eu( 1.00)

     24 Sym. Ops., with inversion, found (12 have fractional translation)

   Cartesian axes

     site n.     atom                  positions (alat units)
         1           Mg  tau(   1) = (   0.2498948   0.7343150   0.2038906  )
         2           Mg  tau(   2) = (   0.7608828   0.1507422   0.6116717  )
         3           Mg  tau(   3) = (   0.2610932   0.1507422   0.6116717  )
         4           Mg  tau(   4) = (  -0.2498948   0.7343150   0.2038906  )
         5           Mg  tau(   5) = (   0.0000000   0.3014845   0.2038906  )
         6           Mg  tau(   6) = (   0.5109880   0.5835727   0.6116717  )
         7           Cd  tau(   7) = (   0.5109885   0.2950188   0.2038906  )
         8           Cd  tau(   8) = (  -0.0000005   0.5900385   0.6116717  )

     number of k points=    64  gaussian smearing, width (Ry)=  0.1000
                       cart. coord. in units 2pi/alat
        k(    1) = (   0.0000000   0.0000000   0.0000000), wk =   0.0095238
        k(    2) = (   0.0000000   0.0000000   0.1751640), wk =   0.0190476
        k(    3) = (   0.0000000   0.0000000   0.3503280), wk =   0.0190476
        k(    4) = (   0.0000000   0.0000000   0.5254920), wk =   0.0190476
        k(    5) = (   0.0000000   0.1883117   0.0000000), wk =   0.0190476
        k(    6) = (   0.0000000   0.1883117   0.1751640), wk =   0.0380952
        k(    7) = (   0.0000000   0.1883117   0.3503280), wk =   0.0380952
        k(    8) = (   0.0000000   0.1883117   0.5254920), wk =   0.0380952
        k(    9) = (   0.0000000   0.3766235   0.0000000), wk =   0.0190476
        k(   10) = (   0.0000000   0.3766235   0.1751640), wk =   0.0380952
        k(   11) = (   0.0000000   0.3766235   0.3503280), wk =   0.0380952
        k(   12) = (   0.0000000   0.3766235   0.5254920), wk =   0.0380952
        k(   13) = (   0.0000000  -0.5649352   0.0000000), wk =   0.0095238
        k(   14) = (   0.0000000  -0.5649352   0.1751640), wk =   0.0190476
        k(   15) = (   0.0000000  -0.5649352   0.3503280), wk =   0.0190476
        k(   16) = (   0.0000000  -0.5649352   0.5254920), wk =   0.0190476
        k(   17) = (   0.1956993   0.1129870   0.0000000), wk =   0.0190476
        k(   18) = (   0.1956993   0.1129870   0.1751640), wk =   0.0380952
        k(   19) = (   0.1956993   0.1129870   0.3503280), wk =   0.0380952
        k(   20) = (   0.1956993   0.1129870   0.5254920), wk =   0.0380952
        k(   21) = (   0.1956993   0.3012988   0.0000000), wk =   0.0190476
        k(   22) = (   0.1956993   0.3012988   0.1751640), wk =   0.0380952
        k(   23) = (   0.1956993   0.3012988   0.3503280), wk =   0.0380952
        k(   24) = (   0.1956993   0.3012988   0.5254920), wk =   0.0380952
        k(   25) = (   0.1956993   0.4896105   0.0000000), wk =   0.0190476
        k(   26) = (   0.1956993   0.4896105   0.1751640), wk =   0.0380952
        k(   27) = (   0.1956993   0.4896105   0.3503280), wk =   0.0380952
        k(   28) = (   0.1956993   0.4896105   0.5254920), wk =   0.0380952
        k(   29) = (   0.1956993  -0.4519482   0.0000000), wk =   0.0190476
        k(   30) = (   0.1956993  -0.4519482   0.1751640), wk =   0.0380952
        k(   31) = (   0.1956993  -0.4519482   0.3503280), wk =   0.0380952
        k(   32) = (   0.1956993  -0.4519482   0.5254920), wk =   0.0380952
        k(   33) = (   0.1956993  -0.2636364   0.0000000), wk =   0.0190476
        k(   34) = (   0.1956993  -0.2636364   0.1751640), wk =   0.0380952
        k(   35) = (   0.1956993  -0.2636364   0.3503280), wk =   0.0380952
        k(   36) = (   0.1956993  -0.2636364   0.5254920), wk =   0.0380952
        k(   37) = (   0.1956993  -0.0753247   0.0000000), wk =   0.0190476
        k(   38) = (   0.1956993  -0.0753247   0.1751640), wk =   0.0380952
        k(   39) = (   0.1956993  -0.0753247   0.3503280), wk =   0.0380952
        k(   40) = (   0.1956993  -0.0753247   0.5254920), wk =   0.0380952
        k(   41) = (   0.3913986   0.2259741   0.0000000), wk =   0.0190476
        k(   42) = (   0.3913986   0.2259741   0.1751640), wk =   0.0380952
        k(   43) = (   0.3913986   0.2259741   0.3503280), wk =   0.0380952
        k(   44) = (   0.3913986   0.2259741   0.5254920), wk =   0.0380952
        k(   45) = (   0.3913986   0.4142858   0.0000000), wk =   0.0190476
        k(   46) = (   0.3913986   0.4142858   0.1751640), wk =   0.0380952
        k(   47) = (   0.3913986   0.4142858   0.3503280), wk =   0.0380952
        k(   48) = (   0.3913986   0.4142858   0.5254920), wk =   0.0380952
        k(   49) = (   0.3913986   0.6025976   0.0000000), wk =   0.0190476
        k(   50) = (   0.3913986   0.6025976   0.1751640), wk =   0.0380952
        k(   51) = (   0.3913986   0.6025976   0.3503280), wk =   0.0380952
        k(   52) = (   0.3913986   0.6025976   0.5254920), wk =   0.0380952
        k(   53) = (   0.3913986  -0.3389611   0.0000000), wk =   0.0190476
        k(   54) = (   0.3913986  -0.3389611   0.1751640), wk =   0.0380952
        k(   55) = (   0.3913986  -0.3389611   0.3503280), wk =   0.0380952
        k(   56) = (   0.3913986  -0.3389611   0.5254920), wk =   0.0380952
        k(   57) = (   0.3913986  -0.1506494   0.0000000), wk =   0.0190476
        k(   58) = (   0.3913986  -0.1506494   0.1751640), wk =   0.0380952
        k(   59) = (   0.3913986  -0.1506494   0.3503280), wk =   0.0380952
        k(   60) = (   0.3913986  -0.1506494   0.5254920), wk =   0.0380952
        k(   61) = (   0.3913986   0.0376623   0.0000000), wk =   0.0190476
        k(   62) = (   0.3913986   0.0376623   0.1751640), wk =   0.0380952
        k(   63) = (   0.3913986   0.0376623   0.3503280), wk =   0.0380952
        k(   64) = (   0.3913986   0.0376623   0.5254920), wk =   0.0380952

     Largest allocated arrays     est. size (Mb)     dimensions
     Largest temporary arrays     est. size (Mb)     dimensions

     Initial potential from superposition of free atoms

     Starting from uniform charge
     Starting wfc are    0 randomized atomic wfcs

     Writing output data file Prototype-La-hP8-Mg3Cd.save

     Self-consistent Calculation

[...]

     iteration # 10     ecut=    40.00 Ry     beta=0.70
     CG style diagonalization
     ethr =  3.55E-05,  avg # of iterations =  3.5

[...]

     total energy              =    -813.95854777 Ry
     Harris-Foulkes estimate   =    -813.95855161 Ry
     estimated scf accuracy    <       0.00001349 Ry

     iteration # 14     ecut=    40.00 Ry     beta=0.70
     CG style diagonalization
     c_bands:  2 eigenvalues not converged
     ethr =  1.27E-08,  avg # of iterations =  3.9

     End of self-consistent calculation

[...]

          k = 0.3914 0.0377 0.5255 (  5479 PWs)   bands (ev):

   -43.5763 -43.5761 -18.8536 -18.7859 -18.6641 -18.6085 -18.5741 -18.5436
   -16.3247 -16.3227 -16.2928 -16.2903 -16.2822 -16.2815  -1.7204  -1.6946
    -1.5495  -1.5235  -1.2940  -1.2435  -0.8443  -0.7321  -0.4935  -0.4744
    -0.2898  -0.1551  -0.0121   0.0142   0.1106   0.2079   0.2633   0.2898
    14.9420  14.9759  15.0692  15.2717  15.3106  15.3804  15.6001  15.7178
    15.7660  15.8461  16.1272  16.3192  17.0108  17.3059  17.4552  17.6864
    18.0901  18.3244  18.6311  18.7830  18.8945  19.1816  19.4438  19.6896
    19.7631  19.8619  19.9730  20.3367  20.9181  20.9830  21.1181  21.5780

     the Fermi energy is    19.0255 ev

!    total energy              =    -813.95855082 Ry
     Harris-Foulkes estimate   =    -813.95855121 Ry
     estimated scf accuracy    <       0.00000043 Ry

     The total energy is the sum of the following terms:

     one-electron contribution =     -54.92814832 Ry
     hartree contribution      =      94.17536674 Ry
     xc contribution           =     -97.23041777 Ry
     ewald contribution        =    -755.36336414 Ry
     smearing contrib. (-TS)   =      -0.61198732 Ry

     convergence has been achieved in  14 iterations

     Forces acting on atoms (Ry/au):

     atom    1 type  1   force =    -0.00325796   -0.00188099    0.00000000
     atom    2 type  1   force =    -0.00325796    0.00188099    0.00000000
     atom    3 type  1   force =     0.00325796    0.00188099    0.00000000
     atom    4 type  1   force =     0.00325796   -0.00188099    0.00000000
     atom    5 type  1   force =     0.00000000    0.00376197    0.00000000
     atom    6 type  1   force =     0.00000000   -0.00376197    0.00000000
     atom    7 type  2   force =     0.00000000    0.00000000    0.00000000
     atom    8 type  2   force =     0.00000000    0.00000000    0.00000000

     Total force =     0.009215     Total SCF correction =     0.000000

     entering subroutine stress ...

          total   stress  (Ry/bohr**3)                   (kbar)     P=   34.97
   0.00019966   0.00000000   0.00000000         29.37      0.00      0.00
   0.00000000   0.00019966   0.00000000          0.00     29.37      0.00
   0.00000000   0.00000000   0.00031384          0.00      0.00     46.17

     Writing output data file Prototype-La-hP8-Mg3Cd.save

     General routines

     Parallel routines

   This run was terminated on:   1:25:19  22Mar2018

   JOB DONE.