     Program PWSCF v.5.0.2 starts on 23Mar2018 at  1: 1:22

     Current dimensions of program PWSCF are:
     Max number of different atomic species (ntypx) = 10
     Max number of k-points (npk) =  40000
     Max angular momentum in pseudopotentials (lmaxx) =  3
     Waiting for input...
     Reading input from standard input

     Subspace diagonalization in iterative solution of the eigenvalue problem:
     a serial algorithm will be used

     bravais-lattice index     =            0
     lattice parameter (alat)  =       9.9235  a.u.
     unit-cell volume          =    1361.0366 (a.u.)^3
     number of atoms/cell      =           12
     number of atomic types    =            2
     number of electrons       =       236.00
     number of Kohn-Sham states=          142
     kinetic-energy cutoff     =      40.0000  Ry
     charge density cutoff     =     160.0000  Ry
     convergence threshold     =      1.0E-04
     mixing beta               =       0.7000
     number of iterations used =            8  plain     mixing
     Exchange-correlation      = SLA-PZ-NOGX-NOGC ( 1 1 0 0 0)
     EXX-fraction              =        0.00
     nstep                     =           50

     celldm(1)=   9.923489  celldm(2)=   0.000000  celldm(3)=   0.000000
     celldm(4)=   0.000000  celldm(5)=   0.000000  celldm(6)=   0.000000

     crystal axes: (cart. coord. in units of alat)
               a(1) = (   1.000000   0.000000   0.000000 )
               a(2) = (  -0.500000   0.866025   0.000000 )
               a(3) = (   0.000000   0.000000   1.608222 )

     reciprocal axes: (cart. coord. in units 2 pi/alat)
               b(1) = (  1.000000  0.577350  0.000000 )
               b(2) = (  0.000000  1.154701  0.000000 )
               b(3) = (  0.000000  0.000000  0.621805 )

     PseudoPot. # 1 for Ho read from file:
     /home/cwx6513/pp.La/Ho.UPF
     MD5 check sum: f307ee11bce99f5b724fa279e3790763
     Pseudo is Norm-conserving, Zval = 21.0
     Generated in analytical, separable form
     Using radial grid of 1265 points,  6 beta functions with:
                l(1) =   0
                l(2) =   0
                l(3) =   1
                l(4) =   1
                l(5) =   2
                l(6) =   3

     PseudoPot. # 2 for Tb read from file:
     /home/cwx6513/pp.La/Tb.UPF
     MD5 check sum: 3d6088a3f0cf7fd2e110c43f7f8e95c2
     Pseudo is Norm-conserving, Zval = 19.0
     Generated in analytical, separable form
     Using radial grid of 1263 points,  6 beta functions with:
                l(1) =   0
                l(2) =   0
                l(3) =   1
                l(4) =   1
                l(5) =   2
                l(6) =   3

     atomic species   valence    mass     pseudopotential
        Mg            21.00    24.30500     Ho( 1.00)
        Zn            19.00    65.39000     Tb( 1.00)

     24 Sym. Ops., with inversion, found (12 have fractional translation)

   Cartesian axes

     site n.     atom                  positions (alat units)
         1           Mg  tau(   1) = (  -0.0000005   0.5773506   0.1003820  )
         2           Mg  tau(   2) = (   0.5000005   0.2886748   0.9044931  )
         3           Mg  tau(   3) = (   0.5000005   0.2886748   1.5078402  )
         4           Mg  tau(   4) = (  -0.0000005   0.5773506   0.7037291  )
         5           Zn  tau(   5) = (   0.0000000   0.0000000   0.0000000  )
         6           Zn  tau(   6) = (   0.0000000   0.0000000   0.8041111  )
         7           Zn  tau(   7) = (   0.0000000   0.2950739   1.2061667  )
         8           Zn  tau(   8) = (   0.7444585   0.1475370   0.4020556  )
         9           Zn  tau(   9) = (   0.2555415   0.1475370   0.4020556  )
        10           Zn  tau(  10) = (   0.2444585   0.7184884   1.2061667  )
        11           Zn  tau(  11) = (  -0.2444585   0.7184884   1.2061667  )
        12           Zn  tau(  12) = (   0.5000000   0.5709515   0.4020556  )

     number of k points=    12  gaussian smearing, width (Ry)=  0.1000
                       cart. coord. in units 2pi/alat
        k(    1) = (   0.0000000   0.0000000   0.0000000), wk =   0.0833333
        k(    2) = (   0.0000000   0.0000000   0.1554512), wk =   0.1666667
        k(    3) = (   0.0000000   0.0000000  -0.3109023), wk =   0.0833333
        k(    4) = (   0.0000000   0.3849002   0.0000000), wk =   0.1666667
        k(    5) = (   0.0000000   0.3849002   0.1554512), wk =   0.3333333
        k(    6) = (   0.0000000   0.3849002  -0.3109023), wk =   0.1666667
        k(    7) = (  -0.5000000  -0.2886751   0.0000000), wk =   0.0833333
        k(    8) = (  -0.5000000  -0.2886751   0.1554512), wk =   0.1666667
        k(    9) = (  -0.5000000  -0.2886751  -0.3109023), wk =   0.0833333
        k(   10) = (  -0.5000000   0.0962250   0.0000000), wk =   0.1666667
        k(   11) = (  -0.5000000   0.0962250   0.1554512), wk =   0.3333333
        k(   12) = (  -0.5000000   0.0962250  -0.3109023), wk =   0.1666667

     Largest allocated arrays     est. size (Mb)     dimensions
     Largest temporary arrays     est. size (Mb)     dimensions

     Initial potential from superposition of free atoms

     Starting from uniform charge
     Starting wfc are    0 randomized atomic wfcs

     Self-consistent Calculation

     iteration #  1     ecut=    40.00 Ry     beta=0.70
     CG style diagonalization
     ethr =  1.00E-02,  avg # of iterations = 18.3

     total energy              =   -2762.80336158 Ry
     Harris-Foulkes estimate   =   -3585.03797261 Ry
     estimated scf accuracy    <    1056.91125225 Ry

     iteration #  2     ecut=    40.00 Ry     beta=0.70
     CG style diagonalization
     c_bands:  1 eigenvalues not converged
     ethr =  1.00E-02,  avg # of iterations =  8.9

[...]

     End of self-consistent calculation

          k = 0.0000 0.0000 0.0000 (  5769 PWs)   bands (ev):

   -60.6838 -60.6787 -60.6712 -60.6551 -45.1183 -45.0769 -44.8410 -44.8409
   -44.8375 -44.8374 -44.7830 -44.7229 -24.8952 -24.8816 -24.8795 -24.8795
   -24.8556 -24.8556 -24.8298 -24.8055 -24.8055 -24.8036 -24.7988 -24.7988
   -15.0687 -14.7777 -14.2847 -13.9239 -13.9239 -13.8635 -13.8634 -13.7336
   -13.7335 -13.5526 -13.3165 -13.3164 -13.2454 -13.1915 -13.1915 -12.8242
   -12.8078 -12.7517 -12.7516 -12.7514 -12.7513 -12.7354 -12.6648 -12.6648
    17.9555  17.9716  18.0335  18.0335  18.1835  18.1835  18.5279  18.5280
    18.5294  18.5295  18.5987  18.6702  18.7692  18.8763  18.9677  18.9678
    19.1053  19.1053  19.1722  19.1722  19.2652  19.3363  19.3363  19.3371
    20.7564  20.7564  20.8967  20.9367  20.9367  21.0344  21.0344  21.4460
    21.8733  21.9649  21.9649  22.3117  22.9824  22.9824  23.4093  23.4093
    23.8120  23.8120  24.4234  24.5224  25.0373  25.0373  25.7528  25.7615
    25.9502  26.1549  26.1549  26.2505  26.2505  26.3723  26.3723  26.5312
    26.5312  27.9738  27.9739  28.4469  28.4469  29.3735  29.8272  29.8353
    29.8402  30.5595  30.9012  30.9012  31.2453  31.3574  31.3575  32.8842
    33.1291  33.1293  33.6834  34.4294  34.6159  34.6161  35.1889  36.3962
    36.3963  37.7432  38.0043  38.0043  38.1189  38.1189  38.1989  38.3231
    38.8876  38.8876  39.1140  39.1141  39.3069  39.3248

[...]

          k =-0.5000-0.2887 0.0000 (  5800 PWs)   bands (ev):

[...]

     the Fermi energy is    31.8338 ev

!    total energy              =   -3007.46941190 Ry
     Harris-Foulkes estimate   =   -3007.46948127 Ry
     estimated scf accuracy    <       0.00007796 Ry

     The total energy is the sum of the following terms:

     one-electron contribution =    -366.34462196 Ry
     hartree contribution      =     397.39388539 Ry
     xc contribution           =    -283.59706035 Ry
     ewald contribution        =   -2754.71074019 Ry
     smearing contrib. (-TS)   =      -0.21087479 Ry

     convergence has been achieved in  10 iterations

     Forces acting on atoms (Ry/au):

     atom    1 type  1   force =     0.00000000    0.00000000    0.01756234
     atom    2 type  1   force =     0.00000000    0.00000000    0.01756234
     atom    3 type  1   force =     0.00000000    0.00000000   -0.01756234
     atom    4 type  1   force =     0.00000000    0.00000000   -0.01756234
     atom    5 type  2   force =     0.00000000    0.00000000    0.00000000
     atom    6 type  2   force =     0.00000000    0.00000000    0.00000000
     atom    7 type  2   force =     0.00000000    0.00685127    0.00000000
     atom    8 type  2   force =    -0.00593338    0.00342564    0.00000000
     atom    9 type  2   force =     0.00593338    0.00342564    0.00000000
     atom   10 type  2   force =    -0.00593338   -0.00342564    0.00000000
     atom   11 type  2   force =     0.00593338   -0.00342564    0.00000000
     atom   12 type  2   force =     0.00000000   -0.00685127    0.00000000

     Total force =     0.038928     Total SCF correction =     0.000000

     entering subroutine stress ...

          total   stress  (Ry/bohr**3)                   (kbar)     P=  604.97
   0.00421972   0.00000000   0.00000000        620.74      0.00      0.00
   0.00000000   0.00421972   0.00000000          0.00    620.74      0.00
   0.00000000   0.00000000   0.00389809          0.00      0.00    573.43

     BFGS Geometry Optimization

     number of scf cycles    =   1
     number of bfgs steps    =   0

     enthalpy new            =   -3007.4694119010 Ry

     new trust radius        =       0.5000000000 bohr
     new conv_thr            =       0.0001000000 Ry

     new unit-cell volume =   1648.88679 a.u.^3 (   244.33981 Ang^3 )

CELL_PARAMETERS (alat=  9.92348860)
   1.067764947   0.000000000   0.000000000
  -0.533882474   0.924711570   0.000000000
   0.000000000   0.000000000   1.708896505

ATOMIC_POSITIONS (crystal)
Mg       0.333333000   0.666667000   0.063124892
Mg       0.666667000   0.333333000   0.563124892
Mg       0.666667000   0.333333000   0.936875108
Mg       0.333333000   0.666667000   0.436875108
Zn       0.000000000   0.000000000   0.000000000
Zn       0.000000000   0.000000000   0.500000000
Zn       0.170617052   0.341234103   0.750000000
Zn       0.829382948   0.170617052   0.250000000
Zn       0.341234103   0.170617052   0.250000000
Zn       0.658765897   0.829382948   0.750000000
Zn       0.170617052   0.829382948   0.750000000
Zn       0.829382948   0.658765897   0.250000000

     Writing output data file Prototype-La-hP12-MgZn2.save
     NEW-OLD atomic charge density approx. for the potential
     NEW k-points:
        k(    1) = (   0.0000000   0.0000000   0.0000000), wk =   0.0833333
        k(    2) = (   0.0000000   0.0000000   0.1462932), wk =   0.1666667
        k(    3) = (   0.0000000   0.0000000  -0.2925865), wk =   0.0833333
        k(    4) = (   0.0000000   0.3604728   0.0000000), wk =   0.1666667
        k(    5) = (   0.0000000   0.3604728   0.1462932), wk =   0.3333333
        k(    6) = (   0.0000000   0.3604728  -0.2925865), wk =   0.1666667
        k(    7) = (  -0.4682679  -0.2703546   0.0000000), wk =   0.0833333
        k(    8) = (  -0.4682679  -0.2703546   0.1462932), wk =   0.1666667
        k(    9) = (  -0.4682679  -0.2703546  -0.2925865), wk =   0.0833333
        k(   10) = (  -0.4682679   0.0901182   0.0000000), wk =   0.1666667
        k(   11) = (  -0.4682679   0.0901182   0.1462932), wk =   0.3333333
        k(   12) = (  -0.4682679   0.0901182  -0.2925865), wk =   0.1666667

[...]

     enthalpy old            =   -3007.4694119010 Ry
     enthalpy new            =   -3007.3518668289 Ry

     CASE: enthalpy_new > enthalpy_old

     new trust radius        =       0.2330586914 bohr

     trust_radius < trust_radius_min

     resetting bfgs history

     new conv_thr            =       0.0001000000 Ry

[...]

     number of scf cycles    =   3
     number of bfgs steps    =   1

     enthalpy old            =   -3007.4694119010 Ry
     enthalpy new            =   -3007.3896388343 Ry

     CASE: enthalpy_new > enthalpy_old

     new trust radius        =       0.2324613387 bohr

     trust_radius < trust_radius_min

     resetting bfgs history

     Message from routine bfgs:
     history already reset at previous step: stopping
     new conv_thr            =       0.0001000000 Ry

     new unit-cell volume =   1639.09902 a.u.^3 (   242.88941 Ang^3 )

[...]

ATOMIC_POSITIONS (crystal)
Mg       0.333333000   0.666667000   0.063065600
Mg       0.666667000   0.333333000   0.563065600
Mg       0.666667000   0.333333000   0.936934400
Mg       0.333333000   0.666667000   0.436934400
Zn       0.000000000   0.000000000   0.000000000
Zn       0.000000000   0.000000000   0.500000000
Zn       0.170593118   0.341186235   0.750000000
Zn       0.829406882   0.170593118   0.250000000
Zn       0.341186235   0.170593118   0.250000000
Zn       0.658813765   0.829406882   0.750000000
Zn       0.170593118   0.829406882   0.750000000
Zn       0.829406882   0.658813765   0.250000000

     Writing output data file Prototype-La-hP12-MgZn2.save
     NEW-OLD atomic charge density approx. for the potential
     NEW k-points:
        k(    1) = (   0.0000000   0.0000000   0.0000000), wk =   0.0833333
        k(    2) = (   0.0000000   0.0000000   0.1466297), wk =   0.1666667
        k(    3) = (   0.0000000   0.0000000  -0.2932594), wk =   0.0833333
        k(    4) = (   0.0000000   0.3611323   0.0000000), wk =   0.1666667
        k(    5) = (   0.0000000   0.3611323   0.1466297), wk =   0.3333333
        k(    6) = (   0.0000000   0.3611323  -0.2932594), wk =   0.1666667
        k(    7) = (  -0.4691247  -0.2708493   0.0000000), wk =   0.0833333
        k(    8) = (  -0.4691247  -0.2708493   0.1466297), wk =   0.1666667
        k(    9) = (  -0.4691247  -0.2708493  -0.2932594), wk =   0.0833333
        k(   10) = (  -0.4691247   0.0902831   0.0000000), wk =   0.1666667
        k(   11) = (  -0.4691247   0.0902831   0.1466297), wk =   0.3333333
        k(   12) = (  -0.4691247   0.0902831  -0.2932594), wk =   0.1666667

[...]

     Threshold (ethr) on eigenvalues was too large:
     Diagonalizing with lowered threshold

     CG style diagonalization
     ethr =  6.46E-08,  avg # of iterations =  3.0

[...]

     The maximum number of steps has been reached.

     End of BFGS Geometry Optimization
Begin final coordinates
     new unit-cell volume =   1639.09902 a.u.^3 (   242.88941 Ang^3 )

CELL_PARAMETERS (alat=  9.92348860)
   1.065814736   0.000000000   0.000000000
  -0.532907368   0.923022637   0.000000000
   0.000000000   0.000000000   1.704974914

ATOMIC_POSITIONS (crystal)
Mg       0.333333000   0.666667000   0.063065600
Mg       0.666667000   0.333333000   0.563065600
Mg       0.666667000   0.333333000   0.936934400
Mg       0.333333000   0.666667000   0.436934400
Zn       0.000000000   0.000000000   0.000000000
Zn       0.000000000   0.000000000   0.500000000
Zn       0.170593118   0.341186235   0.750000000
Zn       0.829406882   0.170593118   0.250000000
Zn       0.341186235   0.170593118   0.250000000
Zn       0.658813765   0.829406882   0.750000000
Zn       0.170593118   0.829406882   0.750000000
Zn       0.829406882   0.658813765   0.250000000
End final coordinates

     A final scf calculation at the relaxed structure.
     The G-vectors are recalculated for the final unit cell
     Results may differ from those at the preceding step.

     bravais-lattice index     =            0
     lattice parameter (alat)  =       9.9235  a.u.
     unit-cell volume          =    1639.0990 (a.u.)^3
     number of atoms/cell      =           12
     number of atomic types    =            2
     number of electrons       =       236.00
     number of Kohn-Sham states=          142
     kinetic-energy cutoff     =      40.0000  Ry
     charge density cutoff     =     160.0000  Ry
     convergence threshold     =      1.0E-04
     mixing beta               =       0.7000
     number of iterations used =            8  plain     mixing
     Exchange-correlation      = SLA-PZ-NOGX-NOGC ( 1 1 0 0 0)
     EXX-fraction              =        0.00

     celldm(1)=   9.923489  celldm(2)=   0.000000  celldm(3)=   0.000000
     celldm(4)=   0.000000  celldm(5)=   0.000000  celldm(6)=   0.000000

     crystal axes: (cart. coord. in units of alat)
               a(1) = (   1.065815   0.000000   0.000000 )
               a(2) = (  -0.532907   0.923023   0.000000 )
               a(3) = (   0.000000   0.000000   1.704975 )

     reciprocal axes: (cart. coord. in units 2 pi/alat)
               b(1) = (  0.938249  0.541699  0.000000 )
               b(2) = (  0.000000  1.083397  0.000000 )
               b(3) = (  0.000000  0.000000  0.586519 )

     PseudoPot. # 1 for Ho read from file:
     /home/cwx6513/pp.La/Ho.UPF
     MD5 check sum: f307ee11bce99f5b724fa279e3790763
     Pseudo is Norm-conserving, Zval = 21.0
     Generated in analytical, separable form
     Using radial grid of 1265 points,  6 beta functions with:
                l(1) =   0
                l(2) =   0
                l(3) =   1
                l(4) =   1
                l(5) =   2
                l(6) =   3

     PseudoPot. # 2 for Tb read from file:
     /home/cwx6513/pp.La/Tb.UPF
     MD5 check sum: 3d6088a3f0cf7fd2e110c43f7f8e95c2
     Pseudo is Norm-conserving, Zval = 19.0
     Generated in analytical, separable form
     Using radial grid of 1263 points,  6 beta functions with:
                l(1) =   0
                l(2) =   0
                l(3) =   1
                l(4) =   1
                l(5) =   2
                l(6) =   3

     atomic species   valence    mass     pseudopotential
        Mg            21.00    24.30500     Ho( 1.00)
        Zn            19.00    65.39000     Tb( 1.00)

     24 Sym. Ops., with inversion, found (12 have fractional translation)

   Cartesian axes

     site n.     atom                  positions (alat units)
         1           Mg  tau(   1) = (  -0.0000005   0.6153487   0.1075253  )
         2           Mg  tau(   2) = (   0.5329079   0.3076739   0.9600127  )
         3           Mg  tau(   3) = (   0.5329079   0.3076739   1.5974496  )
         4           Mg  tau(   4) = (  -0.0000005   0.6153487   0.7449622  )
         5           Zn  tau(   5) = (   0.0000000   0.0000000   0.0000000  )
         6           Zn  tau(   6) = (   0.0000000   0.0000000   0.8524875  )
         7           Zn  tau(   7) = (   0.0000000   0.3149226   1.2787312  )
         8           Zn  tau(   8) = (   0.7930837   0.1574613   0.4262437  )
         9           Zn  tau(   9) = (   0.2727310   0.1574613   0.4262437  )
        10           Zn  tau(  10) = (   0.2601764   0.7655613   1.2787312  )
        11           Zn  tau(  11) = (  -0.2601764   0.7655613   1.2787312  )
        12           Zn  tau(  12) = (   0.5329074   0.6081000   0.4262437  )

     number of k points=    12  gaussian smearing, width (Ry)=  0.1000
                       cart. coord. in units 2pi/alat
        k(    1) = (   0.0000000   0.0000000   0.0000000), wk =   0.0833333
        k(    2) = (   0.0000000   0.0000000   0.1466297), wk =   0.1666667
        k(    3) = (   0.0000000   0.0000000  -0.2932594), wk =   0.0833333
        k(    4) = (   0.0000000   0.3611323   0.0000000), wk =   0.1666667
        k(    5) = (   0.0000000   0.3611323   0.1466297), wk =   0.3333333
        k(    6) = (   0.0000000   0.3611323  -0.2932594), wk =   0.1666667
        k(    7) = (  -0.4691247  -0.2708493   0.0000000), wk =   0.0833333
        k(    8) = (  -0.4691247  -0.2708493   0.1466297), wk =   0.1666667
        k(    9) = (  -0.4691247  -0.2708493  -0.2932594), wk =   0.0833333
        k(   10) = (  -0.4691247   0.0902831   0.0000000), wk =   0.1666667
        k(   11) = (  -0.4691247   0.0902831   0.1466297), wk =   0.3333333
        k(   12) = (  -0.4691247   0.0902831  -0.2932594), wk =   0.1666667

     Largest allocated arrays     est. size (Mb)     dimensions
     Largest temporary arrays     est. size (Mb)     dimensions

     Initial potential from superposition of free atoms

     Starting from uniform charge
     Starting wfc are    0 randomized atomic wfcs

     Writing output data file Prototype-La-hP12-MgZn2.save

     Self-consistent Calculation

[...]

     iteration # 11     ecut=    40.00 Ry     beta=0.70
     CG style diagonalization
     c_bands:  1 eigenvalues not converged
     c_bands:  1 eigenvalues not converged
     ethr =  1.01E-06,  avg # of iterations =  3.3

     total energy              =   -3009.39686788 Ry
     Harris-Foulkes estimate   =   -3009.39722512 Ry
     estimated scf accuracy    <       0.00065330 Ry

     iteration # 12     ecut=    40.00 Ry     beta=0.70
     CG style diagonalization
     ethr =  2.77E-07,  avg # of iterations =  3.4

     End of self-consistent calculation

[...]

          k = 0.0000 0.3611-0.2933 (  6994 PWs)   bands (ev):

[...]

          k =-0.4691 0.0903-0.2933 (  7000 PWs)   bands (ev):

   -66.4841 -66.4841 -66.4801 -66.4801 -50.4422 -50.4422 -50.4036 -50.4036
   -50.3611 -50.3611 -50.2551 -50.2551 -30.6231 -30.6231 -30.6112 -30.6111
   -30.6012 -30.6011 -30.5990 -30.5989 -30.5972 -30.5971 -30.5933 -30.5933
   -19.3631 -19.3631 -19.1410 -19.1410 -18.9459 -18.9459 -18.9156 -18.9156
   -18.8649 -18.8649 -18.8337 -18.8337 -18.7217 -18.7217 -18.6276 -18.6276
   -18.5372 -18.5372 -18.4736 -18.4736 -18.4307 -18.4307 -18.4082 -18.4082
    12.9139  12.9139  12.9567  12.9568  12.9861  12.9861  13.1340  13.1340
    13.2025  13.2025  13.3579  13.3579  13.4528  13.4529  13.5105  13.5106
    13.6767  13.6768  13.7599  13.7599  15.7645  15.7645  16.1985  16.1985
    16.5589  16.5589  16.8319  16.8319  17.0777  17.0777  17.1589  17.1589
    17.3634  17.3634  17.9056  17.9056  18.1551  18.1551  18.2064  18.2065
    18.4511  18.4511  18.8614  18.8614  19.0663  19.0663  19.3896  19.3896
    19.6103  19.6103  19.7700  19.7700  20.0045  20.0045  20.3176  20.3176
    20.5286  20.5286  20.6124  20.6124  20.9930  20.9930  21.7765  21.7765
    22.3309  22.3309  24.1653  24.1653  25.1475  25.1475  25.6924  25.6924
    26.7876  26.7877  28.1627  28.1627  29.8795  29.8795  30.5084  30.5085
    30.8766  30.8767  31.5628  31.5629  32.0412  32.0413  32.7372  32.7374
    33.0440  33.0441  33.3045  33.3049  33.6952  33.6955

     the Fermi energy is    25.2547 ev

!    total energy              =   -3009.39702439 Ry
     Harris-Foulkes estimate   =   -3009.39703119 Ry
     estimated scf accuracy    <       0.00000844 Ry

     The total energy is the sum of the following terms:

     one-electron contribution =    -609.39179399 Ry
     hartree contribution      =     469.93772175 Ry
     xc contribution           =    -280.39487446 Ry
     ewald contribution        =   -2589.29993911 Ry
     smearing contrib. (-TS)   =      -0.24813859 Ry

     convergence has been achieved in  12 iterations

     Forces acting on atoms (Ry/au):

     atom    1 type  1   force =     0.00000000    0.00000000   -0.00984226
     atom    2 type  1   force =     0.00000000    0.00000000   -0.00984226
     atom    3 type  1   force =     0.00000000    0.00000000    0.00984226
     atom    4 type  1   force =     0.00000000    0.00000000    0.00984226
     atom    5 type  2   force =     0.00000000    0.00000000    0.00000000
     atom    6 type  2   force =     0.00000000    0.00000000    0.00000000
     atom    7 type  2   force =     0.00000000    0.01191586    0.00000000
     atom    8 type  2   force =    -0.01031944    0.00595793    0.00000000
     atom    9 type  2   force =     0.01031944    0.00595793    0.00000000
     atom   10 type  2   force =    -0.01031944   -0.00595793    0.00000000
     atom   11 type  2   force =     0.01031944   -0.00595793    0.00000000
     atom   12 type  2   force =     0.00000000   -0.01191586    0.00000000

     Total force =     0.035205     Total SCF correction =     0.000000

     entering subroutine stress ...

          total   stress  (Ry/bohr**3)                   (kbar)     P= -172.25
  -0.00112936   0.00000000   0.00000000       -166.13      0.00      0.00
   0.00000000  -0.00112936   0.00000000          0.00   -166.13      0.00
   0.00000000   0.00000000  -0.00125418          0.00      0.00   -184.50

     Writing output data file Prototype-La-hP12-MgZn2.save

     General routines

     Parallel routines

   This run was terminated on:   1:24:42  23Mar2018

   JOB DONE.