     Program PWSCF v.5.0.2 starts on 22Mar2018 at 21:11:59

     Current dimensions of program PWSCF are:
     Max number of different atomic species (ntypx) = 10
     Max number of k-points (npk) =  40000
     Max angular momentum in pseudopotentials (lmaxx) =  3
     Waiting for input...
     Reading input from standard input

     Subspace diagonalization in iterative solution of the eigenvalue problem:
     a serial algorithm will be used

     bravais-lattice index     =            0
     lattice parameter (alat)  =       9.9235  a.u.
     unit-cell volume          =    1361.0366 (a.u.)^3
     number of atoms/cell      =           12
     number of atomic types    =            2
     number of electrons       =       244.00
     number of Kohn-Sham states=          146
     kinetic-energy cutoff     =      40.0000  Ry
     charge density cutoff     =     160.0000  Ry
     convergence threshold     =      1.0E-04
     mixing beta               =       0.7000
     number of iterations used =            8  plain     mixing
     Exchange-correlation      = SLA-PZ-NOGX-NOGC ( 1 1 0 0 0)
     EXX-fraction              =        0.00
     nstep                     =           50

     celldm(1)=   9.923489  celldm(2)=   0.000000  celldm(3)=   0.000000
     celldm(4)=   0.000000  celldm(5)=   0.000000  celldm(6)=   0.000000

     crystal axes: (cart. coord. in units of alat)
               a(1) = (   1.000000   0.000000   0.000000 )
               a(2) = (  -0.500000   0.866025   0.000000 )
               a(3) = (   0.000000   0.000000   1.608222 )

     reciprocal axes: (cart. coord. in units 2 pi/alat)
               b(1) = (  1.000000  0.577350  0.000000 )
               b(2) = (  0.000000  1.154701  0.000000 )
               b(3) = (  0.000000  0.000000  0.621805 )

     PseudoPot. # 1 for Eu read from file:
     /home/cwx6513/pp.La/Eu.UPF
     MD5 check sum: 5efdbbfc50c6a10138933a6429836ad2
     Pseudo is Norm-conserving, Zval = 17.0
     Generated in analytical, separable form
     Using radial grid of 1261 points,  6 beta functions with:
                l(1) =   0
                l(2) =   0
                l(3) =   1
                l(4) =   1
                l(5) =   2
                l(6) =   3

     PseudoPot. # 2 for Er read from file:
     /home/cwx6513/pp.La/Er.UPF
     MD5 check sum: e152ae21b84514339d8526f066caf99b
     Pseudo is Norm-conserving, Zval = 22.0
     Generated in analytical, separable form
     Using radial grid of 1267 points,  6 beta functions with:
                l(1) =   0
                l(2) =   0
                l(3) =   1
                l(4) =   1
                l(5) =   2
                l(6) =   3

     atomic species   valence    mass     pseudopotential
        Mg            17.00    24.30500     Eu( 1.00)
        Zn            22.00    65.39000     Er( 1.00)

     24 Sym. Ops., with inversion, found (12 have fractional translation)

   Cartesian axes

     site n.     atom                  positions (alat units)
         1           Mg  tau(   1) = (  -0.0000005   0.5773506   0.1003820  )
         2           Mg  tau(   2) = (   0.5000005   0.2886748   0.9044931  )
         3           Mg  tau(   3) = (   0.5000005   0.2886748   1.5078402  )
         4           Mg  tau(   4) = (  -0.0000005   0.5773506   0.7037291  )
         5           Zn  tau(   5) = (   0.0000000   0.0000000   0.0000000  )
         6           Zn  tau(   6) = (   0.0000000   0.0000000   0.8041111  )
         7           Zn  tau(   7) = (   0.0000000   0.2950739   1.2061667  )
         8           Zn  tau(   8) = (   0.7444585   0.1475370   0.4020556  )
         9           Zn  tau(   9) = (   0.2555415   0.1475370   0.4020556  )
        10           Zn  tau(  10) = (   0.2444585   0.7184884   1.2061667  )
        11           Zn  tau(  11) = (  -0.2444585   0.7184884   1.2061667  )
        12           Zn  tau(  12) = (   0.5000000   0.5709515   0.4020556  )

     number of k points=    12  gaussian smearing, width (Ry)=  0.1000
                       cart. coord. in units 2pi/alat
        k(    1) = (   0.0000000   0.0000000   0.0000000), wk =   0.0833333
        k(    2) = (   0.0000000   0.0000000   0.1554512), wk =   0.1666667
        k(    3) = (   0.0000000   0.0000000  -0.3109023), wk =   0.0833333
        k(    4) = (   0.0000000   0.3849002   0.0000000), wk =   0.1666667
        k(    5) = (   0.0000000   0.3849002   0.1554512), wk =   0.3333333
        k(    6) = (   0.0000000   0.3849002  -0.3109023), wk =   0.1666667
        k(    7) = (  -0.5000000  -0.2886751   0.0000000), wk =   0.0833333
        k(    8) = (  -0.5000000  -0.2886751   0.1554512), wk =   0.1666667
        k(    9) = (  -0.5000000  -0.2886751  -0.3109023), wk =   0.0833333
        k(   10) = (  -0.5000000   0.0962250   0.0000000), wk =   0.1666667
        k(   11) = (  -0.5000000   0.0962250   0.1554512), wk =   0.3333333
        k(   12) = (  -0.5000000   0.0962250  -0.3109023), wk =   0.1666667

     Largest allocated arrays     est. size (Mb)     dimensions
     Largest temporary arrays     est. size (Mb)     dimensions

     Initial potential from superposition of free atoms

     Starting from uniform charge
     Starting wfc are    0 randomized atomic wfcs

     Self-consistent Calculation

     iteration #  1     ecut=    40.00 Ry     beta=0.70
     CG style diagonalization
     ethr =  1.00E-02,  avg # of iterations = 19.8

     total energy              =   -2180.30397862 Ry
     Harris-Foulkes estimate   =   -4350.11631635 Ry
     estimated scf accuracy    <    2610.03408770 Ry

[...]

     iteration #  3     ecut=    40.00 Ry     beta=0.70
     CG style diagonalization
     c_bands:  4 eigenvalues not converged
     c_bands:  3 eigenvalues not converged
     c_bands:  3 eigenvalues not converged
     c_bands:  1 eigenvalues not converged
     c_bands:  1 eigenvalues not converged
     c_bands:  2 eigenvalues not converged
     ethr =  1.00E-02,  avg # of iterations = 12.8

[...]

     End of self-consistent calculation

          k = 0.0000 0.0000 0.0000 (  5769 PWs)   bands (ev):

   -69.5048 -69.4844 -69.4777 -69.4157 -69.4157 -69.4030 -69.4030 -69.3969
   -32.4027 -32.2407 -31.9976 -31.7278 -31.7278 -31.6954 -31.6954 -31.6829
   -31.6030 -31.6029 -31.4732 -31.3961 -31.3961 -31.3901 -31.3900 -31.2713
   -31.2713 -31.2492 -31.2269 -31.2269 -31.1861 -31.1860 -31.1619 -31.1462
   -29.5024 -29.4843 -29.4638 -29.4467  -2.5373  -2.5298  -2.5186  -2.5186
    -2.4916  -2.4916  -2.3004  -2.2816  -2.2706  -2.2706  -2.2552  -2.2552
    10.7642  11.3065  11.7268  12.5265  12.5265  12.7038  12.7038  13.0139
    13.0140  13.0686  13.3958  13.3958  14.0805  14.3870  14.4827  14.4827
    14.6707  14.6707  15.1092  15.4136  15.4136  15.7258  15.7259  15.8107
    16.0492  16.0492  16.1336  16.1422  16.1422  16.1644  16.2426  16.2426
    16.3033  16.3034  17.0834  17.0834  17.3230  17.4432  17.4432  17.9513
    17.9523  19.2117  21.2813  24.2147  24.8281  25.7220  25.7221  25.9614
    26.0226  26.0226  26.0719  26.0720  27.0593  27.0594  27.8027  27.8027
    28.1772  28.1772  29.1018  29.2006  30.5722  30.8356  30.8357  31.0175
    31.0175  31.8657  31.8657  32.3403  32.3404  32.7485  32.7485  32.8984
    32.9181  33.0117  34.0848  34.2653  34.2653  35.0034  35.1104  35.1104
    35.2234  36.7161  36.7162  37.3296  37.4770  37.4771  37.5729  37.7704
    38.0476  38.0513  38.0513  38.5358  38.5360  38.7563  38.7565  38.8773
    39.1207  39.1211

[...]

          k =-0.5000-0.2887 0.0000 (  5800 PWs)   bands (ev):

[...]

     the Fermi energy is    34.0081 ev

!    total energy              =   -3330.69620821 Ry
     Harris-Foulkes estimate   =   -3330.69627160 Ry
     estimated scf accuracy    <       0.00007736 Ry

     The total energy is the sum of the following terms:

     one-electron contribution =    -627.81046173 Ry
     hartree contribution      =     518.05821181 Ry
     xc contribution           =    -300.69782120 Ry
     ewald contribution        =   -2919.90863581 Ry
     smearing contrib. (-TS)   =      -0.33750128 Ry

     convergence has been achieved in  10 iterations

     Forces acting on atoms (Ry/au):

     atom    1 type  1   force =     0.00000000    0.00000000   -0.00825152
     atom    2 type  1   force =     0.00000000    0.00000000   -0.00825152
     atom    3 type  1   force =     0.00000000    0.00000000    0.00825152
     atom    4 type  1   force =     0.00000000    0.00000000    0.00825152
     atom    5 type  2   force =     0.00000000    0.00000000    0.00000000
     atom    6 type  2   force =     0.00000000    0.00000000    0.00000000
     atom    7 type  2   force =     0.00000000    0.15072614    0.00000000
     atom    8 type  2   force =    -0.13053266    0.07536307    0.00000000
     atom    9 type  2   force =     0.13053266    0.07536307    0.00000000
     atom   10 type  2   force =    -0.13053266   -0.07536307    0.00000000
     atom   11 type  2   force =     0.13053266   -0.07536307    0.00000000
     atom   12 type  2   force =     0.00000000   -0.15072614    0.00000000

     Total force =     0.369571     Total SCF correction =     0.000000

     entering subroutine stress ...

          total   stress  (Ry/bohr**3)                   (kbar)     P=  945.01
   0.00643117   0.00000000   0.00000000        946.06      0.00      0.00
   0.00000000   0.00643117   0.00000000          0.00    946.06      0.00
   0.00000000   0.00000000   0.00640978          0.00      0.00    942.91

     BFGS Geometry Optimization

     number of scf cycles    =   1
     number of bfgs steps    =   0

     enthalpy new            =   -3330.6962082102 Ry

     new trust radius        =       0.5000000000 bohr
     new conv_thr            =       0.0001000000 Ry

     new unit-cell volume =   1656.55215 a.u.^3 (   245.47570 Ang^3 )

CELL_PARAMETERS (alat=  9.92348860)
   1.067764947   0.000000000   0.000000000
  -0.533882474   0.924711570   0.000000000
   0.000000000   0.000000000   1.716840841

ATOMIC_POSITIONS (crystal)
Mg       0.333333000   0.666667000   0.062200079
Mg       0.666667000   0.333333000   0.562200079
Mg       0.666667000   0.333333000   0.937799921
Mg       0.333333000   0.666667000   0.437799921
Zn       0.000000000   0.000000000   0.000000000
Zn       0.000000000   0.000000000   0.500000000
Zn       0.174057056   0.348114111   0.750000000
Zn       0.825942944   0.174057056   0.250000000
Zn       0.348114111   0.174057056   0.250000000
Zn       0.651885889   0.825942944   0.750000000
Zn       0.174057056   0.825942944   0.750000000
Zn       0.825942944   0.651885889   0.250000000

     Writing output data file Prototype-La-hP12-MgZn2.save
     NEW-OLD atomic charge density approx. for the potential
     NEW k-points:
        k(    1) = (   0.0000000   0.0000000   0.0000000), wk =   0.0833333
        k(    2) = (   0.0000000   0.0000000   0.1456163), wk =   0.1666667
        k(    3) = (   0.0000000   0.0000000  -0.2912326), wk =   0.0833333
        k(    4) = (   0.0000000   0.3604728   0.0000000), wk =   0.1666667
        k(    5) = (   0.0000000   0.3604728   0.1456163), wk =   0.3333333
        k(    6) = (   0.0000000   0.3604728  -0.2912326), wk =   0.1666667
        k(    7) = (  -0.4682679  -0.2703546   0.0000000), wk =   0.0833333
        k(    8) = (  -0.4682679  -0.2703546   0.1456163), wk =   0.1666667
        k(    9) = (  -0.4682679  -0.2703546  -0.2912326), wk =   0.0833333
        k(   10) = (  -0.4682679   0.0901182   0.0000000), wk =   0.1666667
        k(   11) = (  -0.4682679   0.0901182   0.1456163), wk =   0.3333333
        k(   12) = (  -0.4682679   0.0901182  -0.2912326), wk =   0.1666667

[...]

     enthalpy old            =   -3330.6962082102 Ry
     enthalpy new            =   -3331.1075490096 Ry

     CASE: enthalpy_new < enthalpy_old

     small trust_radius: resetting bfgs history

     new trust radius        =       0.5870698198 bohr
     new conv_thr            =       0.0000298498 Ry

[...]

     number of scf cycles    =   3
     number of bfgs steps    =   2

     enthalpy old            =   -3331.1075490096 Ry
     enthalpy new            =   -3330.6607922401 Ry

     CASE: enthalpy_new > enthalpy_old

     new trust radius        =       0.1882525875 bohr

     trust_radius < trust_radius_min

     resetting bfgs history

     Message from routine bfgs:
     history already reset at previous step: stopping
     new conv_thr            =       0.0000298498 Ry

     new unit-cell volume =   1384.53336 a.u.^3 (   205.16667 Ang^3 )

[...]

ATOMIC_POSITIONS (crystal)
Mg       0.333333000   0.666667000   0.063076268
Mg       0.666667000   0.333333000   0.563076268
Mg       0.666667000   0.333333000   0.936923732
Mg       0.333333000   0.666667000   0.436923732
Zn       0.000000000   0.000000000   0.000000000
Zn       0.000000000   0.000000000   0.500000000
Zn       0.172523775   0.345047551   0.750000000
Zn       0.827476225   0.172523775   0.250000000
Zn       0.345047551   0.172523775   0.250000000
Zn       0.654952449   0.827476225   0.750000000
Zn       0.172523775   0.827476225   0.750000000
Zn       0.827476225   0.654952449   0.250000000

     Writing output data file Prototype-La-hP12-MgZn2.save
     NEW-OLD atomic charge density approx. for the potential
     NEW k-points:
        k(    1) = (   0.0000000   0.0000000   0.0000000), wk =   0.0833333
        k(    2) = (   0.0000000   0.0000000   0.1554211), wk =   0.1666667
        k(    3) = (   0.0000000   0.0000000  -0.3108423), wk =   0.0833333
        k(    4) = (   0.0000000   0.3816570   0.0000000), wk =   0.1666667
        k(    5) = (   0.0000000   0.3816570   0.1554211), wk =   0.3333333
        k(    6) = (   0.0000000   0.3816570  -0.3108423), wk =   0.1666667
        k(    7) = (  -0.4957870  -0.2862428   0.0000000), wk =   0.0833333
        k(    8) = (  -0.4957870  -0.2862428   0.1554211), wk =   0.1666667
        k(    9) = (  -0.4957870  -0.2862428  -0.3108423), wk =   0.0833333
        k(   10) = (  -0.4957870   0.0954143   0.0000000), wk =   0.1666667
        k(   11) = (  -0.4957870   0.0954143   0.1554211), wk =   0.3333333
        k(   12) = (  -0.4957870   0.0954143  -0.3108423), wk =   0.1666667

[...]

     The maximum number of steps has been reached.

     End of BFGS Geometry Optimization
Begin final coordinates
     new unit-cell volume =   1384.53336 a.u.^3 (   205.16667 Ang^3 )

CELL_PARAMETERS (alat=  9.92348860)
   1.008497577   0.000000000   0.000000000
  -0.504248789   0.873384521   0.000000000
   0.000000000   0.000000000   1.608532902

ATOMIC_POSITIONS (crystal)
Mg       0.333333000   0.666667000   0.063076268
Mg       0.666667000   0.333333000   0.563076268
Mg       0.666667000   0.333333000   0.936923732
Mg       0.333333000   0.666667000   0.436923732
Zn       0.000000000   0.000000000   0.000000000
Zn       0.000000000   0.000000000   0.500000000
Zn       0.172523775   0.345047551   0.750000000
Zn       0.827476225   0.172523775   0.250000000
Zn       0.345047551   0.172523775   0.250000000
Zn       0.654952449   0.827476225   0.750000000
Zn       0.172523775   0.827476225   0.750000000
Zn       0.827476225   0.654952449   0.250000000
End final coordinates

     A final scf calculation at the relaxed structure.
     The G-vectors are recalculated for the final unit cell
     Results may differ from those at the preceding step.

     bravais-lattice index     =            0
     lattice parameter (alat)  =       9.9235  a.u.
     unit-cell volume          =    1384.5334 (a.u.)^3
     number of atoms/cell      =           12
     number of atomic types    =            2
     number of electrons       =       244.00
     number of Kohn-Sham states=          146
     kinetic-energy cutoff     =      40.0000  Ry
     charge density cutoff     =     160.0000  Ry
     convergence threshold     =      3.0E-05
     mixing beta               =       0.7000
     number of iterations used =            8  plain     mixing
     Exchange-correlation      = SLA-PZ-NOGX-NOGC ( 1 1 0 0 0)
     EXX-fraction              =        0.00

     celldm(1)=   9.923489  celldm(2)=   0.000000  celldm(3)=   0.000000
     celldm(4)=   0.000000  celldm(5)=   0.000000  celldm(6)=   0.000000

     crystal axes: (cart. coord. in units of alat)
               a(1) = (   1.008498   0.000000   0.000000 )
               a(2) = (  -0.504249   0.873385   0.000000 )
               a(3) = (   0.000000   0.000000   1.608533 )

     reciprocal axes: (cart. coord. in units 2 pi/alat)
               b(1) = (  0.991574  0.572486  0.000000 )
               b(2) = (  0.000000  1.144971  0.000000 )
               b(3) = (  0.000000  0.000000  0.621685 )

     PseudoPot. # 1 for Eu read from file:
     /home/cwx6513/pp.La/Eu.UPF
     MD5 check sum: 5efdbbfc50c6a10138933a6429836ad2
     Pseudo is Norm-conserving, Zval = 17.0
     Generated in analytical, separable form
     Using radial grid of 1261 points,  6 beta functions with:
                l(1) =   0
                l(2) =   0
                l(3) =   1
                l(4) =   1
                l(5) =   2
                l(6) =   3

     PseudoPot. # 2 for Er read from file:
     /home/cwx6513/pp.La/Er.UPF
     MD5 check sum: e152ae21b84514339d8526f066caf99b
     Pseudo is Norm-conserving, Zval = 22.0
     Generated in analytical, separable form
     Using radial grid of 1267 points,  6 beta functions with:
                l(1) =   0
                l(2) =   0
                l(3) =   1
                l(4) =   1
                l(5) =   2
                l(6) =   3

     atomic species   valence    mass     pseudopotential
        Mg            17.00    24.30500     Eu( 1.00)
        Zn            22.00    65.39000     Er( 1.00)

     24 Sym. Ops., with inversion, found (12 have fractional translation)

   Cartesian axes

     site n.     atom                  positions (alat units)
         1           Mg  tau(   1) = (  -0.0000005   0.5822566   0.1014603  )
         2           Mg  tau(   2) = (   0.5042493   0.2911279   0.9057267  )
         3           Mg  tau(   3) = (   0.5042493   0.2911279   1.5070727  )
         4           Mg  tau(   4) = (  -0.0000005   0.5822566   0.7028062  )
         5           Zn  tau(   5) = (   0.0000000   0.0000000   0.0000000  )
         6           Zn  tau(   6) = (   0.0000000   0.0000000   0.8042665  )
         7           Zn  tau(   7) = (   0.0000000   0.3013592   1.2063997  )
         8           Zn  tau(   8) = (   0.7475129   0.1506796   0.4021332  )
         9           Zn  tau(   9) = (   0.2609847   0.1506796   0.4021332  )
        10           Zn  tau(  10) = (   0.2432641   0.7227049   1.2063997  )
        11           Zn  tau(  11) = (  -0.2432641   0.7227049   1.2063997  )
        12           Zn  tau(  12) = (   0.5042488   0.5720253   0.4021332  )

     number of k points=    12  gaussian smearing, width (Ry)=  0.1000
                       cart. coord. in units 2pi/alat
        k(    1) = (   0.0000000   0.0000000   0.0000000), wk =   0.0833333
        k(    2) = (   0.0000000   0.0000000   0.1554211), wk =   0.1666667
        k(    3) = (   0.0000000   0.0000000  -0.3108423), wk =   0.0833333
        k(    4) = (   0.0000000   0.3816570   0.0000000), wk =   0.1666667
        k(    5) = (   0.0000000   0.3816570   0.1554211), wk =   0.3333333
        k(    6) = (   0.0000000   0.3816570  -0.3108423), wk =   0.1666667
        k(    7) = (  -0.4957870  -0.2862428   0.0000000), wk =   0.0833333
        k(    8) = (  -0.4957870  -0.2862428   0.1554211), wk =   0.1666667
        k(    9) = (  -0.4957870  -0.2862428  -0.3108423), wk =   0.0833333
        k(   10) = (  -0.4957870   0.0954143   0.0000000), wk =   0.1666667
        k(   11) = (  -0.4957870   0.0954143   0.1554211), wk =   0.3333333
        k(   12) = (  -0.4957870   0.0954143  -0.3108423), wk =   0.1666667

     Largest allocated arrays     est. size (Mb)     dimensions
     Largest temporary arrays     est. size (Mb)     dimensions

     Initial potential from superposition of free atoms

     Starting from uniform charge
     Starting wfc are    0 randomized atomic wfcs

     Writing output data file Prototype-La-hP12-MgZn2.save

     Self-consistent Calculation

[...]

     iteration #  9     ecut=    40.00 Ry     beta=0.70
     CG style diagonalization
     c_bands:  1 eigenvalues not converged
     c_bands:  1 eigenvalues not converged
     c_bands:  1 eigenvalues not converged
     c_bands:  2 eigenvalues not converged
     ethr =  2.79E-06,  avg # of iterations =  4.2

[...]

     total energy              =   -3331.03209124 Ry
     Harris-Foulkes estimate   =   -3331.03214079 Ry
     estimated scf accuracy    <       0.00007594 Ry

     iteration # 11     ecut=    40.00 Ry     beta=0.70
     CG style diagonalization
     ethr =  3.11E-08,  avg # of iterations =  3.8

     End of self-consistent calculation

[...]

          k = 0.0000 0.3817-0.3108 (  5924 PWs)   bands (ev):

[...]

          k =-0.4958 0.0954-0.3108 (  5916 PWs)   bands (ev):

   -70.0472 -70.0472 -70.0061 -70.0060 -69.9959 -69.9959 -69.9790 -69.9790
   -32.6558 -32.6558 -32.4696 -32.4696 -32.2336 -32.2336 -32.1760 -32.1760
   -32.0880 -32.0880 -32.0602 -32.0602 -31.9837 -31.9837 -31.9094 -31.9094
   -31.8421 -31.8421 -31.8156 -31.8156 -31.8059 -31.8059 -31.7891 -31.7891
   -30.0828 -30.0826 -30.0649 -30.0647  -3.1430  -3.1429  -3.1048  -3.1048
    -3.0338  -3.0337  -2.9278  -2.9276  -2.8535  -2.8534  -2.8357  -2.8357
    11.6040  11.6040  12.2949  12.2949  12.5552  12.5552  12.7986  12.7986
    12.8776  12.8776  13.5414  13.5415  13.6985  13.6985  13.9634  13.9634
    14.2421  14.2421  14.3141  14.3141  14.5876  14.5876  14.7497  14.7497
    14.9651  14.9652  15.2824  15.2824  15.3830  15.3830  15.6315  15.6315
    15.6666  15.6666  15.7397  15.7397  15.9712  15.9712  16.6007  16.6007
    18.7401  18.7401  20.7080  20.7081  23.6382  23.6382  24.3366  24.3366
    26.4078  26.4078  27.0293  27.0294  27.4507  27.4508  27.6681  27.6681
    27.9137  27.9138  28.6712  28.6712  29.4504  29.4505  29.8245  29.8246
    30.1856  30.1857  30.3232  30.3233  31.3874  31.3875  32.3506  32.3506
    32.9451  32.9451  33.7470  33.7471  35.0487  35.0487  35.7653  35.7653
    36.1108  36.1108  36.8259  36.8259  37.1282  37.1282  37.7124  37.7125
    38.0170  38.0170  38.4765  38.4766  38.8734  38.8736  39.3168  39.3169
    39.9226  39.9228

     the Fermi energy is    33.3308 ev

!    total energy              =   -3331.03211338 Ry
     Harris-Foulkes estimate   =   -3331.03211468 Ry
     estimated scf accuracy    <       0.00000157 Ry

     The total energy is the sum of the following terms:

     one-electron contribution =    -647.85556130 Ry
     hartree contribution      =     522.92770487 Ry
     xc contribution           =    -300.32871091 Ry
     ewald contribution        =   -2905.43326958 Ry
     smearing contrib. (-TS)   =      -0.34227645 Ry

     convergence has been achieved in  11 iterations

     Forces acting on atoms (Ry/au):

     atom    1 type  1   force =     0.00000000    0.00000000    0.00732201
     atom    2 type  1   force =     0.00000000    0.00000000    0.00732201
     atom    3 type  1   force =     0.00000000    0.00000000   -0.00732201
     atom    4 type  1   force =     0.00000000    0.00000000   -0.00732201
     atom    5 type  2   force =     0.00000000    0.00000000    0.00000000
     atom    6 type  2   force =     0.00000000    0.00000000    0.00000000
     atom    7 type  2   force =     0.00000000    0.05116483    0.00000000
     atom    8 type  2   force =    -0.04431004    0.02558241    0.00000000
     atom    9 type  2   force =     0.04431004    0.02558241    0.00000000
     atom   10 type  2   force =    -0.04431004   -0.02558241    0.00000000
     atom   11 type  2   force =     0.04431004   -0.02558241    0.00000000
     atom   12 type  2   force =     0.00000000   -0.05116483    0.00000000

     Total force =     0.126180     Total SCF correction =     0.000000

     entering subroutine stress ...

          total   stress  (Ry/bohr**3)                   (kbar)     P=  833.60
   0.00573560   0.00000000   0.00000000        843.74      0.00      0.00
   0.00000000   0.00573560   0.00000000          0.00    843.74      0.00
   0.00000000   0.00000000   0.00552878          0.00      0.00    813.31

     Writing output data file Prototype-La-hP12-MgZn2.save

     General routines

     Parallel routines

   This run was terminated on:  21:57:34  22Mar2018

   JOB DONE.