     Program PWSCF v.5.0.2 starts on 22Mar2018 at 21:12: 0

     Current dimensions of program PWSCF are:
     Max number of different atomic species (ntypx) = 10
     Max number of k-points (npk) =  40000
     Max angular momentum in pseudopotentials (lmaxx) =  3
     Waiting for input...
     Reading input from standard input

     Subspace diagonalization in iterative solution of the eigenvalue problem:
     a serial algorithm will be used

     bravais-lattice index     =            0
     lattice parameter (alat)  =       7.0151  a.u.
     unit-cell volume          =     862.2778 (a.u.)^3
     number of atoms/cell      =           12
     number of atomic types    =            2
     number of electrons       =       224.00
     number of Kohn-Sham states=          134
     kinetic-energy cutoff     =      40.0000  Ry
     charge density cutoff     =     160.0000  Ry
     convergence threshold     =      1.0E-04
     mixing beta               =       0.7000
     number of iterations used =            8  plain     mixing
     Exchange-correlation      = SLA-PZ-NOGX-NOGC ( 1 1 0 0 0)
     EXX-fraction              =        0.00
     nstep                     =           50

     celldm(1)=   7.015105  celldm(2)=   0.000000  celldm(3)=   0.000000
     celldm(4)=   0.000000  celldm(5)=   0.000000  celldm(6)=   0.000000

     crystal axes: (cart. coord. in units of alat)
               a(1) = (   1.000000   0.000000   0.000000 )
               a(2) = (   0.000000   1.315963   0.000000 )
               a(3) = (   0.000000   0.000000   1.898020 )

     reciprocal axes: (cart. coord. in units 2 pi/alat)
               b(1) = (  1.000000  0.000000  0.000000 )
               b(2) = (  0.000000  0.759900  0.000000 )
               b(3) = (  0.000000  0.000000  0.526865 )

     PseudoPot. # 1 for Eu read from file:
     /home/cwx6513/pp.La/Eu.UPF
     MD5 check sum: 5efdbbfc50c6a10138933a6429836ad2
     Pseudo is Norm-conserving, Zval = 17.0
     Generated in analytical, separable form
     Using radial grid of 1261 points,  6 beta functions with:
                l(1) =   0
                l(2) =   0
                l(3) =   1
                l(4) =   1
                l(5) =   2
                l(6) =   3

     PseudoPot. # 2 for Er read from file:
     /home/cwx6513/pp.La/Er.UPF
     MD5 check sum: e152ae21b84514339d8526f066caf99b
     Pseudo is Norm-conserving, Zval = 22.0
     Generated in analytical, separable form
     Using radial grid of 1267 points,  6 beta functions with:
                l(1) =   0
                l(2) =   0
                l(3) =   1
                l(4) =   1
                l(5) =   2
                l(6) =   3

     atomic species   valence    mass     pseudopotential
        Co            17.00    58.93320     Eu( 1.00)
        Si            22.00    28.08550     Er( 1.00)

      8 Sym. Ops., with inversion, found ( 6 have fractional translation)

   Cartesian axes

     site n.     atom                  positions (alat units)
         1           Co  tau(   1) = (   0.7500000   1.0875135   0.8270358  )
         2           Co  tau(   2) = (   0.2500000   0.2284499   1.0709846  )
         3           Co  tau(   3) = (   0.7500000   0.4295318   0.1219744  )
         4           Co  tau(   4) = (   0.2500000   0.8864316   1.7760460  )
         5           Co  tau(   5) = (   0.2500000   0.7067855   0.5358966  )
         6           Co  tau(   6) = (   0.7500000   0.6091779   1.3621238  )
         7           Co  tau(   7) = (   0.2500000   0.0488038   0.4131136  )
         8           Co  tau(   8) = (   0.7500000   1.2671596   1.4849068  )
         9           Si  tau(   9) = (   0.2500000   0.2669484   1.6960710  )
        10           Si  tau(  10) = (   0.7500000   1.0490149   0.2019494  )
        11           Si  tau(  11) = (   0.2500000   0.9249301   1.1509596  )
        12           Si  tau(  12) = (   0.7500000   0.3910333   0.7470608  )

     number of k points=    12  gaussian smearing, width (Ry)=  0.1000
                       cart. coord. in units 2pi/alat
        k(    1) = (   0.0000000   0.0000000   0.0000000), wk =   0.0833333
        k(    2) = (   0.0000000   0.0000000   0.1317162), wk =   0.1666667
        k(    3) = (   0.0000000   0.0000000  -0.2634324), wk =   0.0833333
        k(    4) = (   0.0000000   0.2532999   0.0000000), wk =   0.1666667
        k(    5) = (   0.0000000   0.2532999   0.1317162), wk =   0.3333333
        k(    6) = (   0.0000000   0.2532999  -0.2634324), wk =   0.1666667
        k(    7) = (  -0.5000000   0.0000000   0.0000000), wk =   0.0833333
        k(    8) = (  -0.5000000   0.0000000   0.1317162), wk =   0.1666667
        k(    9) = (  -0.5000000   0.0000000  -0.2634324), wk =   0.0833333
        k(   10) = (  -0.5000000   0.2532999   0.0000000), wk =   0.1666667
        k(   11) = (  -0.5000000   0.2532999   0.1317162), wk =   0.3333333
        k(   12) = (  -0.5000000   0.2532999  -0.2634324), wk =   0.1666667

     Largest allocated arrays     est. size (Mb)     dimensions
     Largest temporary arrays     est. size (Mb)     dimensions

     Initial potential from superposition of free atoms

     Starting from uniform charge
     Starting wfc are    0 randomized atomic wfcs

     Self-consistent Calculation

     iteration #  1     ecut=    40.00 Ry     beta=0.70
     CG style diagonalization
     c_bands:  2 eigenvalues not converged
     c_bands:  1 eigenvalues not converged
     c_bands:  1 eigenvalues not converged
     c_bands:  1 eigenvalues not converged
     ethr =  1.00E-02,  avg # of iterations = 12.8

     total energy              =   -1891.26131256 Ry
     Harris-Foulkes estimate   =   -3130.82530580 Ry
     estimated scf accuracy    <    1500.31416731 Ry

[...]

     iteration #  4     ecut=    40.00 Ry     beta=0.70
     CG style diagonalization
     ethr =  1.00E-02,  avg # of iterations =  4.4

[...]

     End of self-consistent calculation

          k = 0.0000 0.0000 0.0000 (  3675 PWs)   bands (ev):

   -52.3143 -52.3058 -52.3013 -52.2855 -15.6797 -15.5797 -15.1814 -15.0007
   -14.9190 -14.9057 -14.8654 -14.8474 -14.8121 -14.7761 -14.6608 -14.5724
   -14.5655 -14.3830 -14.1735 -13.7176 -13.6213 -13.6044 -13.5222 -13.4150
     9.6424  10.1487  10.4390  10.5517  10.6649  10.7635  11.0807  11.1925
    11.5068  11.5492  11.9090  11.9678  12.2309  12.2501  12.4661  12.6056
    12.7708  12.8205  12.9384  13.3314  13.4516  13.7400  14.2745  14.4659
    29.1226  29.2739  29.5440  29.7459  29.8804  29.8840  29.9354  30.0376
    30.3719  30.4042  30.7094  30.7285  31.0131  31.0443  31.5334  31.6934
    31.8291  31.9346  32.0142  32.0185  35.2964  35.5618  38.0828  38.2130
    38.4898  38.7381  39.9541  40.0112  40.4600  40.5866  40.7577  40.8120
    40.9687  41.0541  41.7322  41.8118  42.1670  42.2493  42.2594  42.7358
    43.7889  44.2023  44.3645  44.7660  44.9440  45.0197  45.9438  46.4752
    46.6640  46.9562  47.0067  47.3468  47.6082  47.7297  48.6004  49.2336
    49.2736  49.2769  49.4106  49.6102  49.9143  50.7120  51.4093  51.6592
    52.0399  53.3126  54.4529  54.9359  55.3897  55.5518  55.7026  56.0687
    56.3273  57.0471  57.2164  57.4199  57.9627  57.9665  58.3124  58.3718
    58.3888  58.4388  58.5711  58.7648  58.8081  59.6278

[...]

          k =-0.5000 0.0000 0.0000 (  3722 PWs)   bands (ev):

[...]

     the Fermi energy is    51.8020 ev

!    total energy              =   -2705.14520537 Ry
     Harris-Foulkes estimate   =   -2705.14527841 Ry
     estimated scf accuracy    <       0.00008121 Ry

     The total energy is the sum of the following terms:

     one-electron contribution =     271.79418729 Ry
     hartree contribution      =     215.62494785 Ry
     xc contribution           =    -274.15534485 Ry
     ewald contribution        =   -2918.20798176 Ry
     smearing contrib. (-TS)   =      -0.20101390 Ry

     convergence has been achieved in  10 iterations

     Forces acting on atoms (Ry/au):

     atom    1 type  1   force =     0.00000000   -0.00818249   -0.05441879
     atom    2 type  1   force =     0.00000000    0.00818249    0.05441879
     atom    3 type  1   force =     0.00000000   -0.00818249    0.05441879
     atom    4 type  1   force =     0.00000000    0.00818249   -0.05441879
     atom    5 type  1   force =     0.00000000    0.12950547   -0.27042060
     atom    6 type  1   force =     0.00000000   -0.12950547    0.27042060
     atom    7 type  1   force =     0.00000000    0.12950547    0.27042060
     atom    8 type  1   force =     0.00000000   -0.12950547   -0.27042060
     atom    9 type  2   force =     0.00000000   -0.16627769    0.03522756
     atom   10 type  2   force =     0.00000000    0.16627769   -0.03522756
     atom   11 type  2   force =     0.00000000   -0.16627769   -0.03522756
     atom   12 type  2   force =     0.00000000    0.16627769    0.03522756

     Total force =     0.698045     Total SCF correction =     0.000000

     entering subroutine stress ...

          total   stress  (Ry/bohr**3)                   (kbar)     P= 6996.41
   0.05098444   0.00000000   0.00000000       7500.07      0.00      0.00
   0.00000000   0.04475317   0.00000000          0.00   6583.42      0.00
   0.00000000   0.00000000   0.04694421          0.00      0.00   6905.73

     BFGS Geometry Optimization

     number of scf cycles    =   1
     number of bfgs steps    =   0

     enthalpy new            =   -2705.1452053708 Ry

     new trust radius        =       0.5000000000 bohr
     new conv_thr            =       0.0001000000 Ry

     new unit-cell volume =   1084.44468 a.u.^3 (   160.69812 Ang^3 )

CELL_PARAMETERS (alat=  7.01510508)
   1.085136619   0.000000000   0.000000000
   0.000000000   1.414307043   0.000000000
   0.000000000   0.000000000   2.046806260

ATOMIC_POSITIONS (crystal)
Co       0.750000000   0.826341797   0.435463006
Co       0.250000000   0.173658203   0.564536994
Co       0.750000000   0.326341797   0.064536994
Co       0.250000000   0.673658203   0.935463006
Co       0.250000000   0.538023020   0.280988426
Co       0.750000000   0.461976980   0.719011574
Co       0.250000000   0.038023020   0.219011574
Co       0.750000000   0.961976980   0.780988426
Si       0.250000000   0.201650919   0.893776720
Si       0.750000000   0.798349081   0.106223280
Si       0.250000000   0.701650919   0.606223280
Si       0.750000000   0.298349081   0.393776720

     Writing output data file Prototype-La-oP12-Co2Si.save
     NEW-OLD atomic charge density approx. for the potential
     NEW k-points:
        k(    1) = (   0.0000000   0.0000000   0.0000000), wk =   0.0833333
        k(    2) = (   0.0000000   0.0000000   0.1221415), wk =   0.1666667
        k(    3) = (   0.0000000   0.0000000  -0.2442830), wk =   0.0833333
        k(    4) = (   0.0000000   0.2356867   0.0000000), wk =   0.1666667
        k(    5) = (   0.0000000   0.2356867   0.1221415), wk =   0.3333333
        k(    6) = (   0.0000000   0.2356867  -0.2442830), wk =   0.1666667
        k(    7) = (  -0.4607715   0.0000000   0.0000000), wk =   0.0833333
        k(    8) = (  -0.4607715   0.0000000   0.1221415), wk =   0.1666667
        k(    9) = (  -0.4607715   0.0000000  -0.2442830), wk =   0.0833333
        k(   10) = (  -0.4607715   0.2356867   0.0000000), wk =   0.1666667
        k(   11) = (  -0.4607715   0.2356867   0.1221415), wk =   0.3333333
        k(   12) = (  -0.4607715   0.2356867  -0.2442830), wk =   0.1666667

[...]

     enthalpy old            =   -2705.1452053707 Ry
     enthalpy new            =   -2711.3642981540 Ry

     CASE: enthalpy_new < enthalpy_old

     small trust_radius: resetting bfgs history

     new trust radius        =       2.2954853263 bohr
     new conv_thr            =       0.0001000000 Ry

[...]

          total   stress  (Ry/bohr**3)                   (kbar)     P=-2329.13
  -0.01687992   0.00000000   0.00000000      -2483.12      0.00      0.00
   0.00000000  -0.01497468   0.00000000          0.00  -2202.85      0.00
   0.00000000   0.00000000  -0.01564478          0.00      0.00  -2301.43

     number of scf cycles    =   3
     number of bfgs steps    =   2

     enthalpy old            =   -2711.3642981540 Ry
     enthalpy new            =   -2697.3281595566 Ry

     CASE: enthalpy_new > enthalpy_old

     new trust radius        =       0.6407677684 bohr

     trust_radius < trust_radius_min

     resetting bfgs history

     Message from routine bfgs:
     history already reset at previous step: stopping
     new conv_thr            =       0.0001000000 Ry

     new unit-cell volume =   1291.83073 a.u.^3 (   191.42956 Ang^3 )

[...]

ATOMIC_POSITIONS (crystal)
Co       0.750000000   0.825973640   0.435266688
Co       0.250000000   0.174026360   0.564733312
Co       0.750000000   0.325973640   0.064733312
Co       0.250000000   0.674026360   0.935266688
Co       0.250000000   0.538992723   0.279670569
Co       0.750000000   0.461007277   0.720329431
Co       0.250000000   0.038992723   0.220329431
Co       0.750000000   0.961007277   0.779670569
Si       0.250000000   0.199848433   0.893989324
Si       0.750000000   0.800151567   0.106010676
Si       0.250000000   0.699848433   0.606010676
Si       0.750000000   0.300151567   0.393989324

     Writing output data file Prototype-La-oP12-Co2Si.save
     NEW-OLD atomic charge density approx. for the potential
     NEW k-points:
        k(    1) = (   0.0000000   0.0000000   0.0000000), wk =   0.0833333
        k(    2) = (   0.0000000   0.0000000   0.1153186), wk =   0.1666667
        k(    3) = (   0.0000000   0.0000000  -0.2306372), wk =   0.0833333
        k(    4) = (   0.0000000   0.2236618   0.0000000), wk =   0.1666667
        k(    5) = (   0.0000000   0.2236618   0.1153186), wk =   0.3333333
        k(    6) = (   0.0000000   0.2236618  -0.2306372), wk =   0.1666667
        k(    7) = (  -0.4317124   0.0000000   0.0000000), wk =   0.0833333
        k(    8) = (  -0.4317124   0.0000000   0.1153186), wk =   0.1666667
        k(    9) = (  -0.4317124   0.0000000  -0.2306372), wk =   0.0833333
        k(   10) = (  -0.4317124   0.2236618   0.0000000), wk =   0.1666667
        k(   11) = (  -0.4317124   0.2236618   0.1153186), wk =   0.3333333
        k(   12) = (  -0.4317124   0.2236618  -0.2306372), wk =   0.1666667

[...]

     The maximum number of steps has been reached.

     End of BFGS Geometry Optimization
Begin final coordinates
     new unit-cell volume =   1291.83073 a.u.^3 (   191.42956 Ang^3 )

CELL_PARAMETERS (alat=  7.01510508)
   1.158178544   0.000000000   0.000000000
   0.000000000   1.490345091   0.000000000
   0.000000000   0.000000000   2.167907327

ATOMIC_POSITIONS (crystal)
Co       0.750000000   0.825973640   0.435266688
Co       0.250000000   0.174026360   0.564733312
Co       0.750000000   0.325973640   0.064733312
Co       0.250000000   0.674026360   0.935266688
Co       0.250000000   0.538992723   0.279670569
Co       0.750000000   0.461007277   0.720329431
Co       0.250000000   0.038992723   0.220329431
Co       0.750000000   0.961007277   0.779670569
Si       0.250000000   0.199848433   0.893989324
Si       0.750000000   0.800151567   0.106010676
Si       0.250000000   0.699848433   0.606010676
Si       0.750000000   0.300151567   0.393989324
End final coordinates

     A final scf calculation at the relaxed structure.
     The G-vectors are recalculated for the final unit cell
     Results may differ from those at the preceding step.

     bravais-lattice index     =            0
     lattice parameter (alat)  =       7.0151  a.u.
     unit-cell volume          =    1291.8307 (a.u.)^3
     number of atoms/cell      =           12
     number of atomic types    =            2
     number of electrons       =       224.00
     number of Kohn-Sham states=          134
     kinetic-energy cutoff     =      40.0000  Ry
     charge density cutoff     =     160.0000  Ry
     convergence threshold     =      1.0E-04
     mixing beta               =       0.7000
     number of iterations used =            8  plain     mixing
     Exchange-correlation      = SLA-PZ-NOGX-NOGC ( 1 1 0 0 0)
     EXX-fraction              =        0.00

     celldm(1)=   7.015105  celldm(2)=   0.000000  celldm(3)=   0.000000
     celldm(4)=   0.000000  celldm(5)=   0.000000  celldm(6)=   0.000000

     crystal axes: (cart. coord. in units of alat)
               a(1) = (   1.158179   0.000000   0.000000 )
               a(2) = (   0.000000   1.490345   0.000000 )
               a(3) = (   0.000000   0.000000   2.167907 )

     reciprocal axes: (cart. coord. in units 2 pi/alat)
               b(1) = (  0.863425  0.000000  0.000000 )
               b(2) = (  0.000000  0.670986  0.000000 )
               b(3) = (  0.000000  0.000000  0.461274 )

     PseudoPot. # 1 for Eu read from file:
     /home/cwx6513/pp.La/Eu.UPF
     MD5 check sum: 5efdbbfc50c6a10138933a6429836ad2
     Pseudo is Norm-conserving, Zval = 17.0
     Generated in analytical, separable form
     Using radial grid of 1261 points,  6 beta functions with:
                l(1) =   0
                l(2) =   0
                l(3) =   1
                l(4) =   1
                l(5) =   2
                l(6) =   3

     PseudoPot. # 2 for Er read from file:
     /home/cwx6513/pp.La/Er.UPF
     MD5 check sum: e152ae21b84514339d8526f066caf99b
     Pseudo is Norm-conserving, Zval = 22.0
     Generated in analytical, separable form
     Using radial grid of 1267 points,  6 beta functions with:
                l(1) =   0
                l(2) =   0
                l(3) =   1
                l(4) =   1
                l(5) =   2
                l(6) =   3

     atomic species   valence    mass     pseudopotential
        Co            17.00    58.93320     Eu( 1.00)
        Si            22.00    28.08550     Er( 1.00)

      8 Sym. Ops., with inversion, found ( 6 have fractional translation)

   Cartesian axes

     site n.     atom                  positions (alat units)
         1           Co  tau(   1) = (   0.8686339   1.2309858   0.9436178  )
         2           Co  tau(   2) = (   0.2895446   0.2593593   1.2242895  )
         3           Co  tau(   3) = (   0.8686339   0.4858132   0.1403358  )
         4           Co  tau(   4) = (   0.2895446   1.0045319   2.0275715  )
         5           Co  tau(   5) = (   0.2895446   0.8032852   0.6062999  )
         6           Co  tau(   6) = (   0.8686339   0.6870599   1.5616075  )
         7           Co  tau(   7) = (   0.2895446   0.0581126   0.4776538  )
         8           Co  tau(   8) = (   0.8686339   1.4322325   1.6902535  )
         9           Si  tau(   9) = (   0.2895446   0.2978431   1.9380860  )
        10           Si  tau(  10) = (   0.8686339   1.1925020   0.2298213  )
        11           Si  tau(  11) = (   0.2895446   1.0430157   1.3137750  )
        12           Si  tau(  12) = (   0.8686339   0.4473294   0.8541323  )

     number of k points=    12  gaussian smearing, width (Ry)=  0.1000
                       cart. coord. in units 2pi/alat
        k(    1) = (   0.0000000   0.0000000   0.0000000), wk =   0.0833333
        k(    2) = (   0.0000000   0.0000000   0.1153186), wk =   0.1666667
        k(    3) = (   0.0000000   0.0000000  -0.2306372), wk =   0.0833333
        k(    4) = (   0.0000000   0.2236618   0.0000000), wk =   0.1666667
        k(    5) = (   0.0000000   0.2236618   0.1153186), wk =   0.3333333
        k(    6) = (   0.0000000   0.2236618  -0.2306372), wk =   0.1666667
        k(    7) = (  -0.4317124   0.0000000   0.0000000), wk =   0.0833333
        k(    8) = (  -0.4317124   0.0000000   0.1153186), wk =   0.1666667
        k(    9) = (  -0.4317124   0.0000000  -0.2306372), wk =   0.0833333
        k(   10) = (  -0.4317124   0.2236618   0.0000000), wk =   0.1666667
        k(   11) = (  -0.4317124   0.2236618   0.1153186), wk =   0.3333333
        k(   12) = (  -0.4317124   0.2236618  -0.2306372), wk =   0.1666667

     Largest allocated arrays     est. size (Mb)     dimensions
     Largest temporary arrays     est. size (Mb)     dimensions

     Initial potential from superposition of free atoms

     Starting from uniform charge
     Starting wfc are    0 randomized atomic wfcs

     Writing output data file Prototype-La-oP12-Co2Si.save

     Self-consistent Calculation

[...]

     iteration #  9     ecut=    40.00 Ry     beta=0.70
     CG style diagonalization
     c_bands:  1 eigenvalues not converged
     c_bands:  2 eigenvalues not converged
     c_bands:  2 eigenvalues not converged
     c_bands:  2 eigenvalues not converged
     ethr =  4.36E-06,  avg # of iterations =  4.9

[...]

     total energy              =   -2716.80219015 Ry
     Harris-Foulkes estimate   =   -2716.80230077 Ry
     estimated scf accuracy    <       0.00022240 Ry

     iteration # 11     ecut=    40.00 Ry     beta=0.70
     CG style diagonalization
     ethr =  9.93E-08,  avg # of iterations =  3.7

     End of self-consistent calculation

[...]

          k = 0.0000 0.2237-0.2306 (  5504 PWs)   bands (ev):

[...]

          k =-0.4317 0.2237-0.2306 (  5528 PWs)   bands (ev):

   -68.7334 -68.7334 -68.7329 -68.7329 -31.0084 -31.0084 -30.9773 -30.9773
   -30.7981 -30.7981 -30.7910 -30.7910 -30.7435 -30.7435 -30.7383 -30.7383
   -30.5872 -30.5872 -30.5729 -30.5729 -30.4737 -30.4737 -30.4575 -30.4575
    -4.2397  -4.2397  -4.0879  -4.0879  -4.0547  -4.0547  -3.9880  -3.9880
    -3.9171  -3.9171  -3.6600  -3.6600  -3.5372  -3.5372  -3.3823  -3.3823
    -3.3324  -3.3324  -3.3032  -3.3032  -3.2003  -3.2003  -3.1060  -3.1060
    15.5152  15.5152  15.5281  15.5281  15.5626  15.5626  15.6694  15.6694
    15.7178  15.7178  15.7245  15.7245  15.7977  15.7977  15.8222  15.8222
    16.0428  16.0428  16.1220  16.1220  22.2767  22.2767  22.5692  22.5692
    24.7877  24.7877  25.3268  25.3268  25.7364  25.7364  26.2256  26.2256
    26.2936  26.2936  26.8348  26.8348  26.8408  26.8408  27.1113  27.1113
    27.2991  27.2991  27.7622  27.7622  28.1658  28.1658  28.8095  28.8095
    28.9712  28.9712  29.2108  29.2108  29.8348  29.8348  30.4034  30.4034
    30.4313  30.4313  30.7579  30.7579  31.0985  31.0985  31.6702  31.6702
    33.0863  33.0863  33.6273  33.6273  34.7664  34.7664  37.2744  37.2744
    38.2590  38.2590  38.2706  38.2706  39.5247  39.5248  39.6922  39.6922
    40.2900  40.2902  40.4556  40.4557  41.0257  41.0258

     the Fermi energy is    32.7243 ev

!    total energy              =   -2716.80225842 Ry
     Harris-Foulkes estimate   =   -2716.80226740 Ry
     estimated scf accuracy    <       0.00001021 Ry

     The total energy is the sum of the following terms:

     one-electron contribution =    -231.17223383 Ry
     hartree contribution      =     328.51434922 Ry
     xc contribution           =    -262.09395991 Ry
     ewald contribution        =   -2551.69682318 Ry
     smearing contrib. (-TS)   =      -0.35359071 Ry

     convergence has been achieved in  11 iterations

     Forces acting on atoms (Ry/au):

     atom    1 type  1   force =     0.00000000   -0.01298452    0.00123668
     atom    2 type  1   force =     0.00000000    0.01298452   -0.00123668
     atom    3 type  1   force =     0.00000000   -0.01298452   -0.00123668
     atom    4 type  1   force =     0.00000000    0.01298452    0.00123668
     atom    5 type  1   force =     0.00000000    0.03131397   -0.07135643
     atom    6 type  1   force =     0.00000000   -0.03131397    0.07135643
     atom    7 type  1   force =     0.00000000    0.03131397    0.07135643
     atom    8 type  1   force =     0.00000000   -0.03131397   -0.07135643
     atom    9 type  2   force =     0.00000000   -0.06067976    0.01659922
     atom   10 type  2   force =     0.00000000    0.06067976   -0.01659922
     atom   11 type  2   force =     0.00000000   -0.06067976   -0.01659922
     atom   12 type  2   force =     0.00000000    0.06067976    0.01659922

     Total force =     0.201990     Total SCF correction =     0.000000

     entering subroutine stress ...

          total   stress  (Ry/bohr**3)                   (kbar)     P=  754.72
   0.00550404   0.00000000   0.00000000        809.67      0.00      0.00
   0.00000000   0.00481413   0.00000000          0.00    708.18      0.00
   0.00000000   0.00000000   0.00507333          0.00      0.00    746.31

     Writing output data file Prototype-La-oP12-Co2Si.save

     General routines

     Parallel routines

   This run was terminated on:  21:36:37  22Mar2018

   JOB DONE.