     Program PWSCF v.5.0.2 starts on 23Mar2018 at 10:11:36

     Current dimensions of program PWSCF are:
     Max number of different atomic species (ntypx) = 10
     Max number of k-points (npk) =  40000
     Max angular momentum in pseudopotentials (lmaxx) =  3
     Waiting for input...
     Reading input from standard input

     bravais-lattice index     =            0
     lattice parameter (alat)  =       6.3076  a.u.
     unit-cell volume          =     177.4528 (a.u.)^3
     number of atoms/cell      =            1
     number of atomic types    =            1
     number of electrons       =        12.00
     number of Kohn-Sham states=           10
     kinetic-energy cutoff     =      60.0000  Ry
     charge density cutoff     =     240.0000  Ry
     convergence threshold     =      1.0E-06
     mixing beta               =       0.7000
     number of iterations used =            8  plain     mixing
     Exchange-correlation      = SLA-PZ-NOGX-NOGC ( 1 1 0 0 0)
     EXX-fraction              =        0.00
     nstep                     =           50

     celldm(1)=   6.307626  celldm(2)=   0.000000  celldm(3)=   0.000000
     celldm(4)=   0.000000  celldm(5)=   0.000000  celldm(6)=   0.000000

     crystal axes: (cart. coord. in units of alat)
               a(1) = (   1.000000   0.000000   0.000000 )
               a(2) = (   0.500000   0.866025   0.000000 )
               a(3) = (   0.500000   0.288675   0.816497 )

     reciprocal axes: (cart. coord. in units 2 pi/alat)
               b(1) = (  1.000000 -0.577350 -0.408248 )
               b(2) = (  0.000000  1.154701 -0.408248 )
               b(3) = (  0.000000  0.000000  1.224745 )

     PseudoPot. # 1 for Ce read from file:
     /home/cwx6513/pp.La/Ce.UPF
     MD5 check sum: 44451aa79a44a00cf2bc029dc19922f6
     Pseudo is Norm-conserving, Zval = 12.0
     Generated in analytical, separable form
     Using radial grid of 1255 points,  6 beta functions with:
                l(1) =   0
                l(2) =   0
                l(3) =   1
                l(4) =   1
                l(5) =   2
                l(6) =   3

     atomic species   valence    mass     pseudopotential
        Ce            12.00   140.11600     Ce( 1.00)

     12 Sym. Ops., with inversion, found

   Cartesian axes

     site n.     atom                  positions (alat units)
         1           Ce  tau(   1) = (   0.0000000   0.0000000   0.0000000  )

     number of k points=   859  gaussian smearing, width (Ry)=  0.1000

     Number of k-points >= 100: set verbosity='high' to print them.

     Largest allocated arrays     est. size (Mb)     dimensions
     Largest temporary arrays     est. size (Mb)     dimensions

     Initial potential from superposition of free atoms

     Starting from uniform charge
     Starting wfc are    0 randomized atomic wfcs

     Self-consistent Calculation

     iteration #  1     ecut=    60.00 Ry     beta=0.70
     CG style diagonalization
     c_bands:  1 eigenvalues not converged
     c_bands:  1 eigenvalues not converged
     c_bands:  1 eigenvalues not converged
     c_bands:  1 eigenvalues not converged
     c_bands:  1 eigenvalues not converged
     c_bands:  2 eigenvalues not converged
     c_bands:  1 eigenvalues not converged
     c_bands:  1 eigenvalues not converged
     c_bands:  2 eigenvalues not converged
     c_bands:  1 eigenvalues not converged
     c_bands:  1 eigenvalues not converged
     c_bands:  1 eigenvalues not converged
     c_bands:  1 eigenvalues not converged
     c_bands:  1 eigenvalues not converged
     c_bands:  1 eigenvalues not converged
     c_bands:  1 eigenvalues not converged
     c_bands:  1 eigenvalues not converged
     c_bands:  1 eigenvalues not converged
     c_bands:  2 eigenvalues not converged
     c_bands:  1 eigenvalues not converged
     c_bands:  1 eigenvalues not converged
     c_bands:  1 eigenvalues not converged
     c_bands:  1 eigenvalues not converged
     c_bands:  1 eigenvalues not converged
     c_bands:  1 eigenvalues not converged
     c_bands:  1 eigenvalues not converged
     ethr =  1.00E-02,  avg # of iterations =  8.7

     total energy              =     -70.50431852 Ry
     Harris-Foulkes estimate   =     -86.17869226 Ry
     estimated scf accuracy    <      21.93410942 Ry

     iteration #  2     ecut=    60.00 Ry     beta=0.70
     CG style diagonalization
     ethr =  1.00E-02,  avg # of iterations =  6.8

[...]

     negative rho (up, down):  0.125E-03 0.000E+00

[...]

     End of self-consistent calculation

     Number of k-points >= 100: set verbosity='high' to print the bands.

     the Fermi energy is    16.8452 ev

!    total energy              =     -77.26637724 Ry
     Harris-Foulkes estimate   =     -77.26637783 Ry
     estimated scf accuracy    <       0.00000081 Ry

     The total energy is the sum of the following terms:

     one-electron contribution =       0.36901679 Ry
     hartree contribution      =       6.56144511 Ry
     xc contribution           =     -10.10010457 Ry
     ewald contribution        =     -74.01296973 Ry
     smearing contrib. (-TS)   =      -0.08376484 Ry

     convergence has been achieved in   8 iterations

     Forces acting on atoms (Ry/au):

     atom    1 type  1   force =     0.00000000    0.00000000    0.00000000

     Total force =     0.000000     Total SCF correction =     0.000000

     entering subroutine stress ...

          total   stress  (Ry/bohr**3)                   (kbar)     P=   62.11
   0.00042221   0.00000000   0.00000000         62.11      0.00      0.00
   0.00000000   0.00042221   0.00000000          0.00     62.11      0.00
   0.00000000   0.00000000   0.00042220          0.00      0.00     62.11

     BFGS Geometry Optimization

     number of scf cycles    =   1
     number of bfgs steps    =   0

     enthalpy new            =     -77.2663772372 Ry

     new trust radius        =       0.0281216589 bohr
     new conv_thr            =       0.0000010000 Ry

     new unit-cell volume =    183.13147 a.u.^3 (    27.13728 Ang^3 )

CELL_PARAMETERS (alat=  6.30762607)
   1.010555275   0.000000000   0.000000000
   0.505277637   0.875166540   0.000000000
   0.505277637   0.291722180   0.825114801

ATOMIC_POSITIONS (crystal)
Ce       0.000000000   0.000000000   0.000000000

     Writing output data file Element-Ce.q.save
     NEW-OLD atomic charge density approx. for the potential
     NEW k-points: (use verbosity='high' to print them)

[...]

     enthalpy old            =     -77.2663772372 Ry
     enthalpy new            =     -77.2683009592 Ry

     CASE: enthalpy_new < enthalpy_old

[...]

     small trust_radius: resetting bfgs history

[...]

     Threshold (ethr) on eigenvalues was too large:
     Diagonalizing with lowered threshold

     CG style diagonalization
     ethr =  3.91E-08,  avg # of iterations =  3.5

[...]

     number of scf cycles    =   5
     number of bfgs steps    =   4

     enthalpy old            =     -77.2700824828 Ry
     enthalpy new            =     -77.2700837508 Ry

     CASE: enthalpy_new < enthalpy_old

     Message from routine bfgs:
     history already reset at previous step: stopping
     small trust_radius: resetting bfgs history

     new trust radius        =       0.0005174711 bohr
     new conv_thr            =       0.0000000100 Ry

     new unit-cell volume =    196.19726 a.u.^3 (    29.07343 Ang^3 )

[...]

ATOMIC_POSITIONS (crystal)
Ce       0.000000000   0.000000000   0.000000000

     Writing output data file Element-Ce.q.save
     NEW-OLD atomic charge density approx. for the potential
     NEW k-points: (use verbosity='high' to print them)

[...]

     Threshold (ethr) on eigenvalues was too large:
     Diagonalizing with lowered threshold

     CG style diagonalization
     ethr =  2.43E-08,  avg # of iterations =  3.5

[...]

     The maximum number of steps has been reached.

     End of BFGS Geometry Optimization
Begin final coordinates
     new unit-cell volume =    196.19726 a.u.^3 (    29.07343 Ang^3 )

CELL_PARAMETERS (alat=  6.30762607)
   1.034038726   0.000000000   0.000000000
   0.517019363   0.895503806   0.000000000
   0.517019363   0.298501269   0.844288508

ATOMIC_POSITIONS (crystal)
Ce       0.000000000   0.000000000   0.000000000
End final coordinates

     A final scf calculation at the relaxed structure.
     The G-vectors are recalculated for the final unit cell
     Results may differ from those at the preceding step.

     bravais-lattice index     =            0
     lattice parameter (alat)  =       6.3076  a.u.
     unit-cell volume          =     196.1973 (a.u.)^3
     number of atoms/cell      =            1
     number of atomic types    =            1
     number of electrons       =        12.00
     number of Kohn-Sham states=           10
     kinetic-energy cutoff     =      60.0000  Ry
     charge density cutoff     =     240.0000  Ry
     convergence threshold     =      1.0E-08
     mixing beta               =       0.7000
     number of iterations used =            8  plain     mixing
     Exchange-correlation      = SLA-PZ-NOGX-NOGC ( 1 1 0 0 0)
     EXX-fraction              =        0.00

     celldm(1)=   6.307626  celldm(2)=   0.000000  celldm(3)=   0.000000
     celldm(4)=   0.000000  celldm(5)=   0.000000  celldm(6)=   0.000000

     crystal axes: (cart. coord. in units of alat)
               a(1) = (   1.034039   0.000000   0.000000 )
               a(2) = (   0.517019   0.895504   0.000000 )
               a(3) = (   0.517019   0.298501   0.844289 )

     reciprocal axes: (cart. coord. in units 2 pi/alat)
               b(1) = (  0.967082 -0.558345 -0.394810 )
               b(2) = (  0.000000  1.116690 -0.394810 )
               b(3) = (  0.000000  0.000000  1.184429 )

     PseudoPot. # 1 for Ce read from file:
     /home/cwx6513/pp.La/Ce.UPF
     MD5 check sum: 44451aa79a44a00cf2bc029dc19922f6
     Pseudo is Norm-conserving, Zval = 12.0
     Generated in analytical, separable form
     Using radial grid of 1255 points,  6 beta functions with:
                l(1) =   0
                l(2) =   0
                l(3) =   1
                l(4) =   1
                l(5) =   2
                l(6) =   3

     atomic species   valence    mass     pseudopotential
        Ce            12.00   140.11600     Ce( 1.00)

     12 Sym. Ops., with inversion, found

   Cartesian axes

     site n.     atom                  positions (alat units)
         1           Ce  tau(   1) = (   0.0000000   0.0000000   0.0000000  )

     number of k points=   859  gaussian smearing, width (Ry)=  0.1000

     Number of k-points >= 100: set verbosity='high' to print them.

     Largest allocated arrays     est. size (Mb)     dimensions
     Largest temporary arrays     est. size (Mb)     dimensions

     Initial potential from superposition of free atoms

     Starting from uniform charge
     Starting wfc are    0 randomized atomic wfcs

     Writing output data file Element-Ce.q.save

     Self-consistent Calculation

[...]

     negative rho (up, down):  0.651E-01 0.000E+00

[...]

     iteration #  9     ecut=    60.00 Ry     beta=0.70
     CG style diagonalization
     c_bands:  1 eigenvalues not converged
     ethr =  7.29E-08,  avg # of iterations =  5.7

[...]

     total energy              =     -77.27227823 Ry
     Harris-Foulkes estimate   =     -77.27227852 Ry
     estimated scf accuracy    <       0.00000057 Ry

     iteration # 11     ecut=    60.00 Ry     beta=0.70
     CG style diagonalization
     ethr =  3.58E-09,  avg # of iterations =  3.7

     End of self-consistent calculation

     Number of k-points >= 100: set verbosity='high' to print the bands.

     the Fermi energy is    15.0070 ev

!    total energy              =     -77.27227833 Ry
     Harris-Foulkes estimate   =     -77.27227833 Ry
     estimated scf accuracy    <          7.0E-10 Ry

     The total energy is the sum of the following terms:

     one-electron contribution =      -2.95148362 Ry
     hartree contribution      =       7.34541248 Ry
     xc contribution           =      -9.99626997 Ry
     ewald contribution        =     -71.57660994 Ry
     smearing contrib. (-TS)   =      -0.09332729 Ry

     convergence has been achieved in  11 iterations

     Forces acting on atoms (Ry/au):

     atom    1 type  1   force =     0.00000000    0.00000000    0.00000000

     Total force =     0.000000     Total SCF correction =     0.000000

     entering subroutine stress ...

          total   stress  (Ry/bohr**3)                   (kbar)     P=   -7.22
  -0.00004906   0.00000000   0.00000000         -7.22      0.00      0.00
   0.00000000  -0.00004906   0.00000000          0.00     -7.22      0.00
   0.00000000   0.00000000  -0.00004912          0.00      0.00     -7.23

     Writing output data file Element-Ce.q.save

     General routines

     Parallel routines

   This run was terminated on:  10:21:11  23Mar2018

   JOB DONE.