     Program PWSCF v.5.0.2 starts on 22Mar2018 at 22:48:54

     Current dimensions of program PWSCF are:
     Max number of different atomic species (ntypx) = 10
     Max number of k-points (npk) =  40000
     Max angular momentum in pseudopotentials (lmaxx) =  3
     Waiting for input...
     Reading input from standard input

     Subspace diagonalization in iterative solution of the eigenvalue problem:
     a serial algorithm will be used

     bravais-lattice index     =            0
     lattice parameter (alat)  =       7.0151  a.u.
     unit-cell volume          =     862.2778 (a.u.)^3
     number of atoms/cell      =           12
     number of atomic types    =            2
     number of electrons       =       200.00
     number of Kohn-Sham states=          120
     kinetic-energy cutoff     =      40.0000  Ry
     charge density cutoff     =     160.0000  Ry
     convergence threshold     =      1.0E-04
     mixing beta               =       0.7000
     number of iterations used =            8  plain     mixing
     Exchange-correlation      = SLA-PZ-NOGX-NOGC ( 1 1 0 0 0)
     EXX-fraction              =        0.00
     nstep                     =           50

     celldm(1)=   7.015105  celldm(2)=   0.000000  celldm(3)=   0.000000
     celldm(4)=   0.000000  celldm(5)=   0.000000  celldm(6)=   0.000000

     crystal axes: (cart. coord. in units of alat)
               a(1) = (   1.000000   0.000000   0.000000 )
               a(2) = (   0.000000   1.315963   0.000000 )
               a(3) = (   0.000000   0.000000   1.898020 )

     reciprocal axes: (cart. coord. in units 2 pi/alat)
               b(1) = (  1.000000  0.000000  0.000000 )
               b(2) = (  0.000000  0.759900  0.000000 )
               b(3) = (  0.000000  0.000000  0.526865 )

     PseudoPot. # 1 for Gd read from file:
     /home/cwx6513/pp.La/Gd.UPF
     MD5 check sum: 09a8be538722f05520810cb6aac0efd2
     Pseudo is Norm-conserving, Zval = 18.0
     Generated in analytical, separable form
     Using radial grid of 1263 points,  6 beta functions with:
                l(1) =   0
                l(2) =   0
                l(3) =   1
                l(4) =   1
                l(5) =   2
                l(6) =   3

     PseudoPot. # 2 for Nd read from file:
     /home/cwx6513/pp.La/Nd.UPF
     MD5 check sum: c66c5b6abe7b5840ced9b1e244e3bed6
     Pseudo is Norm-conserving, Zval = 14.0
     Generated in analytical, separable form
     Using radial grid of 1257 points,  6 beta functions with:
                l(1) =   0
                l(2) =   0
                l(3) =   1
                l(4) =   1
                l(5) =   2
                l(6) =   3

     atomic species   valence    mass     pseudopotential
        Co            18.00    58.93320     Gd( 1.00)
        Si            14.00    28.08550     Nd( 1.00)

      8 Sym. Ops., with inversion, found ( 6 have fractional translation)

   Cartesian axes

     site n.     atom                  positions (alat units)
         1           Co  tau(   1) = (   0.7500000   1.0875135   0.8270358  )
         2           Co  tau(   2) = (   0.2500000   0.2284499   1.0709846  )
         3           Co  tau(   3) = (   0.7500000   0.4295318   0.1219744  )
         4           Co  tau(   4) = (   0.2500000   0.8864316   1.7760460  )
         5           Co  tau(   5) = (   0.2500000   0.7067855   0.5358966  )
         6           Co  tau(   6) = (   0.7500000   0.6091779   1.3621238  )
         7           Co  tau(   7) = (   0.2500000   0.0488038   0.4131136  )
         8           Co  tau(   8) = (   0.7500000   1.2671596   1.4849068  )
         9           Si  tau(   9) = (   0.2500000   0.2669484   1.6960710  )
        10           Si  tau(  10) = (   0.7500000   1.0490149   0.2019494  )
        11           Si  tau(  11) = (   0.2500000   0.9249301   1.1509596  )
        12           Si  tau(  12) = (   0.7500000   0.3910333   0.7470608  )

     number of k points=    12  gaussian smearing, width (Ry)=  0.1000
                       cart. coord. in units 2pi/alat
        k(    1) = (   0.0000000   0.0000000   0.0000000), wk =   0.0833333
        k(    2) = (   0.0000000   0.0000000   0.1317162), wk =   0.1666667
        k(    3) = (   0.0000000   0.0000000  -0.2634324), wk =   0.0833333
        k(    4) = (   0.0000000   0.2532999   0.0000000), wk =   0.1666667
        k(    5) = (   0.0000000   0.2532999   0.1317162), wk =   0.3333333
        k(    6) = (   0.0000000   0.2532999  -0.2634324), wk =   0.1666667
        k(    7) = (  -0.5000000   0.0000000   0.0000000), wk =   0.0833333
        k(    8) = (  -0.5000000   0.0000000   0.1317162), wk =   0.1666667
        k(    9) = (  -0.5000000   0.0000000  -0.2634324), wk =   0.0833333
        k(   10) = (  -0.5000000   0.2532999   0.0000000), wk =   0.1666667
        k(   11) = (  -0.5000000   0.2532999   0.1317162), wk =   0.3333333
        k(   12) = (  -0.5000000   0.2532999  -0.2634324), wk =   0.1666667

     Largest allocated arrays     est. size (Mb)     dimensions
     Largest temporary arrays     est. size (Mb)     dimensions

     Initial potential from superposition of free atoms

     Starting from uniform charge
     Starting wfc are    0 randomized atomic wfcs

     Self-consistent Calculation

     iteration #  1     ecut=    40.00 Ry     beta=0.70
     CG style diagonalization
     c_bands:  2 eigenvalues not converged
     c_bands:  2 eigenvalues not converged
     c_bands:  2 eigenvalues not converged
     c_bands:  3 eigenvalues not converged
     c_bands:  5 eigenvalues not converged
     c_bands:  1 eigenvalues not converged
     c_bands:  4 eigenvalues not converged
     c_bands:  5 eigenvalues not converged
     c_bands:  3 eigenvalues not converged
     c_bands:  2 eigenvalues not converged
     ethr =  1.00E-02,  avg # of iterations = 12.8

     total energy              =   -1890.72129980 Ry
     Harris-Foulkes estimate   =   -2218.95510403 Ry
     estimated scf accuracy    <     429.42785144 Ry

     iteration #  2     ecut=    40.00 Ry     beta=0.70
     CG style diagonalization
     ethr =  1.00E-02,  avg # of iterations =  9.8

[...]

     End of self-consistent calculation

          k = 0.0000 0.0000 0.0000 (  3675 PWs)   bands (ev):

   -23.8750 -23.4728 -23.4620 -23.2633 -23.1655 -22.9879 -22.9439 -22.9183
    -1.9547  -1.8693  -1.5918  -1.2035   3.2512   3.6931   3.7747   3.8336
     4.1974   4.2766   4.3113   4.4233   4.5289   5.0577   5.0874   5.2277
     5.2672   5.2881   5.2950   5.5580   5.6680   5.6990   5.8412   5.8881
     6.1362   6.1599   6.6670   6.8562  18.7916  19.2267  19.2339  19.2823
    19.5679  19.8436  19.9205  19.9731  20.0383  20.1906  20.5916  20.7362
    33.0716  33.0958  33.2446  33.8935  33.9327  34.0924  34.3134  34.7909
    34.9590  36.0552  36.1735  36.6275  36.9322  37.3083  37.6908  37.8486
    38.3021  38.3815  38.5916  39.1385  39.3229  39.5319  39.8948  40.1989
    40.6733  40.6968  41.0709  41.0915  41.1885  41.9259  42.1561  42.2596
    42.8669  43.0951  43.2045  43.2294  43.5839  43.5964  44.7137  44.7954
    45.4961  45.9236  46.3447  46.5035  46.6701  47.2957  47.5075  47.8010
    48.1754  48.5311  48.5360  49.6632  50.0454  50.7102  50.7129  50.9729
    51.4150  51.6437  52.2274  52.2617  52.6974  52.9904  53.5093  53.9652
    54.9429  55.1737  55.6097  55.6734  55.9317  56.3894  56.5631  56.7372

[...]

          k =-0.5000 0.0000 0.0000 (  3722 PWs)   bands (ev):

[...]

     the Fermi energy is    49.1131 ev

!    total energy              =   -2040.43203439 Ry
     Harris-Foulkes estimate   =   -2040.43209961 Ry
     estimated scf accuracy    <       0.00007174 Ry

     The total energy is the sum of the following terms:

     one-electron contribution =     398.58751994 Ry
     hartree contribution      =     119.06961102 Ry
     xc contribution           =    -228.95484681 Ry
     ewald contribution        =   -2328.76300881 Ry
     smearing contrib. (-TS)   =      -0.37130972 Ry

     convergence has been achieved in  10 iterations

     Forces acting on atoms (Ry/au):

     atom    1 type  1   force =     0.00000000   -0.07871510   -0.13163043
     atom    2 type  1   force =     0.00000000    0.07871510    0.13163043
     atom    3 type  1   force =     0.00000000   -0.07871510    0.13163043
     atom    4 type  1   force =     0.00000000    0.07871510   -0.13163043
     atom    5 type  1   force =     0.00000000    0.16812410   -0.24768325
     atom    6 type  1   force =     0.00000000   -0.16812410    0.24768325
     atom    7 type  1   force =     0.00000000    0.16812410    0.24768325
     atom    8 type  1   force =     0.00000000   -0.16812410   -0.24768325
     atom    9 type  2   force =     0.00000000   -0.18656612   -0.06340556
     atom   10 type  2   force =     0.00000000    0.18656612    0.06340556
     atom   11 type  2   force =     0.00000000   -0.18656612    0.06340556
     atom   12 type  2   force =     0.00000000    0.18656612   -0.06340556

     Total force =     0.779647     Total SCF correction =     0.000000

     entering subroutine stress ...

          total   stress  (Ry/bohr**3)                   (kbar)     P= 6725.58
   0.04762199   0.00000000   0.00000000       7005.44      0.00      0.00
   0.00000000   0.04313391   0.00000000          0.00   6345.22      0.00
   0.00000000   0.00000000   0.04640277          0.00      0.00   6826.08

     BFGS Geometry Optimization

     number of scf cycles    =   1
     number of bfgs steps    =   0

     enthalpy new            =   -2040.4320343860 Ry

     new trust radius        =       0.5000000000 bohr
     new conv_thr            =       0.0001000000 Ry

     new unit-cell volume =   1091.45066 a.u.^3 (   161.73630 Ang^3 )

CELL_PARAMETERS (alat=  7.01510508)
   1.085136619   0.000000000   0.000000000
   0.000000000   1.417441287   0.000000000
   0.000000000   0.000000000   2.055474376

ATOMIC_POSITIONS (crystal)
Co       0.750000000   0.825791254   0.435029048
Co       0.250000000   0.174208746   0.564970952
Co       0.750000000   0.325791254   0.064970952
Co       0.250000000   0.674208746   0.935029048
Co       0.250000000   0.538388329   0.281014759
Co       0.750000000   0.461611671   0.718985241
Co       0.250000000   0.038388329   0.218985241
Co       0.750000000   0.961611671   0.781014759
Si       0.250000000   0.201408814   0.893259465
Si       0.750000000   0.798591186   0.106740535
Si       0.250000000   0.701408814   0.606740535
Si       0.750000000   0.298591186   0.393259465

     Writing output data file Prototype-La-oP12-Co2Si.save
     NEW-OLD atomic charge density approx. for the potential
     NEW k-points:
        k(    1) = (   0.0000000   0.0000000   0.0000000), wk =   0.0833333
        k(    2) = (   0.0000000   0.0000000   0.1216264), wk =   0.1666667
        k(    3) = (   0.0000000   0.0000000  -0.2432529), wk =   0.0833333
        k(    4) = (   0.0000000   0.2351655   0.0000000), wk =   0.1666667
        k(    5) = (   0.0000000   0.2351655   0.1216264), wk =   0.3333333
        k(    6) = (   0.0000000   0.2351655  -0.2432529), wk =   0.1666667
        k(    7) = (  -0.4607715   0.0000000   0.0000000), wk =   0.0833333
        k(    8) = (  -0.4607715   0.0000000   0.1216264), wk =   0.1666667
        k(    9) = (  -0.4607715   0.0000000  -0.2432529), wk =   0.0833333
        k(   10) = (  -0.4607715   0.2351655   0.0000000), wk =   0.1666667
        k(   11) = (  -0.4607715   0.2351655   0.1216264), wk =   0.3333333
        k(   12) = (  -0.4607715   0.2351655  -0.2432529), wk =   0.1666667

[...]

     enthalpy old            =   -2040.4320343860 Ry
     enthalpy new            =   -2046.8885763201 Ry

     CASE: enthalpy_new < enthalpy_old

     small trust_radius: resetting bfgs history

     new trust radius        =       2.5257544633 bohr
     new conv_thr            =       0.0001000000 Ry

[...]

          total   stress  (Ry/bohr**3)                   (kbar)     P=-1376.30
  -0.00962715   0.00000000   0.00000000      -1416.20      0.00      0.00
   0.00000000  -0.00897671   0.00000000          0.00  -1320.52      0.00
   0.00000000   0.00000000  -0.00946392          0.00      0.00  -1392.19

     number of scf cycles    =   3
     number of bfgs steps    =   2

     enthalpy old            =   -2046.8885763201 Ry
     enthalpy new            =   -2037.1333379384 Ry

     CASE: enthalpy_new > enthalpy_old

     new trust radius        =       0.9432293491 bohr

     trust_radius < trust_radius_min

     resetting bfgs history

     Message from routine bfgs:
     history already reset at previous step: stopping
     new conv_thr            =       0.0001000000 Ry

     new unit-cell volume =   1305.41085 a.u.^3 (   193.44193 Ang^3 )

[...]

ATOMIC_POSITIONS (crystal)
Co       0.750000000   0.825442044   0.434674138
Co       0.250000000   0.174557956   0.565325862
Co       0.750000000   0.325442044   0.065325862
Co       0.250000000   0.674557956   0.934674138
Co       0.250000000   0.539716668   0.279878566
Co       0.750000000   0.460283332   0.720121434
Co       0.250000000   0.039716668   0.220121434
Co       0.750000000   0.960283332   0.779878566
Si       0.250000000   0.200243842   0.893064249
Si       0.750000000   0.799756158   0.106935751
Si       0.250000000   0.700243842   0.606935751
Si       0.750000000   0.299756158   0.393064249

     Writing output data file Prototype-La-oP12-Co2Si.save
     NEW-OLD atomic charge density approx. for the potential
     NEW k-points:
        k(    1) = (   0.0000000   0.0000000   0.0000000), wk =   0.0833333
        k(    2) = (   0.0000000   0.0000000   0.1143356), wk =   0.1666667
        k(    3) = (   0.0000000   0.0000000  -0.2286711), wk =   0.0833333
        k(    4) = (   0.0000000   0.2228534   0.0000000), wk =   0.1666667
        k(    5) = (   0.0000000   0.2228534   0.1143356), wk =   0.3333333
        k(    6) = (   0.0000000   0.2228534  -0.2286711), wk =   0.1666667
        k(    7) = (  -0.4324576   0.0000000   0.0000000), wk =   0.0833333
        k(    8) = (  -0.4324576   0.0000000   0.1143356), wk =   0.1666667
        k(    9) = (  -0.4324576   0.0000000  -0.2286711), wk =   0.0833333
        k(   10) = (  -0.4324576   0.2228534   0.0000000), wk =   0.1666667
        k(   11) = (  -0.4324576   0.2228534   0.1143356), wk =   0.3333333
        k(   12) = (  -0.4324576   0.2228534  -0.2286711), wk =   0.1666667

[...]

     The maximum number of steps has been reached.

     End of BFGS Geometry Optimization
Begin final coordinates
     new unit-cell volume =   1305.41085 a.u.^3 (   193.44193 Ang^3 )

CELL_PARAMETERS (alat=  7.01510508)
   1.156182601   0.000000000   0.000000000
   0.000000000   1.495751951   0.000000000
   0.000000000   0.000000000   2.186546258

ATOMIC_POSITIONS (crystal)
Co       0.750000000   0.825442044   0.434674138
Co       0.250000000   0.174557956   0.565325862
Co       0.750000000   0.325442044   0.065325862
Co       0.250000000   0.674557956   0.934674138
Co       0.250000000   0.539716668   0.279878566
Co       0.750000000   0.460283332   0.720121434
Co       0.250000000   0.039716668   0.220121434
Co       0.750000000   0.960283332   0.779878566
Si       0.250000000   0.200243842   0.893064249
Si       0.750000000   0.799756158   0.106935751
Si       0.250000000   0.700243842   0.606935751
Si       0.750000000   0.299756158   0.393064249
End final coordinates

     A final scf calculation at the relaxed structure.
     The G-vectors are recalculated for the final unit cell
     Results may differ from those at the preceding step.

     bravais-lattice index     =            0
     lattice parameter (alat)  =       7.0151  a.u.
     unit-cell volume          =    1305.4109 (a.u.)^3
     number of atoms/cell      =           12
     number of atomic types    =            2
     number of electrons       =       200.00
     number of Kohn-Sham states=          120
     kinetic-energy cutoff     =      40.0000  Ry
     charge density cutoff     =     160.0000  Ry
     convergence threshold     =      1.0E-04
     mixing beta               =       0.7000
     number of iterations used =            8  plain     mixing
     Exchange-correlation      = SLA-PZ-NOGX-NOGC ( 1 1 0 0 0)
     EXX-fraction              =        0.00

     celldm(1)=   7.015105  celldm(2)=   0.000000  celldm(3)=   0.000000
     celldm(4)=   0.000000  celldm(5)=   0.000000  celldm(6)=   0.000000

     crystal axes: (cart. coord. in units of alat)
               a(1) = (   1.156183   0.000000   0.000000 )
               a(2) = (   0.000000   1.495752   0.000000 )
               a(3) = (   0.000000   0.000000   2.186546 )

     reciprocal axes: (cart. coord. in units 2 pi/alat)
               b(1) = (  0.864915  0.000000  0.000000 )
               b(2) = (  0.000000  0.668560  0.000000 )
               b(3) = (  0.000000  0.000000  0.457342 )

     PseudoPot. # 1 for Gd read from file:
     /home/cwx6513/pp.La/Gd.UPF
     MD5 check sum: 09a8be538722f05520810cb6aac0efd2
     Pseudo is Norm-conserving, Zval = 18.0
     Generated in analytical, separable form
     Using radial grid of 1263 points,  6 beta functions with:
                l(1) =   0
                l(2) =   0
                l(3) =   1
                l(4) =   1
                l(5) =   2
                l(6) =   3

     PseudoPot. # 2 for Nd read from file:
     /home/cwx6513/pp.La/Nd.UPF
     MD5 check sum: c66c5b6abe7b5840ced9b1e244e3bed6
     Pseudo is Norm-conserving, Zval = 14.0
     Generated in analytical, separable form
     Using radial grid of 1257 points,  6 beta functions with:
                l(1) =   0
                l(2) =   0
                l(3) =   1
                l(4) =   1
                l(5) =   2
                l(6) =   3

     atomic species   valence    mass     pseudopotential
        Co            18.00    58.93320     Gd( 1.00)
        Si            14.00    28.08550     Nd( 1.00)

      8 Sym. Ops., with inversion, found ( 6 have fractional translation)

   Cartesian axes

     site n.     atom                  positions (alat units)
         1           Co  tau(   1) = (   0.8671370   1.2346565   0.9504351  )
         2           Co  tau(   2) = (   0.2890457   0.2610954   1.2361111  )
         3           Co  tau(   3) = (   0.8671370   0.4867806   0.1428380  )
         4           Co  tau(   4) = (   0.2890457   1.0089714   2.0437082  )
         5           Co  tau(   5) = (   0.2890457   0.8072823   0.6119674  )
         6           Co  tau(   6) = (   0.8671370   0.6884697   1.5745788  )
         7           Co  tau(   7) = (   0.2890457   0.0594063   0.4813057  )
         8           Co  tau(   8) = (   0.8671370   1.4363457   1.7052406  )
         9           Si  tau(   9) = (   0.2890457   0.2995151   1.9527263  )
        10           Si  tau(  10) = (   0.8671370   1.1962368   0.2338200  )
        11           Si  tau(  11) = (   0.2890457   1.0473911   1.3270931  )
        12           Si  tau(  12) = (   0.8671370   0.4483609   0.8594532  )

     number of k points=    12  gaussian smearing, width (Ry)=  0.1000
                       cart. coord. in units 2pi/alat
        k(    1) = (   0.0000000   0.0000000   0.0000000), wk =   0.0833333
        k(    2) = (   0.0000000   0.0000000   0.1143356), wk =   0.1666667
        k(    3) = (   0.0000000   0.0000000  -0.2286711), wk =   0.0833333
        k(    4) = (   0.0000000   0.2228534   0.0000000), wk =   0.1666667
        k(    5) = (   0.0000000   0.2228534   0.1143356), wk =   0.3333333
        k(    6) = (   0.0000000   0.2228534  -0.2286711), wk =   0.1666667
        k(    7) = (  -0.4324576   0.0000000   0.0000000), wk =   0.0833333
        k(    8) = (  -0.4324576   0.0000000   0.1143356), wk =   0.1666667
        k(    9) = (  -0.4324576   0.0000000  -0.2286711), wk =   0.0833333
        k(   10) = (  -0.4324576   0.2228534   0.0000000), wk =   0.1666667
        k(   11) = (  -0.4324576   0.2228534   0.1143356), wk =   0.3333333
        k(   12) = (  -0.4324576   0.2228534  -0.2286711), wk =   0.1666667

     Largest allocated arrays     est. size (Mb)     dimensions
     Largest temporary arrays     est. size (Mb)     dimensions

     Initial potential from superposition of free atoms

     Starting from uniform charge
     Starting wfc are    0 randomized atomic wfcs

     Writing output data file Prototype-La-oP12-Co2Si.save

     Self-consistent Calculation

[...]

     iteration # 10     ecut=    40.00 Ry     beta=0.70
     CG style diagonalization
     c_bands:  1 eigenvalues not converged
     c_bands:  1 eigenvalues not converged
     c_bands:  1 eigenvalues not converged
     ethr =  1.50E-06,  avg # of iterations =  4.5

     total energy              =   -2051.04003717 Ry
     Harris-Foulkes estimate   =   -2051.04095136 Ry
     estimated scf accuracy    <       0.00231153 Ry

     iteration # 11     ecut=    40.00 Ry     beta=0.70
     CG style diagonalization
     ethr =  1.16E-06,  avg # of iterations =  3.2

     End of self-consistent calculation

[...]

          k = 0.0000 0.2229-0.2287 (  5562 PWs)   bands (ev):

[...]

          k =-0.4325 0.2229-0.2287 (  5564 PWs)   bands (ev):

   -38.8011 -38.8011 -38.7999 -38.7999 -38.6254 -38.6254 -38.5821 -38.5821
   -17.6747 -17.6747 -17.6547 -17.6547 -10.2685 -10.2685 -10.1330 -10.1330
   -10.1194 -10.1194 -10.0784 -10.0784  -9.9572  -9.9572  -9.8838  -9.8838
    -9.7563  -9.7563  -9.6266  -9.6266  -9.6222  -9.6222  -9.5764  -9.5764
    -9.4818  -9.4818  -9.4049  -9.4049   3.6066   3.6066   3.6844   3.6844
     3.7926   3.7926   3.7958   3.7958   3.9280   3.9280   3.9400   3.9400
    22.0074  22.0074  22.5972  22.5972  22.5979  22.5979  23.0427  23.0427
    23.1353  23.1353  23.4209  23.4209  23.5789  23.5789  23.8371  23.8371
    23.9354  23.9354  24.2047  24.2047  24.2136  24.2136  24.6364  24.6364
    24.7777  24.7777  25.2846  25.2846  25.3756  25.3756  25.7327  25.7327
    25.7630  25.7630  26.7481  26.7481  26.7508  26.7508  27.2145  27.2145
    27.6969  27.6969  27.8348  27.8348  29.2075  29.2075  29.8050  29.8050
    30.2532  30.2532  30.2547  30.2547  30.9173  30.9173  31.0121  31.0121
    31.7058  31.7058  32.2596  32.2596  32.9007  32.9007  33.0562  33.0562
    34.7409  34.7409  35.1255  35.1255  35.6901  35.6901  38.1375  38.1375

     the Fermi energy is    30.8667 ev

!    total energy              =   -2051.04034428 Ry
     Harris-Foulkes estimate   =   -2051.04039892 Ry
     estimated scf accuracy    <       0.00006000 Ry

     The total energy is the sum of the following terms:

     one-electron contribution =      -5.95184737 Ry
     hartree contribution      =     201.08488352 Ry
     xc contribution           =    -217.05765329 Ry
     ewald contribution        =   -2028.51319939 Ry
     smearing contrib. (-TS)   =      -0.60252776 Ry

     convergence has been achieved in  11 iterations

     Forces acting on atoms (Ry/au):

     atom    1 type  1   force =     0.00000000   -0.03289642   -0.01783366
     atom    2 type  1   force =     0.00000000    0.03289642    0.01783366
     atom    3 type  1   force =     0.00000000   -0.03289642    0.01783366
     atom    4 type  1   force =     0.00000000    0.03289642   -0.01783366
     atom    5 type  1   force =     0.00000000    0.06371381   -0.05848486
     atom    6 type  1   force =     0.00000000   -0.06371381    0.05848486
     atom    7 type  1   force =     0.00000000    0.06371381    0.05848486
     atom    8 type  1   force =     0.00000000   -0.06371381   -0.05848486
     atom    9 type  2   force =     0.00000000   -0.05727117   -0.01014212
     atom   10 type  2   force =     0.00000000    0.05727117    0.01014212
     atom   11 type  2   force =     0.00000000   -0.05727117    0.01014212
     atom   12 type  2   force =     0.00000000    0.05727117   -0.01014212

     Total force =     0.221477     Total SCF correction =     0.000000

     entering subroutine stress ...

          total   stress  (Ry/bohr**3)                   (kbar)     P=  930.74
   0.00661496   0.00000000   0.00000000        973.09      0.00      0.00
   0.00000000   0.00596384   0.00000000          0.00    877.31      0.00
   0.00000000   0.00000000   0.00640232          0.00      0.00    941.81

     Writing output data file Prototype-La-oP12-Co2Si.save

     General routines

     Parallel routines

   This run was terminated on:  23: 4:40  22Mar2018

   JOB DONE.