     Program PWSCF v.5.0.2 starts on 22Mar2018 at 22:48:59

     Current dimensions of program PWSCF are:
     Max number of different atomic species (ntypx) = 10
     Max number of k-points (npk) =  40000
     Max angular momentum in pseudopotentials (lmaxx) =  3
     Waiting for input...
     Reading input from standard input

     Subspace diagonalization in iterative solution of the eigenvalue problem:
     a serial algorithm will be used

     bravais-lattice index     =            0
     lattice parameter (alat)  =       8.5346  a.u.
     unit-cell volume          =     621.6493 (a.u.)^3
     number of atoms/cell      =            8
     number of atomic types    =            2
     number of electrons       =       140.00
     number of Kohn-Sham states=           84
     kinetic-energy cutoff     =      40.0000  Ry
     charge density cutoff     =     160.0000  Ry
     convergence threshold     =      1.0E-04
     mixing beta               =       0.7000
     number of iterations used =            8  plain     mixing
     Exchange-correlation      = SLA-PZ-NOGX-NOGC ( 1 1 0 0 0)
     EXX-fraction              =        0.00
     nstep                     =           50

     celldm(1)=   8.534573  celldm(2)=   0.000000  celldm(3)=   0.000000
     celldm(4)=   0.000000  celldm(5)=   0.000000  celldm(6)=   0.000000

     crystal axes: (cart. coord. in units of alat)
               a(1) = (   1.000000   0.000000   0.000000 )
               a(2) = (   0.000000   1.000000   0.000000 )
               a(3) = (   0.000000   0.000000   1.000000 )

     reciprocal axes: (cart. coord. in units 2 pi/alat)
               b(1) = (  1.000000  0.000000  0.000000 )
               b(2) = (  0.000000  1.000000  0.000000 )
               b(3) = (  0.000000  0.000000  1.000000 )

     PseudoPot. # 1 for Gd read from file:
     /home/cwx6513/pp.La/Gd.UPF
     MD5 check sum: 09a8be538722f05520810cb6aac0efd2
     Pseudo is Norm-conserving, Zval = 18.0
     Generated in analytical, separable form
     Using radial grid of 1263 points,  6 beta functions with:
                l(1) =   0
                l(2) =   0
                l(3) =   1
                l(4) =   1
                l(5) =   2
                l(6) =   3

     PseudoPot. # 2 for Sm read from file:
     /home/cwx6513/pp.La/Sm.UPF
     MD5 check sum: 5079e8b144a06bfcdbc14fb02b96ab09
     Pseudo is Norm-conserving, Zval = 16.0
     Generated in analytical, separable form
     Using radial grid of 1259 points,  6 beta functions with:
                l(1) =   0
                l(2) =   0
                l(3) =   1
                l(4) =   1
                l(5) =   2
                l(6) =   3

     atomic species   valence    mass     pseudopotential
        Cr            18.00    51.99610     Gd( 1.00)
        Si            16.00    28.08550     Sm( 1.00)

     48 Sym. Ops., with inversion, found (24 have fractional translation)

   Cartesian axes

     site n.     atom                  positions (alat units)
         1           Cr  tau(   1) = (   0.0000000   0.5000000   0.2500000  )
         2           Cr  tau(   2) = (   0.0000000   0.5000000   0.7500000  )
         3           Cr  tau(   3) = (   0.5000000   0.7500000   0.0000000  )
         4           Cr  tau(   4) = (   0.5000000   0.2500000   0.0000000  )
         5           Cr  tau(   5) = (   0.7500000   0.0000000   0.5000000  )
         6           Cr  tau(   6) = (   0.2500000   0.0000000   0.5000000  )
         7           Si  tau(   7) = (   0.5000000   0.5000000   0.5000000  )
         8           Si  tau(   8) = (   0.0000000   0.0000000   0.0000000  )

     number of k points=    48  gaussian smearing, width (Ry)=  0.1000
                       cart. coord. in units 2pi/alat
        k(    1) = (   0.0000000   0.0000000   0.0000000), wk =   0.0095238
        k(    2) = (   0.0000000   0.0000000   0.1428571), wk =   0.0190476
        k(    3) = (   0.0000000   0.0000000   0.2857143), wk =   0.0190476
        k(    4) = (   0.0000000   0.0000000   0.4285714), wk =   0.0190476
        k(    5) = (   0.0000000   0.1666667   0.0000000), wk =   0.0190476
        k(    6) = (   0.0000000   0.1666667   0.1428571), wk =   0.0380952
        k(    7) = (   0.0000000   0.1666667   0.2857143), wk =   0.0380952
        k(    8) = (   0.0000000   0.1666667   0.4285714), wk =   0.0380952
        k(    9) = (   0.0000000   0.3333333   0.0000000), wk =   0.0190476
        k(   10) = (   0.0000000   0.3333333   0.1428571), wk =   0.0380952
        k(   11) = (   0.0000000   0.3333333   0.2857143), wk =   0.0380952
        k(   12) = (   0.0000000   0.3333333   0.4285714), wk =   0.0380952
        k(   13) = (   0.0000000  -0.5000000   0.0000000), wk =   0.0095238
        k(   14) = (   0.0000000  -0.5000000   0.1428571), wk =   0.0190476
        k(   15) = (   0.0000000  -0.5000000   0.2857143), wk =   0.0190476
        k(   16) = (   0.0000000  -0.5000000   0.4285714), wk =   0.0190476
        k(   17) = (   0.2000000   0.0000000   0.0000000), wk =   0.0190476
        k(   18) = (   0.2000000   0.0000000   0.1428571), wk =   0.0380952
        k(   19) = (   0.2000000   0.0000000   0.2857143), wk =   0.0380952
        k(   20) = (   0.2000000   0.0000000   0.4285714), wk =   0.0380952
        k(   21) = (   0.2000000   0.1666667   0.0000000), wk =   0.0380952
        k(   22) = (   0.2000000   0.1666667   0.1428571), wk =   0.0761905
        k(   23) = (   0.2000000   0.1666667   0.2857143), wk =   0.0761905
        k(   24) = (   0.2000000   0.1666667   0.4285714), wk =   0.0761905
        k(   25) = (   0.2000000   0.3333333   0.0000000), wk =   0.0380952
        k(   26) = (   0.2000000   0.3333333   0.1428571), wk =   0.0761905
        k(   27) = (   0.2000000   0.3333333   0.2857143), wk =   0.0761905
        k(   28) = (   0.2000000   0.3333333   0.4285714), wk =   0.0761905
        k(   29) = (   0.2000000  -0.5000000   0.0000000), wk =   0.0190476
        k(   30) = (   0.2000000  -0.5000000   0.1428571), wk =   0.0380952
        k(   31) = (   0.2000000  -0.5000000   0.2857143), wk =   0.0380952
        k(   32) = (   0.2000000  -0.5000000   0.4285714), wk =   0.0380952
        k(   33) = (   0.4000000   0.0000000   0.0000000), wk =   0.0190476
        k(   34) = (   0.4000000   0.0000000   0.1428571), wk =   0.0380952
        k(   35) = (   0.4000000   0.0000000   0.2857143), wk =   0.0380952
        k(   36) = (   0.4000000   0.0000000   0.4285714), wk =   0.0380952
        k(   37) = (   0.4000000   0.1666667   0.0000000), wk =   0.0380952
        k(   38) = (   0.4000000   0.1666667   0.1428571), wk =   0.0761905
        k(   39) = (   0.4000000   0.1666667   0.2857143), wk =   0.0761905
        k(   40) = (   0.4000000   0.1666667   0.4285714), wk =   0.0761905
        k(   41) = (   0.4000000   0.3333333   0.0000000), wk =   0.0380952
        k(   42) = (   0.4000000   0.3333333   0.1428571), wk =   0.0761905
        k(   43) = (   0.4000000   0.3333333   0.2857143), wk =   0.0761905
        k(   44) = (   0.4000000   0.3333333   0.4285714), wk =   0.0761905
        k(   45) = (   0.4000000  -0.5000000   0.0000000), wk =   0.0190476
        k(   46) = (   0.4000000  -0.5000000   0.1428571), wk =   0.0380952
        k(   47) = (   0.4000000  -0.5000000   0.2857143), wk =   0.0380952
        k(   48) = (   0.4000000  -0.5000000   0.4285714), wk =   0.0380952

     Largest allocated arrays     est. size (Mb)     dimensions
     Largest temporary arrays     est. size (Mb)     dimensions

     Initial potential from superposition of free atoms

     Starting from uniform charge
     Starting wfc are    0 randomized atomic wfcs

     Self-consistent Calculation

     iteration #  1     ecut=    40.00 Ry     beta=0.70
     CG style diagonalization
     c_bands:  1 eigenvalues not converged
     c_bands:  3 eigenvalues not converged
     c_bands:  3 eigenvalues not converged
     c_bands:  1 eigenvalues not converged
     c_bands:  1 eigenvalues not converged
     c_bands:  1 eigenvalues not converged
     c_bands:  1 eigenvalues not converged
     c_bands:  2 eigenvalues not converged
     c_bands:  1 eigenvalues not converged
     c_bands:  1 eigenvalues not converged
     c_bands:  1 eigenvalues not converged
     c_bands:  1 eigenvalues not converged
     c_bands:  1 eigenvalues not converged
     c_bands:  1 eigenvalues not converged
     c_bands:  2 eigenvalues not converged
     c_bands:  1 eigenvalues not converged
     c_bands:  1 eigenvalues not converged
     c_bands:  1 eigenvalues not converged
     ethr =  1.00E-02,  avg # of iterations = 11.3

     total energy              =   -1411.93685114 Ry
     Harris-Foulkes estimate   =   -1646.51204460 Ry
     estimated scf accuracy    <     308.17444328 Ry

[...]

     iteration #  3     ecut=    40.00 Ry     beta=0.70
     CG style diagonalization
     ethr =  1.00E-02,  avg # of iterations =  6.7

[...]

     End of self-consistent calculation

          k = 0.0000 0.0000 0.0000 (  2601 PWs)   bands (ev):

   -26.7678 -26.3837 -26.3837 -25.3947 -25.3947 -25.3947 -13.9843 -13.8668
    -0.9110  -0.9110  -0.2686   1.3127   1.3127   1.3127   2.8808   2.8808
     2.8808   2.9732   2.9732   2.9732   3.4623   3.4623   3.4623   5.2118
     5.2118   5.2118  10.5090  10.5090  10.5090  10.6885  10.6885  10.6885
    31.2567  31.2567  31.5308  31.5308  31.5308  31.6713  33.3887  33.7003
    34.3227  34.3227  34.3227  35.0613  35.0613  35.3816  35.4249  35.4249
    35.4249  38.0049  38.0049  38.6768  38.6768  38.6768  39.6444  39.6444
    39.6444  40.4739  40.4739  40.4739  40.7288  40.7288  40.7288  42.1898
    42.1898  42.5768  42.5768  43.7334  43.7334  43.7334  46.6675  46.6675
    46.6675  49.8303  49.8303  49.8303  51.1514  51.1514  51.1515  51.5533
    52.9354  52.9354  52.9354  54.6256

[...]

     the Fermi energy is    45.2315 ev

!    total energy              =   -1505.68724184 Ry
     Harris-Foulkes estimate   =   -1505.68725197 Ry
     estimated scf accuracy    <       0.00001097 Ry

     The total energy is the sum of the following terms:

     one-electron contribution =     214.28749429 Ry
     hartree contribution      =      98.65617226 Ry
     xc contribution           =    -161.76435036 Ry
     ewald contribution        =   -1656.57517851 Ry
     smearing contrib. (-TS)   =      -0.29137953 Ry

     convergence has been achieved in   9 iterations

     Forces acting on atoms (Ry/au):

     atom    1 type  1   force =     0.00000000    0.00000000    0.00000000
     atom    2 type  1   force =     0.00000000    0.00000000    0.00000000
     atom    3 type  1   force =     0.00000000    0.00000000    0.00000000
     atom    4 type  1   force =     0.00000000    0.00000000    0.00000000
     atom    5 type  1   force =     0.00000000    0.00000000    0.00000000
     atom    6 type  1   force =     0.00000000    0.00000000    0.00000000
     atom    7 type  2   force =     0.00000000    0.00000000    0.00000000
     atom    8 type  2   force =     0.00000000    0.00000000    0.00000000

     Total force =     0.000000     Total SCF correction =     0.000000

     entering subroutine stress ...

[...]
     enthalpy new            =   -1509.0218070137 Ry

     CASE: enthalpy_new < enthalpy_old

     small trust_radius: resetting bfgs history

     new trust radius        =       0.6351634226 bohr
     new conv_thr            =       0.0000010000 Ry

[...]

          total   stress  (Ry/bohr**3)                   (kbar)     P=-1018.21
  -0.00692162   0.00000000   0.00000000      -1018.21      0.00      0.00
   0.00000000  -0.00692162   0.00000000          0.00  -1018.21      0.00
   0.00000000   0.00000000  -0.00692162          0.00      0.00  -1018.21

     number of scf cycles    =   3
     number of bfgs steps    =   2

     enthalpy old            =   -1509.0218070137 Ry
     enthalpy new            =   -1508.1859383617 Ry

     CASE: enthalpy_new > enthalpy_old

     new trust radius        =       0.1979428361 bohr

     trust_radius < trust_radius_min

     resetting bfgs history

     Message from routine bfgs:
     history already reset at previous step: stopping
     new conv_thr            =       0.0000010000 Ry

     new unit-cell volume =   1050.18222 a.u.^3 (   155.62095 Ang^3 )

[...]

ATOMIC_POSITIONS (crystal)
Cr       0.000000000   0.500000000   0.250000000
Cr       0.000000000   0.500000000   0.750000000
Cr       0.500000000   0.750000000   0.000000000
Cr       0.500000000   0.250000000   0.000000000
Cr       0.750000000   0.000000000   0.500000000
Cr       0.250000000   0.000000000   0.500000000
Si       0.500000000   0.500000000   0.500000000
Si       0.000000000   0.000000000   0.000000000

     Writing output data file Prototype-La-cP8-Cr3Si.save
     NEW-OLD atomic charge density approx. for the potential
     NEW k-points:
        k(    1) = (   0.0000000   0.0000000   0.0000000), wk =   0.0095238
        k(    2) = (   0.0000000   0.0000000   0.1199487), wk =   0.0190476
        k(    3) = (   0.0000000   0.0000000   0.2398974), wk =   0.0190476
        k(    4) = (   0.0000000   0.0000000   0.3598461), wk =   0.0190476
        k(    5) = (   0.0000000   0.1399402   0.0000000), wk =   0.0190476
        k(    6) = (   0.0000000   0.1399402   0.1199487), wk =   0.0380952
        k(    7) = (   0.0000000   0.1399402   0.2398974), wk =   0.0380952
        k(    8) = (   0.0000000   0.1399402   0.3598461), wk =   0.0380952
        k(    9) = (   0.0000000   0.2798803   0.0000000), wk =   0.0190476
        k(   10) = (   0.0000000   0.2798803   0.1199487), wk =   0.0380952
        k(   11) = (   0.0000000   0.2798803   0.2398974), wk =   0.0380952
        k(   12) = (   0.0000000   0.2798803   0.3598461), wk =   0.0380952
        k(   13) = (   0.0000000  -0.4198205   0.0000000), wk =   0.0095238
        k(   14) = (   0.0000000  -0.4198205   0.1199487), wk =   0.0190476
        k(   15) = (   0.0000000  -0.4198205   0.2398974), wk =   0.0190476
        k(   16) = (   0.0000000  -0.4198205   0.3598461), wk =   0.0190476
        k(   17) = (   0.1679282   0.0000000   0.0000000), wk =   0.0190476
        k(   18) = (   0.1679282   0.0000000   0.1199487), wk =   0.0380952
        k(   19) = (   0.1679282   0.0000000   0.2398974), wk =   0.0380952
        k(   20) = (   0.1679282   0.0000000   0.3598461), wk =   0.0380952
        k(   21) = (   0.1679282   0.1399402   0.0000000), wk =   0.0380952
        k(   22) = (   0.1679282   0.1399402   0.1199487), wk =   0.0761905
        k(   23) = (   0.1679282   0.1399402   0.2398974), wk =   0.0761905
        k(   24) = (   0.1679282   0.1399402   0.3598461), wk =   0.0761905
        k(   25) = (   0.1679282   0.2798803   0.0000000), wk =   0.0380952
        k(   26) = (   0.1679282   0.2798803   0.1199487), wk =   0.0761905
        k(   27) = (   0.1679282   0.2798803   0.2398974), wk =   0.0761905
        k(   28) = (   0.1679282   0.2798803   0.3598461), wk =   0.0761905
        k(   29) = (   0.1679282  -0.4198205   0.0000000), wk =   0.0190476
        k(   30) = (   0.1679282  -0.4198205   0.1199487), wk =   0.0380952
        k(   31) = (   0.1679282  -0.4198205   0.2398974), wk =   0.0380952
        k(   32) = (   0.1679282  -0.4198205   0.3598461), wk =   0.0380952
        k(   33) = (   0.3358564   0.0000000   0.0000000), wk =   0.0190476
        k(   34) = (   0.3358564   0.0000000   0.1199487), wk =   0.0380952
        k(   35) = (   0.3358564   0.0000000   0.2398974), wk =   0.0380952
        k(   36) = (   0.3358564   0.0000000   0.3598461), wk =   0.0380952
        k(   37) = (   0.3358564   0.1399402   0.0000000), wk =   0.0380952
        k(   38) = (   0.3358564   0.1399402   0.1199487), wk =   0.0761905
        k(   39) = (   0.3358564   0.1399402   0.2398974), wk =   0.0761905
        k(   40) = (   0.3358564   0.1399402   0.3598461), wk =   0.0761905
        k(   41) = (   0.3358564   0.2798803   0.0000000), wk =   0.0380952
        k(   42) = (   0.3358564   0.2798803   0.1199487), wk =   0.0761905
        k(   43) = (   0.3358564   0.2798803   0.2398974), wk =   0.0761905
        k(   44) = (   0.3358564   0.2798803   0.3598461), wk =   0.0761905
        k(   45) = (   0.3358564  -0.4198205   0.0000000), wk =   0.0190476
        k(   46) = (   0.3358564  -0.4198205   0.1199487), wk =   0.0380952
        k(   47) = (   0.3358564  -0.4198205   0.2398974), wk =   0.0380952
        k(   48) = (   0.3358564  -0.4198205   0.3598461), wk =   0.0380952

[...]

     The maximum number of steps has been reached.

     End of BFGS Geometry Optimization
Begin final coordinates
     new unit-cell volume =   1050.18222 a.u.^3 (   155.62095 Ang^3 )

CELL_PARAMETERS (alat=  8.53457320)
   1.190985333   0.000000000   0.000000000
   0.000000000   1.190985333   0.000000000
   0.000000000   0.000000000   1.190985333

ATOMIC_POSITIONS (crystal)
Cr       0.000000000   0.500000000   0.250000000
Cr       0.000000000   0.500000000   0.750000000
Cr       0.500000000   0.750000000   0.000000000
Cr       0.500000000   0.250000000   0.000000000
Cr       0.750000000   0.000000000   0.500000000
Cr       0.250000000   0.000000000   0.500000000
Si       0.500000000   0.500000000   0.500000000
Si       0.000000000   0.000000000   0.000000000
End final coordinates

     A final scf calculation at the relaxed structure.
     The G-vectors are recalculated for the final unit cell
     Results may differ from those at the preceding step.

     bravais-lattice index     =            0
     lattice parameter (alat)  =       8.5346  a.u.
     unit-cell volume          =    1050.1822 (a.u.)^3
     number of atoms/cell      =            8
     number of atomic types    =            2
     number of electrons       =       140.00
     number of Kohn-Sham states=           84
     kinetic-energy cutoff     =      40.0000  Ry
     charge density cutoff     =     160.0000  Ry
     convergence threshold     =      1.0E-06
     mixing beta               =       0.7000
     number of iterations used =            8  plain     mixing
     Exchange-correlation      = SLA-PZ-NOGX-NOGC ( 1 1 0 0 0)
     EXX-fraction              =        0.00

     celldm(1)=   8.534573  celldm(2)=   0.000000  celldm(3)=   0.000000
     celldm(4)=   0.000000  celldm(5)=   0.000000  celldm(6)=   0.000000

     crystal axes: (cart. coord. in units of alat)
               a(1) = (   1.190985   0.000000   0.000000 )
               a(2) = (   0.000000   1.190985   0.000000 )
               a(3) = (   0.000000   0.000000   1.190985 )

     reciprocal axes: (cart. coord. in units 2 pi/alat)
               b(1) = (  0.839641  0.000000  0.000000 )
               b(2) = (  0.000000  0.839641  0.000000 )
               b(3) = (  0.000000  0.000000  0.839641 )

     PseudoPot. # 1 for Gd read from file:
     /home/cwx6513/pp.La/Gd.UPF
     MD5 check sum: 09a8be538722f05520810cb6aac0efd2
     Pseudo is Norm-conserving, Zval = 18.0
     Generated in analytical, separable form
     Using radial grid of 1263 points,  6 beta functions with:
                l(1) =   0
                l(2) =   0
                l(3) =   1
                l(4) =   1
                l(5) =   2
                l(6) =   3

     PseudoPot. # 2 for Sm read from file:
     /home/cwx6513/pp.La/Sm.UPF
     MD5 check sum: 5079e8b144a06bfcdbc14fb02b96ab09
     Pseudo is Norm-conserving, Zval = 16.0
     Generated in analytical, separable form
     Using radial grid of 1259 points,  6 beta functions with:
                l(1) =   0
                l(2) =   0
                l(3) =   1
                l(4) =   1
                l(5) =   2
                l(6) =   3

     atomic species   valence    mass     pseudopotential
        Cr            18.00    51.99610     Gd( 1.00)
        Si            16.00    28.08550     Sm( 1.00)

     48 Sym. Ops., with inversion, found (24 have fractional translation)

   Cartesian axes

     site n.     atom                  positions (alat units)
         1           Cr  tau(   1) = (   0.0000000   0.5954927   0.2977463  )
         2           Cr  tau(   2) = (   0.0000000   0.5954927   0.8932390  )
         3           Cr  tau(   3) = (   0.5954927   0.8932390   0.0000000  )
         4           Cr  tau(   4) = (   0.5954927   0.2977463   0.0000000  )
         5           Cr  tau(   5) = (   0.8932390   0.0000000   0.5954927  )
         6           Cr  tau(   6) = (   0.2977463   0.0000000   0.5954927  )
         7           Si  tau(   7) = (   0.5954927   0.5954927   0.5954927  )
         8           Si  tau(   8) = (   0.0000000   0.0000000   0.0000000  )

     number of k points=    48  gaussian smearing, width (Ry)=  0.1000
                       cart. coord. in units 2pi/alat
        k(    1) = (   0.0000000   0.0000000   0.0000000), wk =   0.0095238
        k(    2) = (   0.0000000   0.0000000   0.1199487), wk =   0.0190476
        k(    3) = (   0.0000000   0.0000000   0.2398974), wk =   0.0190476
        k(    4) = (   0.0000000   0.0000000   0.3598461), wk =   0.0190476
        k(    5) = (   0.0000000   0.1399402   0.0000000), wk =   0.0190476
        k(    6) = (   0.0000000   0.1399402   0.1199487), wk =   0.0380952
        k(    7) = (   0.0000000   0.1399402   0.2398974), wk =   0.0380952
        k(    8) = (   0.0000000   0.1399402   0.3598461), wk =   0.0380952
        k(    9) = (   0.0000000   0.2798803   0.0000000), wk =   0.0190476
        k(   10) = (   0.0000000   0.2798803   0.1199487), wk =   0.0380952
        k(   11) = (   0.0000000   0.2798803   0.2398974), wk =   0.0380952
        k(   12) = (   0.0000000   0.2798803   0.3598461), wk =   0.0380952
        k(   13) = (   0.0000000  -0.4198205   0.0000000), wk =   0.0095238
        k(   14) = (   0.0000000  -0.4198205   0.1199487), wk =   0.0190476
        k(   15) = (   0.0000000  -0.4198205   0.2398974), wk =   0.0190476
        k(   16) = (   0.0000000  -0.4198205   0.3598461), wk =   0.0190476
        k(   17) = (   0.1679282   0.0000000   0.0000000), wk =   0.0190476
        k(   18) = (   0.1679282   0.0000000   0.1199487), wk =   0.0380952
        k(   19) = (   0.1679282   0.0000000   0.2398974), wk =   0.0380952
        k(   20) = (   0.1679282   0.0000000   0.3598461), wk =   0.0380952
        k(   21) = (   0.1679282   0.1399402   0.0000000), wk =   0.0380952
        k(   22) = (   0.1679282   0.1399402   0.1199487), wk =   0.0761905
        k(   23) = (   0.1679282   0.1399402   0.2398974), wk =   0.0761905
        k(   24) = (   0.1679282   0.1399402   0.3598461), wk =   0.0761905
        k(   25) = (   0.1679282   0.2798803   0.0000000), wk =   0.0380952
        k(   26) = (   0.1679282   0.2798803   0.1199487), wk =   0.0761905
        k(   27) = (   0.1679282   0.2798803   0.2398974), wk =   0.0761905
        k(   28) = (   0.1679282   0.2798803   0.3598461), wk =   0.0761905
        k(   29) = (   0.1679282  -0.4198205   0.0000000), wk =   0.0190476
        k(   30) = (   0.1679282  -0.4198205   0.1199487), wk =   0.0380952
        k(   31) = (   0.1679282  -0.4198205   0.2398974), wk =   0.0380952
        k(   32) = (   0.1679282  -0.4198205   0.3598461), wk =   0.0380952
        k(   33) = (   0.3358564   0.0000000   0.0000000), wk =   0.0190476
        k(   34) = (   0.3358564   0.0000000   0.1199487), wk =   0.0380952
        k(   35) = (   0.3358564   0.0000000   0.2398974), wk =   0.0380952
        k(   36) = (   0.3358564   0.0000000   0.3598461), wk =   0.0380952
        k(   37) = (   0.3358564   0.1399402   0.0000000), wk =   0.0380952
        k(   38) = (   0.3358564   0.1399402   0.1199487), wk =   0.0761905
        k(   39) = (   0.3358564   0.1399402   0.2398974), wk =   0.0761905
        k(   40) = (   0.3358564   0.1399402   0.3598461), wk =   0.0761905
        k(   41) = (   0.3358564   0.2798803   0.0000000), wk =   0.0380952
        k(   42) = (   0.3358564   0.2798803   0.1199487), wk =   0.0761905
        k(   43) = (   0.3358564   0.2798803   0.2398974), wk =   0.0761905
        k(   44) = (   0.3358564   0.2798803   0.3598461), wk =   0.0761905
        k(   45) = (   0.3358564  -0.4198205   0.0000000), wk =   0.0190476
        k(   46) = (   0.3358564  -0.4198205   0.1199487), wk =   0.0380952
        k(   47) = (   0.3358564  -0.4198205   0.2398974), wk =   0.0380952
        k(   48) = (   0.3358564  -0.4198205   0.3598461), wk =   0.0380952

     Largest allocated arrays     est. size (Mb)     dimensions
     Largest temporary arrays     est. size (Mb)     dimensions

     Initial potential from superposition of free atoms

     Starting from uniform charge
     Starting wfc are    0 randomized atomic wfcs

     Writing output data file Prototype-La-cP8-Cr3Si.save

     Self-consistent Calculation

[...]

     iteration # 12     ecut=    40.00 Ry     beta=0.70
     CG style diagonalization
     c_bands:  1 eigenvalues not converged
     ethr =  1.60E-07,  avg # of iterations =  3.1

[...]

     total energy              =   -1511.28439840 Ry
     Harris-Foulkes estimate   =   -1511.28439863 Ry
     estimated scf accuracy    <       0.00000115 Ry

     iteration # 14     ecut=    40.00 Ry     beta=0.70
     CG style diagonalization
     ethr =  8.20E-10,  avg # of iterations =  4.0

     End of self-consistent calculation

[...]

          k = 0.3359-0.4198 0.3598 (  4510 PWs)   bands (ev):

   -44.2182 -44.2117 -44.1932 -44.1930 -44.1752 -44.1684 -33.3937 -33.3937
   -15.6059 -15.5462 -15.3951 -15.3942 -15.2480 -15.2201 -15.2190 -15.1971
   -15.1149 -15.1020 -15.0877 -15.0776 -15.0626 -15.0516 -15.0305 -15.0288
   -15.0185 -15.0183  -8.5337  -8.5331  -8.5304  -8.5302  -8.5287  -8.5286
    17.7570  17.7597  17.8622  17.9107  18.0172  18.0205  18.4589  18.4708
    18.5214  18.5393  18.6909  18.6945  18.8660  18.9029  18.9819  19.1518
    19.4318  19.4558  19.6937  19.7796  20.1606  20.1839  20.7305  20.8877
    21.0256  21.0566  21.4152  21.4285  21.6919  21.7805  22.9603  22.9713
    23.1427  23.2121  23.4114  23.4290  24.2031  24.2704  24.3590  24.4184
    24.4301  24.5590  25.1642  25.3448  25.4736  25.7188  26.4335  26.6342
    32.6430  32.8605  33.4210  33.6435

     the Fermi energy is    24.0741 ev

!    total energy              =   -1511.28439852 Ry
     Harris-Foulkes estimate   =   -1511.28439898 Ry
     estimated scf accuracy    <       0.00000055 Ry

     The total energy is the sum of the following terms:

     one-electron contribution =    -150.70570955 Ry
     hartree contribution      =     184.05948132 Ry
     xc contribution           =    -153.20844965 Ry
     ewald contribution        =   -1390.92827775 Ry
     smearing contrib. (-TS)   =      -0.50144288 Ry

     convergence has been achieved in  14 iterations

     Forces acting on atoms (Ry/au):

     atom    1 type  1   force =     0.00000000    0.00000000    0.00000000
     atom    2 type  1   force =     0.00000000    0.00000000    0.00000000
     atom    3 type  1   force =     0.00000000    0.00000000    0.00000000
     atom    4 type  1   force =     0.00000000    0.00000000    0.00000000
     atom    5 type  1   force =     0.00000000    0.00000000    0.00000000
     atom    6 type  1   force =     0.00000000    0.00000000    0.00000000
     atom    7 type  2   force =     0.00000000    0.00000000    0.00000000
     atom    8 type  2   force =     0.00000000    0.00000000    0.00000000

     Total force =     0.000000     Total SCF correction =     0.000000

     entering subroutine stress ...

          total   stress  (Ry/bohr**3)                   (kbar)     P=  -40.43
  -0.00027486   0.00000000   0.00000000        -40.43      0.00      0.00
   0.00000000  -0.00027486   0.00000000          0.00    -40.43      0.00
   0.00000000   0.00000000  -0.00027486          0.00      0.00    -40.43

     Writing output data file Prototype-La-cP8-Cr3Si.save

     General routines

     Parallel routines

   This run was terminated on:  23:17:30  22Mar2018

   JOB DONE.