     Program PWSCF v.5.0.2 starts on 22Mar2018 at 22:49: 0

     Current dimensions of program PWSCF are:
     Max number of different atomic species (ntypx) = 10
     Max number of k-points (npk) =  40000
     Max angular momentum in pseudopotentials (lmaxx) =  3
     Waiting for input...
     Reading input from standard input

     Subspace diagonalization in iterative solution of the eigenvalue problem:
     a serial algorithm will be used

     bravais-lattice index     =            0
     lattice parameter (alat)  =      12.0168  a.u.
     unit-cell volume          =    1187.3413 (a.u.)^3
     number of atoms/cell      =            8
     number of atomic types    =            2
     number of electrons       =       140.00
     number of Kohn-Sham states=           84
     kinetic-energy cutoff     =      40.0000  Ry
     charge density cutoff     =     160.0000  Ry
     convergence threshold     =      1.0E-04
     mixing beta               =       0.7000
     number of iterations used =            8  plain     mixing
     Exchange-correlation      = SLA-PZ-NOGX-NOGC ( 1 1 0 0 0)
     EXX-fraction              =        0.00
     nstep                     =           50

     celldm(1)=  12.016801  celldm(2)=   0.000000  celldm(3)=   0.000000
     celldm(4)=   0.000000  celldm(5)=   0.000000  celldm(6)=   0.000000

     crystal axes: (cart. coord. in units of alat)
               a(1) = (   1.000000   0.000000   0.000000 )
               a(2) = (  -0.500000   0.866025   0.000000 )
               a(3) = (   0.000000   0.000000   0.790093 )

     reciprocal axes: (cart. coord. in units 2 pi/alat)
               b(1) = (  1.000000  0.577350  0.000000 )
               b(2) = (  0.000000  1.154701  0.000000 )
               b(3) = (  0.000000  0.000000  1.265674 )

     PseudoPot. # 1 for Gd read from file:
     /home/cwx6513/pp.La/Gd.UPF
     MD5 check sum: 09a8be538722f05520810cb6aac0efd2
     Pseudo is Norm-conserving, Zval = 18.0
     Generated in analytical, separable form
     Using radial grid of 1263 points,  6 beta functions with:
                l(1) =   0
                l(2) =   0
                l(3) =   1
                l(4) =   1
                l(5) =   2
                l(6) =   3

     PseudoPot. # 2 for Sm read from file:
     /home/cwx6513/pp.La/Sm.UPF
     MD5 check sum: 5079e8b144a06bfcdbc14fb02b96ab09
     Pseudo is Norm-conserving, Zval = 16.0
     Generated in analytical, separable form
     Using radial grid of 1259 points,  6 beta functions with:
                l(1) =   0
                l(2) =   0
                l(3) =   1
                l(4) =   1
                l(5) =   2
                l(6) =   3

     atomic species   valence    mass     pseudopotential
        Mg            18.00    24.30500     Gd( 1.00)
        Cd            16.00   112.41100     Sm( 1.00)

     24 Sym. Ops., with inversion, found (12 have fractional translation)

   Cartesian axes

     site n.     atom                  positions (alat units)
         1           Mg  tau(   1) = (   0.2478935   0.7204716   0.1975233  )
         2           Mg  tau(   2) = (   0.7478935   0.1455538   0.5925699  )
         3           Mg  tau(   3) = (   0.2521065   0.1455538   0.5925699  )
         4           Mg  tau(   4) = (  -0.2478935   0.7204716   0.1975233  )
         5           Mg  tau(   5) = (   0.0000000   0.2911075   0.1975233  )
         6           Mg  tau(   6) = (   0.5000000   0.5749179   0.5925699  )
         7           Cd  tau(   7) = (   0.5000005   0.2886748   0.1975233  )
         8           Cd  tau(   8) = (  -0.0000005   0.5773506   0.5925699  )

     number of k points=    64  gaussian smearing, width (Ry)=  0.1000
                       cart. coord. in units 2pi/alat
        k(    1) = (   0.0000000   0.0000000   0.0000000), wk =   0.0095238
        k(    2) = (   0.0000000   0.0000000   0.1808105), wk =   0.0190476
        k(    3) = (   0.0000000   0.0000000   0.3616210), wk =   0.0190476
        k(    4) = (   0.0000000   0.0000000   0.5424315), wk =   0.0190476
        k(    5) = (   0.0000000   0.1924501   0.0000000), wk =   0.0190476
        k(    6) = (   0.0000000   0.1924501   0.1808105), wk =   0.0380952
        k(    7) = (   0.0000000   0.1924501   0.3616210), wk =   0.0380952
        k(    8) = (   0.0000000   0.1924501   0.5424315), wk =   0.0380952
        k(    9) = (   0.0000000   0.3849002   0.0000000), wk =   0.0190476
        k(   10) = (   0.0000000   0.3849002   0.1808105), wk =   0.0380952
        k(   11) = (   0.0000000   0.3849002   0.3616210), wk =   0.0380952
        k(   12) = (   0.0000000   0.3849002   0.5424315), wk =   0.0380952
        k(   13) = (   0.0000000  -0.5773503   0.0000000), wk =   0.0095238
        k(   14) = (   0.0000000  -0.5773503   0.1808105), wk =   0.0190476
        k(   15) = (   0.0000000  -0.5773503   0.3616210), wk =   0.0190476
        k(   16) = (   0.0000000  -0.5773503   0.5424315), wk =   0.0190476
        k(   17) = (   0.2000000   0.1154701   0.0000000), wk =   0.0190476
        k(   18) = (   0.2000000   0.1154701   0.1808105), wk =   0.0380952
        k(   19) = (   0.2000000   0.1154701   0.3616210), wk =   0.0380952
        k(   20) = (   0.2000000   0.1154701   0.5424315), wk =   0.0380952
        k(   21) = (   0.2000000   0.3079201   0.0000000), wk =   0.0190476
        k(   22) = (   0.2000000   0.3079201   0.1808105), wk =   0.0380952
        k(   23) = (   0.2000000   0.3079201   0.3616210), wk =   0.0380952
        k(   24) = (   0.2000000   0.3079201   0.5424315), wk =   0.0380952
        k(   25) = (   0.2000000   0.5003702   0.0000000), wk =   0.0190476
        k(   26) = (   0.2000000   0.5003702   0.1808105), wk =   0.0380952
        k(   27) = (   0.2000000   0.5003702   0.3616210), wk =   0.0380952
        k(   28) = (   0.2000000   0.5003702   0.5424315), wk =   0.0380952
        k(   29) = (   0.2000000  -0.4618802   0.0000000), wk =   0.0190476
        k(   30) = (   0.2000000  -0.4618802   0.1808105), wk =   0.0380952
        k(   31) = (   0.2000000  -0.4618802   0.3616210), wk =   0.0380952
        k(   32) = (   0.2000000  -0.4618802   0.5424315), wk =   0.0380952
        k(   33) = (   0.2000000  -0.2694301   0.0000000), wk =   0.0190476
        k(   34) = (   0.2000000  -0.2694301   0.1808105), wk =   0.0380952
        k(   35) = (   0.2000000  -0.2694301   0.3616210), wk =   0.0380952
        k(   36) = (   0.2000000  -0.2694301   0.5424315), wk =   0.0380952
        k(   37) = (   0.2000000  -0.0769800   0.0000000), wk =   0.0190476
        k(   38) = (   0.2000000  -0.0769800   0.1808105), wk =   0.0380952
        k(   39) = (   0.2000000  -0.0769800   0.3616210), wk =   0.0380952
        k(   40) = (   0.2000000  -0.0769800   0.5424315), wk =   0.0380952
        k(   41) = (   0.4000000   0.2309401   0.0000000), wk =   0.0190476
        k(   42) = (   0.4000000   0.2309401   0.1808105), wk =   0.0380952
        k(   43) = (   0.4000000   0.2309401   0.3616210), wk =   0.0380952
        k(   44) = (   0.4000000   0.2309401   0.5424315), wk =   0.0380952
        k(   45) = (   0.4000000   0.4233902   0.0000000), wk =   0.0190476
        k(   46) = (   0.4000000   0.4233902   0.1808105), wk =   0.0380952
        k(   47) = (   0.4000000   0.4233902   0.3616210), wk =   0.0380952
        k(   48) = (   0.4000000   0.4233902   0.5424315), wk =   0.0380952
        k(   49) = (   0.4000000   0.6158403   0.0000000), wk =   0.0190476
        k(   50) = (   0.4000000   0.6158403   0.1808105), wk =   0.0380952
        k(   51) = (   0.4000000   0.6158403   0.3616210), wk =   0.0380952
        k(   52) = (   0.4000000   0.6158403   0.5424315), wk =   0.0380952
        k(   53) = (   0.4000000  -0.3464102   0.0000000), wk =   0.0190476
        k(   54) = (   0.4000000  -0.3464102   0.1808105), wk =   0.0380952
        k(   55) = (   0.4000000  -0.3464102   0.3616210), wk =   0.0380952
        k(   56) = (   0.4000000  -0.3464102   0.5424315), wk =   0.0380952
        k(   57) = (   0.4000000  -0.1539601   0.0000000), wk =   0.0190476
        k(   58) = (   0.4000000  -0.1539601   0.1808105), wk =   0.0380952
        k(   59) = (   0.4000000  -0.1539601   0.3616210), wk =   0.0380952
        k(   60) = (   0.4000000  -0.1539601   0.5424315), wk =   0.0380952
        k(   61) = (   0.4000000   0.0384900   0.0000000), wk =   0.0190476
        k(   62) = (   0.4000000   0.0384900   0.1808105), wk =   0.0380952
        k(   63) = (   0.4000000   0.0384900   0.3616210), wk =   0.0380952
        k(   64) = (   0.4000000   0.0384900   0.5424315), wk =   0.0380952

     Largest allocated arrays     est. size (Mb)     dimensions
     Largest temporary arrays     est. size (Mb)     dimensions

     Initial potential from superposition of free atoms

     Starting from uniform charge
     Starting wfc are    0 randomized atomic wfcs

     Self-consistent Calculation

     iteration #  1     ecut=    40.00 Ry     beta=0.70
     CG style diagonalization
     ethr =  1.00E-02,  avg # of iterations = 15.8

     total energy              =   -1297.45359623 Ry
     Harris-Foulkes estimate   =   -1823.67939051 Ry
     estimated scf accuracy    <     673.85569978 Ry

     iteration #  2     ecut=    40.00 Ry     beta=0.70
     CG style diagonalization
     c_bands:  1 eigenvalues not converged
     c_bands:  1 eigenvalues not converged
     ethr =  1.00E-02,  avg # of iterations = 10.7

[...]

     End of self-consistent calculation

          k = 0.0000 0.0000 0.0000 (  5047 PWs)   bands (ev):

   -47.4454 -47.4085 -47.4084 -47.4041 -47.3889 -47.3889 -36.7787 -36.7783
   -18.6017 -18.5718 -18.4827 -18.4443 -18.4442 -18.4395 -18.4394 -18.4129
   -18.4128 -18.3208 -18.2384 -18.2384 -18.1699 -18.1662 -18.1662 -18.1541
   -18.1541 -18.1534 -11.8783 -11.8735 -11.8324 -11.8324 -11.8312 -11.8312
    13.6588  14.4637  14.4952  14.4993  14.4993  14.9632  15.1058  15.1059
    15.1093  15.1368  15.1368  16.4155  16.6403  16.6403  16.9913  16.9913
    17.0328  17.3463  17.4588  17.4588  17.6907  17.6907  17.8373  17.8373
    17.8491  17.8492  18.1650  18.1651  18.5371  18.7492  19.7056  20.0351
    20.0795  20.2954  20.2955  20.6466  20.6466  20.9711  20.9711  21.1695
    21.1695  21.3418  22.8485  22.8485  23.2747  24.2361  24.2361  24.7016
    26.8750  27.5158  27.5159  28.0528

[...]

     the Fermi energy is    20.4992 ev

!    total energy              =   -1511.50726012 Ry
     Harris-Foulkes estimate   =   -1511.50727454 Ry
     estimated scf accuracy    <       0.00001660 Ry

     The total energy is the sum of the following terms:

     one-electron contribution =    -226.00996308 Ry
     hartree contribution      =     204.91371809 Ry
     xc contribution           =    -151.86316238 Ry
     ewald contribution        =   -1337.96152415 Ry
     smearing contrib. (-TS)   =      -0.58632859 Ry

     convergence has been achieved in  12 iterations

     Forces acting on atoms (Ry/au):

     atom    1 type  1   force =     0.00549014    0.00316973    0.00000000
     atom    2 type  1   force =     0.00549014   -0.00316973    0.00000000
     atom    3 type  1   force =    -0.00549014   -0.00316973    0.00000000
[...]
        k(   25) = (   0.2117374   0.5297354   0.0000000), wk =   0.0190476
        k(   26) = (   0.2117374   0.5297354   0.1871409), wk =   0.0380952
        k(   27) = (   0.2117374   0.5297354   0.3742818), wk =   0.0380952
        k(   28) = (   0.2117374   0.5297354   0.5614228), wk =   0.0380952
        k(   29) = (   0.2117374  -0.4889865   0.0000000), wk =   0.0190476
        k(   30) = (   0.2117374  -0.4889865   0.1871409), wk =   0.0380952
        k(   31) = (   0.2117374  -0.4889865   0.3742818), wk =   0.0380952
        k(   32) = (   0.2117374  -0.4889865   0.5614228), wk =   0.0380952
        k(   33) = (   0.2117374  -0.2852422   0.0000000), wk =   0.0190476
        k(   34) = (   0.2117374  -0.2852422   0.1871409), wk =   0.0380952
        k(   35) = (   0.2117374  -0.2852422   0.3742818), wk =   0.0380952
        k(   36) = (   0.2117374  -0.2852422   0.5614228), wk =   0.0380952
        k(   37) = (   0.2117374  -0.0814978   0.0000000), wk =   0.0190476
        k(   38) = (   0.2117374  -0.0814978   0.1871409), wk =   0.0380952
        k(   39) = (   0.2117374  -0.0814978   0.3742818), wk =   0.0380952
        k(   40) = (   0.2117374  -0.0814978   0.5614228), wk =   0.0380952
        k(   41) = (   0.4234748   0.2444933   0.0000000), wk =   0.0190476
        k(   42) = (   0.4234748   0.2444933   0.1871409), wk =   0.0380952
        k(   43) = (   0.4234748   0.2444933   0.3742818), wk =   0.0380952
        k(   44) = (   0.4234748   0.2444933   0.5614228), wk =   0.0380952
        k(   45) = (   0.4234748   0.4482377   0.0000000), wk =   0.0190476
        k(   46) = (   0.4234748   0.4482377   0.1871409), wk =   0.0380952
        k(   47) = (   0.4234748   0.4482377   0.3742818), wk =   0.0380952
        k(   48) = (   0.4234748   0.4482377   0.5614228), wk =   0.0380952
        k(   49) = (   0.4234748   0.6519821   0.0000000), wk =   0.0190476
        k(   50) = (   0.4234748   0.6519821   0.1871409), wk =   0.0380952
        k(   51) = (   0.4234748   0.6519821   0.3742818), wk =   0.0380952
        k(   52) = (   0.4234748   0.6519821   0.5614228), wk =   0.0380952
        k(   53) = (   0.4234748  -0.3667399   0.0000000), wk =   0.0190476
        k(   54) = (   0.4234748  -0.3667399   0.1871409), wk =   0.0380952
        k(   55) = (   0.4234748  -0.3667399   0.3742818), wk =   0.0380952
        k(   56) = (   0.4234748  -0.3667399   0.5614228), wk =   0.0380952
        k(   57) = (   0.4234748  -0.1629955   0.0000000), wk =   0.0190476
        k(   58) = (   0.4234748  -0.1629955   0.1871409), wk =   0.0380952
        k(   59) = (   0.4234748  -0.1629955   0.3742818), wk =   0.0380952
        k(   60) = (   0.4234748  -0.1629955   0.5614228), wk =   0.0380952
        k(   61) = (   0.4234748   0.0407489   0.0000000), wk =   0.0190476
        k(   62) = (   0.4234748   0.0407489   0.1871409), wk =   0.0380952
        k(   63) = (   0.4234748   0.0407489   0.3742818), wk =   0.0380952
        k(   64) = (   0.4234748   0.0407489   0.5614228), wk =   0.0380952

[...]

     The maximum number of steps has been reached.

     End of BFGS Geometry Optimization
Begin final coordinates
     new unit-cell volume =   1023.51774 a.u.^3 (   151.66968 Ang^3 )

CELL_PARAMETERS (alat= 12.01680127)
   0.944566305   0.000000000   0.000000000
  -0.472283153   0.818018416   0.000000000
   0.000000000   0.000000000   0.763366692

ATOMIC_POSITIONS (crystal)
Mg       0.665112775   0.832556387   0.250000000
Mg       0.832556387   0.167443613   0.750000000
Mg       0.334887225   0.167443613   0.750000000
Mg       0.167443613   0.832556387   0.250000000
Mg       0.167443613   0.334887225   0.250000000
Mg       0.832556387   0.665112775   0.750000000
Cd       0.666667000   0.333333000   0.250000000
Cd       0.333333000   0.666667000   0.750000000
End final coordinates

     A final scf calculation at the relaxed structure.
     The G-vectors are recalculated for the final unit cell
     Results may differ from those at the preceding step.

     bravais-lattice index     =            0
     lattice parameter (alat)  =      12.0168  a.u.
     unit-cell volume          =    1023.5177 (a.u.)^3
     number of atoms/cell      =            8
     number of atomic types    =            2
     number of electrons       =       140.00
     number of Kohn-Sham states=           84
     kinetic-energy cutoff     =      40.0000  Ry
     charge density cutoff     =     160.0000  Ry
     convergence threshold     =      4.0E-05
     mixing beta               =       0.7000
     number of iterations used =            8  plain     mixing
     Exchange-correlation      = SLA-PZ-NOGX-NOGC ( 1 1 0 0 0)
     EXX-fraction              =        0.00

     celldm(1)=  12.016801  celldm(2)=   0.000000  celldm(3)=   0.000000
     celldm(4)=   0.000000  celldm(5)=   0.000000  celldm(6)=   0.000000

     crystal axes: (cart. coord. in units of alat)
               a(1) = (   0.944566   0.000000   0.000000 )
               a(2) = (  -0.472283   0.818018   0.000000 )
               a(3) = (   0.000000   0.000000   0.763367 )

     reciprocal axes: (cart. coord. in units 2 pi/alat)
               b(1) = (  1.058687  0.611233  0.000000 )
               b(2) = (  0.000000  1.222466  0.000000 )
               b(3) = (  0.000000  0.000000  1.309986 )

     PseudoPot. # 1 for Gd read from file:
     /home/cwx6513/pp.La/Gd.UPF
     MD5 check sum: 09a8be538722f05520810cb6aac0efd2
     Pseudo is Norm-conserving, Zval = 18.0
     Generated in analytical, separable form
     Using radial grid of 1263 points,  6 beta functions with:
                l(1) =   0
                l(2) =   0
                l(3) =   1
                l(4) =   1
                l(5) =   2
                l(6) =   3

     PseudoPot. # 2 for Sm read from file:
     /home/cwx6513/pp.La/Sm.UPF
     MD5 check sum: 5079e8b144a06bfcdbc14fb02b96ab09
     Pseudo is Norm-conserving, Zval = 16.0
     Generated in analytical, separable form
     Using radial grid of 1259 points,  6 beta functions with:
                l(1) =   0
                l(2) =   0
                l(3) =   1
                l(4) =   1
                l(5) =   2
                l(6) =   3

     atomic species   valence    mass     pseudopotential
        Mg            18.00    24.30500     Gd( 1.00)
        Cd            16.00   112.41100     Sm( 1.00)

     24 Sym. Ops., with inversion, found (12 have fractional translation)

   Cartesian axes

     site n.     atom                  positions (alat units)
         1           Mg  tau(   1) = (   0.2350408   0.6810465   0.1908417  )
         2           Mg  tau(   2) = (   0.7073239   0.1369720   0.5725250  )
         3           Mg  tau(   3) = (   0.2372424   0.1369720   0.5725250  )
         4           Mg  tau(   4) = (  -0.2350408   0.6810465   0.1908417  )
         5           Mg  tau(   5) = (   0.0000000   0.2739439   0.1908417  )
         6           Mg  tau(   6) = (   0.4722832   0.5440745   0.5725250  )
         7           Cd  tau(   7) = (   0.4722836   0.2726725   0.1908417  )
         8           Cd  tau(   8) = (  -0.0000005   0.5453459   0.5725250  )

     number of k points=    64  gaussian smearing, width (Ry)=  0.1000
                       cart. coord. in units 2pi/alat
        k(    1) = (   0.0000000   0.0000000   0.0000000), wk =   0.0095238
        k(    2) = (   0.0000000   0.0000000   0.1871409), wk =   0.0190476
        k(    3) = (   0.0000000   0.0000000   0.3742818), wk =   0.0190476
        k(    4) = (   0.0000000   0.0000000   0.5614228), wk =   0.0190476
        k(    5) = (   0.0000000   0.2037444   0.0000000), wk =   0.0190476
        k(    6) = (   0.0000000   0.2037444   0.1871409), wk =   0.0380952
        k(    7) = (   0.0000000   0.2037444   0.3742818), wk =   0.0380952
        k(    8) = (   0.0000000   0.2037444   0.5614228), wk =   0.0380952
        k(    9) = (   0.0000000   0.4074888   0.0000000), wk =   0.0190476
        k(   10) = (   0.0000000   0.4074888   0.1871409), wk =   0.0380952
        k(   11) = (   0.0000000   0.4074888   0.3742818), wk =   0.0380952
        k(   12) = (   0.0000000   0.4074888   0.5614228), wk =   0.0380952
        k(   13) = (   0.0000000  -0.6112332   0.0000000), wk =   0.0095238
        k(   14) = (   0.0000000  -0.6112332   0.1871409), wk =   0.0190476
        k(   15) = (   0.0000000  -0.6112332   0.3742818), wk =   0.0190476
        k(   16) = (   0.0000000  -0.6112332   0.5614228), wk =   0.0190476
        k(   17) = (   0.2117374   0.1222466   0.0000000), wk =   0.0190476
        k(   18) = (   0.2117374   0.1222466   0.1871409), wk =   0.0380952
        k(   19) = (   0.2117374   0.1222466   0.3742818), wk =   0.0380952
        k(   20) = (   0.2117374   0.1222466   0.5614228), wk =   0.0380952
        k(   21) = (   0.2117374   0.3259910   0.0000000), wk =   0.0190476
        k(   22) = (   0.2117374   0.3259910   0.1871409), wk =   0.0380952
        k(   23) = (   0.2117374   0.3259910   0.3742818), wk =   0.0380952
        k(   24) = (   0.2117374   0.3259910   0.5614228), wk =   0.0380952
        k(   25) = (   0.2117374   0.5297354   0.0000000), wk =   0.0190476
        k(   26) = (   0.2117374   0.5297354   0.1871409), wk =   0.0380952
        k(   27) = (   0.2117374   0.5297354   0.3742818), wk =   0.0380952
        k(   28) = (   0.2117374   0.5297354   0.5614228), wk =   0.0380952
        k(   29) = (   0.2117374  -0.4889865   0.0000000), wk =   0.0190476
        k(   30) = (   0.2117374  -0.4889865   0.1871409), wk =   0.0380952
        k(   31) = (   0.2117374  -0.4889865   0.3742818), wk =   0.0380952
        k(   32) = (   0.2117374  -0.4889865   0.5614228), wk =   0.0380952
        k(   33) = (   0.2117374  -0.2852422   0.0000000), wk =   0.0190476
        k(   34) = (   0.2117374  -0.2852422   0.1871409), wk =   0.0380952
        k(   35) = (   0.2117374  -0.2852422   0.3742818), wk =   0.0380952
        k(   36) = (   0.2117374  -0.2852422   0.5614228), wk =   0.0380952
        k(   37) = (   0.2117374  -0.0814978   0.0000000), wk =   0.0190476
        k(   38) = (   0.2117374  -0.0814978   0.1871409), wk =   0.0380952
        k(   39) = (   0.2117374  -0.0814978   0.3742818), wk =   0.0380952
        k(   40) = (   0.2117374  -0.0814978   0.5614228), wk =   0.0380952
        k(   41) = (   0.4234748   0.2444933   0.0000000), wk =   0.0190476
        k(   42) = (   0.4234748   0.2444933   0.1871409), wk =   0.0380952
        k(   43) = (   0.4234748   0.2444933   0.3742818), wk =   0.0380952
        k(   44) = (   0.4234748   0.2444933   0.5614228), wk =   0.0380952
        k(   45) = (   0.4234748   0.4482377   0.0000000), wk =   0.0190476
        k(   46) = (   0.4234748   0.4482377   0.1871409), wk =   0.0380952
        k(   47) = (   0.4234748   0.4482377   0.3742818), wk =   0.0380952
        k(   48) = (   0.4234748   0.4482377   0.5614228), wk =   0.0380952
        k(   49) = (   0.4234748   0.6519821   0.0000000), wk =   0.0190476
        k(   50) = (   0.4234748   0.6519821   0.1871409), wk =   0.0380952
        k(   51) = (   0.4234748   0.6519821   0.3742818), wk =   0.0380952
        k(   52) = (   0.4234748   0.6519821   0.5614228), wk =   0.0380952
        k(   53) = (   0.4234748  -0.3667399   0.0000000), wk =   0.0190476
        k(   54) = (   0.4234748  -0.3667399   0.1871409), wk =   0.0380952
        k(   55) = (   0.4234748  -0.3667399   0.3742818), wk =   0.0380952
        k(   56) = (   0.4234748  -0.3667399   0.5614228), wk =   0.0380952
        k(   57) = (   0.4234748  -0.1629955   0.0000000), wk =   0.0190476
        k(   58) = (   0.4234748  -0.1629955   0.1871409), wk =   0.0380952
        k(   59) = (   0.4234748  -0.1629955   0.3742818), wk =   0.0380952
        k(   60) = (   0.4234748  -0.1629955   0.5614228), wk =   0.0380952
        k(   61) = (   0.4234748   0.0407489   0.0000000), wk =   0.0190476
        k(   62) = (   0.4234748   0.0407489   0.1871409), wk =   0.0380952
        k(   63) = (   0.4234748   0.0407489   0.3742818), wk =   0.0380952
        k(   64) = (   0.4234748   0.0407489   0.5614228), wk =   0.0380952

     Largest allocated arrays     est. size (Mb)     dimensions
     Largest temporary arrays     est. size (Mb)     dimensions

     Initial potential from superposition of free atoms

     Starting from uniform charge
     Starting wfc are    0 randomized atomic wfcs

     Writing output data file Prototype-La-hP8-Mg3Cd.save

     Self-consistent Calculation

[...]

     iteration # 10     ecut=    40.00 Ry     beta=0.70
     CG style diagonalization
     c_bands:  1 eigenvalues not converged
     c_bands:  1 eigenvalues not converged
     c_bands:  2 eigenvalues not converged
     c_bands:  1 eigenvalues not converged
     c_bands:  1 eigenvalues not converged
     c_bands:  1 eigenvalues not converged
     c_bands:  1 eigenvalues not converged
     c_bands:  2 eigenvalues not converged
     c_bands:  1 eigenvalues not converged
     c_bands:  2 eigenvalues not converged
     c_bands:  1 eigenvalues not converged
     c_bands:  1 eigenvalues not converged
     c_bands:  1 eigenvalues not converged
     c_bands:  1 eigenvalues not converged
     c_bands:  1 eigenvalues not converged
     c_bands:  1 eigenvalues not converged
     c_bands:  1 eigenvalues not converged
     c_bands:  1 eigenvalues not converged
     c_bands:  1 eigenvalues not converged
     c_bands:  1 eigenvalues not converged
     c_bands:  1 eigenvalues not converged
     c_bands:  1 eigenvalues not converged
     c_bands:  1 eigenvalues not converged
     c_bands:  1 eigenvalues not converged
     c_bands:  1 eigenvalues not converged
     ethr =  3.27E-07,  avg # of iterations =  5.5

     total energy              =   -1511.39294649 Ry
     Harris-Foulkes estimate   =   -1511.39320617 Ry
     estimated scf accuracy    <       0.00060754 Ry

     iteration # 11     ecut=    40.00 Ry     beta=0.70
     CG style diagonalization
     ethr =  3.27E-07,  avg # of iterations =  3.5

     End of self-consistent calculation

[...]

          k = 0.4235 0.0407 0.5614 (  4375 PWs)   bands (ev):

   -43.5404 -43.5250 -43.5024 -43.4925 -43.4843 -43.4778 -32.5676 -32.5675
   -14.8095 -14.8024 -14.7719 -14.7570 -14.7066 -14.6912 -14.5480 -14.4957
   -14.4441 -14.4399 -14.3874 -14.3504 -14.3129 -14.3048 -14.2928 -14.2579
   -14.2341 -14.2305  -7.7395  -7.7385  -7.7119  -7.7109  -7.6996  -7.6979
    18.0179  18.0532  18.1821  18.3610  18.3851  18.5742  18.8181  18.9172
    18.9496  19.0420  19.1811  19.3724  19.4771  19.6068  19.6302  19.7631
    20.3487  20.4679  20.8632  21.1367  21.1746  21.2972  21.4293  21.5430
    21.6575  21.7974  22.2608  22.3502  22.5215  22.5636  22.8247  22.8796
    23.4042  23.8773  24.2486  24.4584  24.5917  24.7111  24.8617  25.1961
    25.3504  25.6183  25.7473  26.3253  26.9978  27.4280  29.7661  30.0627
    32.8358  33.0846  34.0648  34.4806

     the Fermi energy is    24.9148 ev

!    total energy              =   -1511.39300615 Ry
     Harris-Foulkes estimate   =   -1511.39303108 Ry
     estimated scf accuracy    <       0.00002866 Ry

     The total energy is the sum of the following terms:

     one-electron contribution =    -127.84680955 Ry
     hartree contribution      =     176.28183211 Ry
     xc contribution           =    -153.30931581 Ry
     ewald contribution        =   -1406.00775515 Ry
     smearing contrib. (-TS)   =      -0.51095775 Ry

     convergence has been achieved in  11 iterations

     Forces acting on atoms (Ry/au):

     atom    1 type  1   force =    -0.01792325   -0.01034799    0.00000000
     atom    2 type  1   force =    -0.01792325    0.01034799    0.00000000
     atom    3 type  1   force =     0.01792325    0.01034799    0.00000000
     atom    4 type  1   force =     0.01792325   -0.01034799    0.00000000
     atom    5 type  1   force =     0.00000000    0.02069598    0.00000000
     atom    6 type  1   force =     0.00000000   -0.02069598    0.00000000
     atom    7 type  2   force =     0.00000000    0.00000000    0.00000000
     atom    8 type  2   force =     0.00000000    0.00000000    0.00000000

     Total force =     0.050695     Total SCF correction =     0.000000

     entering subroutine stress ...

          total   stress  (Ry/bohr**3)                   (kbar)     P=  -37.84
  -0.00035234   0.00000000   0.00000000        -51.83      0.00      0.00
   0.00000000  -0.00035234   0.00000000          0.00    -51.83      0.00
   0.00000000   0.00000000  -0.00006708          0.00      0.00     -9.87

     Writing output data file Prototype-La-hP8-Mg3Cd.save

     General routines

     Parallel routines

   This run was terminated on:  23:37:50  22Mar2018

   JOB DONE.