     Program PWSCF v.5.0.2 starts on 22Mar2018 at 22:49: 0

     Current dimensions of program PWSCF are:
     Max number of different atomic species (ntypx) = 10
     Max number of k-points (npk) =  40000
     Max angular momentum in pseudopotentials (lmaxx) =  3
     Waiting for input...
     Reading input from standard input

     Subspace diagonalization in iterative solution of the eigenvalue problem:
     a serial algorithm will be used

     bravais-lattice index     =            0
     lattice parameter (alat)  =       7.0151  a.u.
     unit-cell volume          =     862.2778 (a.u.)^3
     number of atoms/cell      =           12
     number of atomic types    =            2
     number of electrons       =       208.00
     number of Kohn-Sham states=          125
     kinetic-energy cutoff     =      40.0000  Ry
     charge density cutoff     =     160.0000  Ry
     convergence threshold     =      1.0E-04
     mixing beta               =       0.7000
     number of iterations used =            8  plain     mixing
     Exchange-correlation      = SLA-PZ-NOGX-NOGC ( 1 1 0 0 0)
     EXX-fraction              =        0.00
     nstep                     =           50

     celldm(1)=   7.015105  celldm(2)=   0.000000  celldm(3)=   0.000000
     celldm(4)=   0.000000  celldm(5)=   0.000000  celldm(6)=   0.000000

     crystal axes: (cart. coord. in units of alat)
               a(1) = (   1.000000   0.000000   0.000000 )
               a(2) = (   0.000000   1.315963   0.000000 )
               a(3) = (   0.000000   0.000000   1.898020 )

     reciprocal axes: (cart. coord. in units 2 pi/alat)
               b(1) = (  1.000000  0.000000  0.000000 )
               b(2) = (  0.000000  0.759900  0.000000 )
               b(3) = (  0.000000  0.000000  0.526865 )

     PseudoPot. # 1 for Gd read from file:
     /home/cwx6513/pp.La/Gd.UPF
     MD5 check sum: 09a8be538722f05520810cb6aac0efd2
     Pseudo is Norm-conserving, Zval = 18.0
     Generated in analytical, separable form
     Using radial grid of 1263 points,  6 beta functions with:
                l(1) =   0
                l(2) =   0
                l(3) =   1
                l(4) =   1
                l(5) =   2
                l(6) =   3

     PseudoPot. # 2 for Sm read from file:
     /home/cwx6513/pp.La/Sm.UPF
     MD5 check sum: 5079e8b144a06bfcdbc14fb02b96ab09
     Pseudo is Norm-conserving, Zval = 16.0
     Generated in analytical, separable form
     Using radial grid of 1259 points,  6 beta functions with:
                l(1) =   0
                l(2) =   0
                l(3) =   1
                l(4) =   1
                l(5) =   2
                l(6) =   3

     atomic species   valence    mass     pseudopotential
        Co            18.00    58.93320     Gd( 1.00)
        Si            16.00    28.08550     Sm( 1.00)

      8 Sym. Ops., with inversion, found ( 6 have fractional translation)

   Cartesian axes

     site n.     atom                  positions (alat units)
         1           Co  tau(   1) = (   0.7500000   1.0875135   0.8270358  )
         2           Co  tau(   2) = (   0.2500000   0.2284499   1.0709846  )
         3           Co  tau(   3) = (   0.7500000   0.4295318   0.1219744  )
         4           Co  tau(   4) = (   0.2500000   0.8864316   1.7760460  )
         5           Co  tau(   5) = (   0.2500000   0.7067855   0.5358966  )
         6           Co  tau(   6) = (   0.7500000   0.6091779   1.3621238  )
         7           Co  tau(   7) = (   0.2500000   0.0488038   0.4131136  )
         8           Co  tau(   8) = (   0.7500000   1.2671596   1.4849068  )
         9           Si  tau(   9) = (   0.2500000   0.2669484   1.6960710  )
        10           Si  tau(  10) = (   0.7500000   1.0490149   0.2019494  )
        11           Si  tau(  11) = (   0.2500000   0.9249301   1.1509596  )
        12           Si  tau(  12) = (   0.7500000   0.3910333   0.7470608  )

     number of k points=    12  gaussian smearing, width (Ry)=  0.1000
                       cart. coord. in units 2pi/alat
        k(    1) = (   0.0000000   0.0000000   0.0000000), wk =   0.0833333
        k(    2) = (   0.0000000   0.0000000   0.1317162), wk =   0.1666667
        k(    3) = (   0.0000000   0.0000000  -0.2634324), wk =   0.0833333
        k(    4) = (   0.0000000   0.2532999   0.0000000), wk =   0.1666667
        k(    5) = (   0.0000000   0.2532999   0.1317162), wk =   0.3333333
        k(    6) = (   0.0000000   0.2532999  -0.2634324), wk =   0.1666667
        k(    7) = (  -0.5000000   0.0000000   0.0000000), wk =   0.0833333
        k(    8) = (  -0.5000000   0.0000000   0.1317162), wk =   0.1666667
        k(    9) = (  -0.5000000   0.0000000  -0.2634324), wk =   0.0833333
        k(   10) = (  -0.5000000   0.2532999   0.0000000), wk =   0.1666667
        k(   11) = (  -0.5000000   0.2532999   0.1317162), wk =   0.3333333
        k(   12) = (  -0.5000000   0.2532999  -0.2634324), wk =   0.1666667

     Largest allocated arrays     est. size (Mb)     dimensions
     Largest temporary arrays     est. size (Mb)     dimensions

     Initial potential from superposition of free atoms

     Starting from uniform charge
     Starting wfc are    0 randomized atomic wfcs

     Self-consistent Calculation

     iteration #  1     ecut=    40.00 Ry     beta=0.70
     CG style diagonalization
     ethr =  1.00E-02,  avg # of iterations = 10.1

     total energy              =   -2114.26696078 Ry
     Harris-Foulkes estimate   =   -2376.22581970 Ry
     estimated scf accuracy    <     354.62026406 Ry

[...]

     iteration #  6     ecut=    40.00 Ry     beta=0.70
     CG style diagonalization
     c_bands:  1 eigenvalues not converged
     c_bands:  1 eigenvalues not converged
     c_bands:  1 eigenvalues not converged
     ethr =  6.26E-05,  avg # of iterations =  4.1

[...]

     End of self-consistent calculation

          k = 0.0000 0.0000 0.0000 (  3675 PWs)   bands (ev):

   -23.3076 -22.8929 -22.8213 -22.6085 -22.5273 -22.4010 -22.3860 -22.3659
   -10.7358 -10.7046 -10.6360 -10.4719   3.5604   3.8886   4.2793   4.3396
     4.4493   4.7271   4.7669   4.8811   4.9761   5.2290   5.5925   5.6494
     5.7030   5.7446   5.7639   5.8336   5.9910   6.2961   6.3227   6.4222
     6.6215   6.6930   7.1658   7.3248  13.3928  13.5456  13.6015  13.6183
    13.8418  14.0740  14.2052  14.2255  14.2614  14.3585  14.4633  14.5289
    33.2470  33.2620  33.4038  34.1049  34.1234  34.3150  34.4905  34.7625
    34.8808  35.9381  36.1005  36.5103  36.9451  37.2090  37.5696  37.5805
    37.8119  38.2583  38.4857  39.0506  39.4958  39.7472  39.8792  40.3102
    40.3211  40.3968  40.8843  41.1889  41.1914  41.7037  41.7398  41.8070
    41.8964  42.4520  42.4993  42.6459  43.1774  43.6757  44.0171  44.8743
    44.9277  45.0310  45.2926  45.3302  46.1881  46.3396  46.9249  47.2189
    47.7577  47.8863  47.8965  48.8006  49.1745  49.2012  49.3724  49.4025
    50.1876  50.6447  50.8775  51.0474  51.0878  51.7475  52.4490  53.2149
    53.4660  55.2102  55.3958  55.6853  55.9344  56.1394  56.5373  56.8291
    57.1235  57.1914  57.2753  57.6383  58.4552

[...]

          k =-0.5000 0.0000 0.0000 (  3722 PWs)   bands (ev):

[...]

     the Fermi energy is    49.2976 ev

!    total energy              =   -2205.61183798 Ry
     Harris-Foulkes estimate   =   -2205.61188344 Ry
     estimated scf accuracy    <       0.00005042 Ry

     The total energy is the sum of the following terms:

     one-electron contribution =     414.28283798 Ry
     hartree contribution      =     126.30895663 Ry
     xc contribution           =    -241.85140263 Ry
     ewald contribution        =   -2503.93721407 Ry
     smearing contrib. (-TS)   =      -0.41501588 Ry

     convergence has been achieved in   9 iterations

     Forces acting on atoms (Ry/au):

     atom    1 type  1   force =     0.00000000   -0.05842953   -0.06526054
     atom    2 type  1   force =     0.00000000    0.05842953    0.06526054
     atom    3 type  1   force =     0.00000000   -0.05842953    0.06526054
     atom    4 type  1   force =     0.00000000    0.05842953   -0.06526054
     atom    5 type  1   force =     0.00000000    0.16787580   -0.26138090
     atom    6 type  1   force =     0.00000000   -0.16787580    0.26138090
     atom    7 type  1   force =     0.00000000    0.16787580    0.26138090
     atom    8 type  1   force =     0.00000000   -0.16787580   -0.26138090
     atom    9 type  2   force =     0.00000000   -0.17394017   -0.00591550
     atom   10 type  2   force =     0.00000000    0.17394017    0.00591550
     atom   11 type  2   force =     0.00000000   -0.17394017    0.00591550
     atom   12 type  2   force =     0.00000000    0.17394017   -0.00591550

     Total force =     0.733390     Total SCF correction =     0.000000

     entering subroutine stress ...

          total   stress  (Ry/bohr**3)                   (kbar)     P= 6734.02
   0.04814355   0.00000000   0.00000000       7082.16      0.00      0.00
   0.00000000   0.04341265   0.00000000          0.00   6386.22      0.00
   0.00000000   0.00000000   0.04577474          0.00      0.00   6733.69

     BFGS Geometry Optimization

     number of scf cycles    =   1
     number of bfgs steps    =   0

     enthalpy new            =   -2205.6118379802 Ry

     new trust radius        =       0.5000000000 bohr
     new conv_thr            =       0.0001000000 Ry

     new unit-cell volume =   1089.07918 a.u.^3 (   161.38488 Ang^3 )

CELL_PARAMETERS (alat=  7.01510508)
   1.085136619   0.000000000   0.000000000
   0.000000000   1.416990588   0.000000000
   0.000000000   0.000000000   2.051660651

ATOMIC_POSITIONS (crystal)
Co       0.750000000   0.825953294   0.435389300
Co       0.250000000   0.174046706   0.564610700
Co       0.750000000   0.325953294   0.064610700
Co       0.250000000   0.674046706   0.935389300
Co       0.250000000   0.538372318   0.280956400
Co       0.750000000   0.461627682   0.719043600
Co       0.250000000   0.038372318   0.219043600
Co       0.750000000   0.961627682   0.780956400
Si       0.250000000   0.201521215   0.893568574
Si       0.750000000   0.798478785   0.106431426
Si       0.250000000   0.701521215   0.606431426
Si       0.750000000   0.298478785   0.393568574

     Writing output data file Prototype-La-oP12-Co2Si.save
     NEW-OLD atomic charge density approx. for the potential
     NEW k-points:
        k(    1) = (   0.0000000   0.0000000   0.0000000), wk =   0.0833333
        k(    2) = (   0.0000000   0.0000000   0.1218525), wk =   0.1666667
        k(    3) = (   0.0000000   0.0000000  -0.2437050), wk =   0.0833333
        k(    4) = (   0.0000000   0.2352403   0.0000000), wk =   0.1666667
        k(    5) = (   0.0000000   0.2352403   0.1218525), wk =   0.3333333
        k(    6) = (   0.0000000   0.2352403  -0.2437050), wk =   0.1666667
        k(    7) = (  -0.4607715   0.0000000   0.0000000), wk =   0.0833333
        k(    8) = (  -0.4607715   0.0000000   0.1218525), wk =   0.1666667
        k(    9) = (  -0.4607715   0.0000000  -0.2437050), wk =   0.0833333
        k(   10) = (  -0.4607715   0.2352403   0.0000000), wk =   0.1666667
        k(   11) = (  -0.4607715   0.2352403   0.1218525), wk =   0.3333333
        k(   12) = (  -0.4607715   0.2352403  -0.2437050), wk =   0.1666667

[...]

     enthalpy old            =   -2205.6118379802 Ry
     enthalpy new            =   -2211.8966512897 Ry

     CASE: enthalpy_new < enthalpy_old

     small trust_radius: resetting bfgs history

     new trust radius        =       2.4046386688 bohr
     new conv_thr            =       0.0001000000 Ry

[...]

          total   stress  (Ry/bohr**3)                   (kbar)     P=-1352.08
  -0.00949653   0.00000000   0.00000000      -1396.99      0.00      0.00
   0.00000000  -0.00885695   0.00000000          0.00  -1302.90      0.00
   0.00000000   0.00000000  -0.00922038          0.00      0.00  -1356.36

     number of scf cycles    =   3
     number of bfgs steps    =   2

     enthalpy old            =   -2211.8966512897 Ry
     enthalpy new            =   -2202.9251079739 Ry

     CASE: enthalpy_new > enthalpy_old

     new trust radius        =       0.8843538749 bohr

     trust_radius < trust_radius_min

     resetting bfgs history

     Message from routine bfgs:
     history already reset at previous step: stopping
     new conv_thr            =       0.0001000000 Ry

     new unit-cell volume =   1303.22166 a.u.^3 (   193.11752 Ang^3 )

[...]

ATOMIC_POSITIONS (crystal)
Co       0.750000000   0.825452789   0.435097584
Co       0.250000000   0.174547211   0.564902416
Co       0.750000000   0.325452789   0.064902416
Co       0.250000000   0.674547211   0.935097584
Co       0.250000000   0.539734434   0.279690736
Co       0.750000000   0.460265566   0.720309264
Co       0.250000000   0.039734434   0.220309264
Co       0.750000000   0.960265566   0.779690736
Si       0.250000000   0.200165172   0.893495770
Si       0.750000000   0.799834828   0.106504230
Si       0.250000000   0.700165172   0.606504230
Si       0.750000000   0.299834828   0.393495770

     Writing output data file Prototype-La-oP12-Co2Si.save
     NEW-OLD atomic charge density approx. for the potential
     NEW k-points:
        k(    1) = (   0.0000000   0.0000000   0.0000000), wk =   0.0833333
        k(    2) = (   0.0000000   0.0000000   0.1146554), wk =   0.1666667
        k(    3) = (   0.0000000   0.0000000  -0.2293109), wk =   0.0833333
        k(    4) = (   0.0000000   0.2227233   0.0000000), wk =   0.1666667
        k(    5) = (   0.0000000   0.2227233   0.1146554), wk =   0.3333333
        k(    6) = (   0.0000000   0.2227233  -0.2293109), wk =   0.1666667
        k(    7) = (  -0.4322278   0.0000000   0.0000000), wk =   0.0833333
        k(    8) = (  -0.4322278   0.0000000   0.1146554), wk =   0.1666667
        k(    9) = (  -0.4322278   0.0000000  -0.2293109), wk =   0.0833333
        k(   10) = (  -0.4322278   0.2227233   0.0000000), wk =   0.1666667
        k(   11) = (  -0.4322278   0.2227233   0.1146554), wk =   0.3333333
        k(   12) = (  -0.4322278   0.2227233  -0.2293109), wk =   0.1666667

[...]

     The maximum number of steps has been reached.

     End of BFGS Geometry Optimization
Begin final coordinates
     new unit-cell volume =   1303.22166 a.u.^3 (   193.11752 Ang^3 )

CELL_PARAMETERS (alat=  7.01510508)
   1.156797374   0.000000000   0.000000000
   0.000000000   1.496625436   0.000000000
   0.000000000   0.000000000   2.180445972

ATOMIC_POSITIONS (crystal)
Co       0.750000000   0.825452789   0.435097584
Co       0.250000000   0.174547211   0.564902416
Co       0.750000000   0.325452789   0.064902416
Co       0.250000000   0.674547211   0.935097584
Co       0.250000000   0.539734434   0.279690736
Co       0.750000000   0.460265566   0.720309264
Co       0.250000000   0.039734434   0.220309264
Co       0.750000000   0.960265566   0.779690736
Si       0.250000000   0.200165172   0.893495770
Si       0.750000000   0.799834828   0.106504230
Si       0.250000000   0.700165172   0.606504230
Si       0.750000000   0.299834828   0.393495770
End final coordinates

     A final scf calculation at the relaxed structure.
     The G-vectors are recalculated for the final unit cell
     Results may differ from those at the preceding step.

     bravais-lattice index     =            0
     lattice parameter (alat)  =       7.0151  a.u.
     unit-cell volume          =    1303.2217 (a.u.)^3
     number of atoms/cell      =           12
     number of atomic types    =            2
     number of electrons       =       208.00
     number of Kohn-Sham states=          125
     kinetic-energy cutoff     =      40.0000  Ry
     charge density cutoff     =     160.0000  Ry
     convergence threshold     =      1.0E-04
     mixing beta               =       0.7000
     number of iterations used =            8  plain     mixing
     Exchange-correlation      = SLA-PZ-NOGX-NOGC ( 1 1 0 0 0)
     EXX-fraction              =        0.00

     celldm(1)=   7.015105  celldm(2)=   0.000000  celldm(3)=   0.000000
     celldm(4)=   0.000000  celldm(5)=   0.000000  celldm(6)=   0.000000

     crystal axes: (cart. coord. in units of alat)
               a(1) = (   1.156797   0.000000   0.000000 )
               a(2) = (   0.000000   1.496625   0.000000 )
               a(3) = (   0.000000   0.000000   2.180446 )

     reciprocal axes: (cart. coord. in units 2 pi/alat)
               b(1) = (  0.864456  0.000000  0.000000 )
               b(2) = (  0.000000  0.668170  0.000000 )
               b(3) = (  0.000000  0.000000  0.458622 )

     PseudoPot. # 1 for Gd read from file:
     /home/cwx6513/pp.La/Gd.UPF
     MD5 check sum: 09a8be538722f05520810cb6aac0efd2
     Pseudo is Norm-conserving, Zval = 18.0
     Generated in analytical, separable form
     Using radial grid of 1263 points,  6 beta functions with:
                l(1) =   0
                l(2) =   0
                l(3) =   1
                l(4) =   1
                l(5) =   2
                l(6) =   3

     PseudoPot. # 2 for Sm read from file:
     /home/cwx6513/pp.La/Sm.UPF
     MD5 check sum: 5079e8b144a06bfcdbc14fb02b96ab09
     Pseudo is Norm-conserving, Zval = 16.0
     Generated in analytical, separable form
     Using radial grid of 1259 points,  6 beta functions with:
                l(1) =   0
                l(2) =   0
                l(3) =   1
                l(4) =   1
                l(5) =   2
                l(6) =   3

     atomic species   valence    mass     pseudopotential
        Co            18.00    58.93320     Gd( 1.00)
        Si            16.00    28.08550     Sm( 1.00)

      8 Sym. Ops., with inversion, found ( 6 have fractional translation)

   Cartesian axes

     site n.     atom                  positions (alat units)
         1           Co  tau(   1) = (   0.8675980   1.2353936   0.9487068  )
         2           Co  tau(   2) = (   0.2891993   0.2612318   1.2317392  )
         3           Co  tau(   3) = (   0.8675980   0.4870809   0.1415162  )
         4           Co  tau(   4) = (   0.2891993   1.0095445   2.0389298  )
         5           Co  tau(   5) = (   0.2891993   0.8077803   0.6098505  )
         6           Co  tau(   6) = (   0.8675980   0.6888452   1.5705954  )
         7           Co  tau(   7) = (   0.2891993   0.0594676   0.4803724  )
         8           Co  tau(   8) = (   0.8675980   1.4371579   1.7000735  )
         9           Si  tau(   9) = (   0.2891993   0.2995723   1.9482193  )
        10           Si  tau(  10) = (   0.8675980   1.1970531   0.2322267  )
        11           Si  tau(  11) = (   0.2891993   1.0478850   1.3224497  )
        12           Si  tau(  12) = (   0.8675980   0.4487404   0.8579963  )

     number of k points=    12  gaussian smearing, width (Ry)=  0.1000
                       cart. coord. in units 2pi/alat
        k(    1) = (   0.0000000   0.0000000   0.0000000), wk =   0.0833333
        k(    2) = (   0.0000000   0.0000000   0.1146554), wk =   0.1666667
        k(    3) = (   0.0000000   0.0000000  -0.2293109), wk =   0.0833333
        k(    4) = (   0.0000000   0.2227233   0.0000000), wk =   0.1666667
        k(    5) = (   0.0000000   0.2227233   0.1146554), wk =   0.3333333
        k(    6) = (   0.0000000   0.2227233  -0.2293109), wk =   0.1666667
        k(    7) = (  -0.4322278   0.0000000   0.0000000), wk =   0.0833333
        k(    8) = (  -0.4322278   0.0000000   0.1146554), wk =   0.1666667
        k(    9) = (  -0.4322278   0.0000000  -0.2293109), wk =   0.0833333
        k(   10) = (  -0.4322278   0.2227233   0.0000000), wk =   0.1666667
        k(   11) = (  -0.4322278   0.2227233   0.1146554), wk =   0.3333333
        k(   12) = (  -0.4322278   0.2227233  -0.2293109), wk =   0.1666667

     Largest allocated arrays     est. size (Mb)     dimensions
     Largest temporary arrays     est. size (Mb)     dimensions

     Initial potential from superposition of free atoms

     Starting from uniform charge
     Starting wfc are    0 randomized atomic wfcs

     Writing output data file Prototype-La-oP12-Co2Si.save

     Self-consistent Calculation

[...]

     iteration # 10     ecut=    40.00 Ry     beta=0.70
     CG style diagonalization
     c_bands:  2 eigenvalues not converged
     c_bands:  1 eigenvalues not converged
     ethr =  4.68E-07,  avg # of iterations =  3.3

     total energy              =   -2215.91786004 Ry
     Harris-Foulkes estimate   =   -2215.91802668 Ry
     estimated scf accuracy    <       0.00039864 Ry

     iteration # 11     ecut=    40.00 Ry     beta=0.70
     CG style diagonalization
     ethr =  1.92E-07,  avg # of iterations =  3.5

     End of self-consistent calculation

[...]

          k = 0.0000 0.2227-0.2293 (  5554 PWs)   bands (ev):

[...]

          k =-0.4322 0.2227-0.2293 (  5560 PWs)   bands (ev):

   -38.6209 -38.6209 -38.6193 -38.6193 -38.5236 -38.5236 -38.4827 -38.4827
   -27.2198 -27.2198 -27.2157 -27.2157 -10.1448 -10.1448  -9.9930  -9.9930
    -9.9838  -9.9838  -9.9480  -9.9480  -9.8300  -9.8300  -9.7211  -9.7211
    -9.5918  -9.5918  -9.4763  -9.4763  -9.4741  -9.4741  -9.4384  -9.4384
    -9.3467  -9.3467  -9.2889  -9.2889  -2.6210  -2.6210  -2.5744  -2.5744
    -2.4970  -2.4970  -2.4937  -2.4937  -2.4006  -2.4006  -2.3966  -2.3966
    21.9438  21.9438  22.5055  22.5055  22.5884  22.5884  22.8567  22.8567
    23.0076  23.0076  23.4091  23.4091  23.5494  23.5494  23.7241  23.7241
    23.8236  23.8236  24.1121  24.1121  24.1893  24.1893  24.5001  24.5001
    24.5889  24.5889  25.1107  25.1107  25.1800  25.1800  25.5085  25.5085
    25.7043  25.7043  26.3810  26.3810  26.6249  26.6249  27.0297  27.0297
    27.2594  27.2594  27.4934  27.4934  28.6089  28.6089  28.6995  28.6995
    29.1542  29.1542  29.3125  29.3125  29.6824  29.6824  30.0022  30.0022
    30.6985  30.6985  31.0857  31.0857  31.9355  31.9355  31.9609  31.9609
    33.2812  33.2813  33.6629  33.6629  34.6612  34.6612  37.6776  37.6777
    38.4525  38.4526  39.6053  39.6057  40.0120

     the Fermi energy is    30.6080 ev

!    total energy              =   -2215.91795140 Ry
     Harris-Foulkes estimate   =   -2215.91795740 Ry
     estimated scf accuracy    <       0.00000590 Ry

     The total energy is the sum of the following terms:

     one-electron contribution =     -18.40306230 Ry
     hartree contribution      =     215.47619087 Ry
     xc contribution           =    -229.77372737 Ry
     ewald contribution        =   -2182.53606924 Ry
     smearing contrib. (-TS)   =      -0.68128336 Ry

     convergence has been achieved in  11 iterations

     Forces acting on atoms (Ry/au):

     atom    1 type  1   force =     0.00000000   -0.03029268   -0.01743572
     atom    2 type  1   force =     0.00000000    0.03029268    0.01743572
     atom    3 type  1   force =     0.00000000   -0.03029268    0.01743572
     atom    4 type  1   force =     0.00000000    0.03029268   -0.01743572
     atom    5 type  1   force =     0.00000000    0.06072851   -0.06607535
     atom    6 type  1   force =     0.00000000   -0.06072851    0.06607535
     atom    7 type  1   force =     0.00000000    0.06072851    0.06607535
     atom    8 type  1   force =     0.00000000   -0.06072851   -0.06607535
     atom    9 type  2   force =     0.00000000   -0.06090424   -0.00587361
     atom   10 type  2   force =     0.00000000    0.06090424    0.00587361
     atom   11 type  2   force =     0.00000000   -0.06090424    0.00587361
     atom   12 type  2   force =     0.00000000    0.06090424   -0.00587361

     Total force =     0.228205     Total SCF correction =     0.000000

     entering subroutine stress ...

          total   stress  (Ry/bohr**3)                   (kbar)     P=  800.17
   0.00566926   0.00000000   0.00000000        833.98      0.00      0.00
   0.00000000   0.00514878   0.00000000          0.00    757.41      0.00
   0.00000000   0.00000000   0.00550023          0.00      0.00    809.11

     Writing output data file Prototype-La-oP12-Co2Si.save

     General routines

     Parallel routines

   This run was terminated on:  23: 4:20  22Mar2018

   JOB DONE.