     Program PWSCF v.5.0.2 starts on 22Mar2018 at  0:40:56

     Current dimensions of program PWSCF are:
     Max number of different atomic species (ntypx) = 10
     Max number of k-points (npk) =  40000
     Max angular momentum in pseudopotentials (lmaxx) =  3
     Waiting for input...
     Reading input from standard input

     Subspace diagonalization in iterative solution of the eigenvalue problem:
     a serial algorithm will be used

     bravais-lattice index     =            0
     lattice parameter (alat)  =       8.5346  a.u.
     unit-cell volume          =     621.6493 (a.u.)^3
     number of atoms/cell      =            8
     number of atomic types    =            2
     number of electrons       =       120.00
     number of Kohn-Sham states=           72
     kinetic-energy cutoff     =      40.0000  Ry
     charge density cutoff     =     160.0000  Ry
     convergence threshold     =      1.0E-04
     mixing beta               =       0.7000
     number of iterations used =            8  plain     mixing
     Exchange-correlation      = SLA-PZ-NOGX-NOGC ( 1 1 0 0 0)
     EXX-fraction              =        0.00
     nstep                     =           50

     celldm(1)=   8.534573  celldm(2)=   0.000000  celldm(3)=   0.000000
     celldm(4)=   0.000000  celldm(5)=   0.000000  celldm(6)=   0.000000

     crystal axes: (cart. coord. in units of alat)
               a(1) = (   1.000000   0.000000   0.000000 )
               a(2) = (   0.000000   1.000000   0.000000 )
               a(3) = (   0.000000   0.000000   1.000000 )

     reciprocal axes: (cart. coord. in units 2 pi/alat)
               b(1) = (  1.000000  0.000000  0.000000 )
               b(2) = (  0.000000  1.000000  0.000000 )
               b(3) = (  0.000000  0.000000  1.000000 )

     PseudoPot. # 1 for Ce read from file:
     /home/jld5415/pp.La/Ce.UPF
     MD5 check sum: 44451aa79a44a00cf2bc029dc19922f6
     Pseudo is Norm-conserving, Zval = 12.0
     Generated in analytical, separable form
     Using radial grid of 1255 points,  6 beta functions with:
                l(1) =   0
                l(2) =   0
                l(3) =   1
                l(4) =   1
                l(5) =   2
                l(6) =   3

     PseudoPot. # 2 for Yb read from file:
     /home/jld5415/pp.La/Yb.UPF
     MD5 check sum: 3e859b81cc28c53ec6aa3a2e888efcdf
     Pseudo is Norm-conserving, Zval = 24.0
     Generated in analytical, separable form
     Using radial grid of 1269 points,  6 beta functions with:
                l(1) =   0
                l(2) =   0
                l(3) =   1
                l(4) =   1
                l(5) =   2
                l(6) =   3

     atomic species   valence    mass     pseudopotential
        Cr            12.00    51.99610     Ce( 1.00)
        Si            24.00    28.08550     Yb( 1.00)

     48 Sym. Ops., with inversion, found (24 have fractional translation)

   Cartesian axes

     site n.     atom                  positions (alat units)
         1           Cr  tau(   1) = (   0.0000000   0.5000000   0.2500000  )
         2           Cr  tau(   2) = (   0.0000000   0.5000000   0.7500000  )
         3           Cr  tau(   3) = (   0.5000000   0.7500000   0.0000000  )
         4           Cr  tau(   4) = (   0.5000000   0.2500000   0.0000000  )
         5           Cr  tau(   5) = (   0.7500000   0.0000000   0.5000000  )
         6           Cr  tau(   6) = (   0.2500000   0.0000000   0.5000000  )
         7           Si  tau(   7) = (   0.5000000   0.5000000   0.5000000  )
         8           Si  tau(   8) = (   0.0000000   0.0000000   0.0000000  )

     number of k points=    48  gaussian smearing, width (Ry)=  0.1000
                       cart. coord. in units 2pi/alat
        k(    1) = (   0.0000000   0.0000000   0.0000000), wk =   0.0095238
        k(    2) = (   0.0000000   0.0000000   0.1428571), wk =   0.0190476
        k(    3) = (   0.0000000   0.0000000   0.2857143), wk =   0.0190476
        k(    4) = (   0.0000000   0.0000000   0.4285714), wk =   0.0190476
        k(    5) = (   0.0000000   0.1666667   0.0000000), wk =   0.0190476
        k(    6) = (   0.0000000   0.1666667   0.1428571), wk =   0.0380952
        k(    7) = (   0.0000000   0.1666667   0.2857143), wk =   0.0380952
        k(    8) = (   0.0000000   0.1666667   0.4285714), wk =   0.0380952
        k(    9) = (   0.0000000   0.3333333   0.0000000), wk =   0.0190476
        k(   10) = (   0.0000000   0.3333333   0.1428571), wk =   0.0380952
        k(   11) = (   0.0000000   0.3333333   0.2857143), wk =   0.0380952
        k(   12) = (   0.0000000   0.3333333   0.4285714), wk =   0.0380952
        k(   13) = (   0.0000000  -0.5000000   0.0000000), wk =   0.0095238
        k(   14) = (   0.0000000  -0.5000000   0.1428571), wk =   0.0190476
        k(   15) = (   0.0000000  -0.5000000   0.2857143), wk =   0.0190476
        k(   16) = (   0.0000000  -0.5000000   0.4285714), wk =   0.0190476
        k(   17) = (   0.2000000   0.0000000   0.0000000), wk =   0.0190476
        k(   18) = (   0.2000000   0.0000000   0.1428571), wk =   0.0380952
        k(   19) = (   0.2000000   0.0000000   0.2857143), wk =   0.0380952
        k(   20) = (   0.2000000   0.0000000   0.4285714), wk =   0.0380952
        k(   21) = (   0.2000000   0.1666667   0.0000000), wk =   0.0380952
        k(   22) = (   0.2000000   0.1666667   0.1428571), wk =   0.0761905
        k(   23) = (   0.2000000   0.1666667   0.2857143), wk =   0.0761905
        k(   24) = (   0.2000000   0.1666667   0.4285714), wk =   0.0761905
        k(   25) = (   0.2000000   0.3333333   0.0000000), wk =   0.0380952
        k(   26) = (   0.2000000   0.3333333   0.1428571), wk =   0.0761905
        k(   27) = (   0.2000000   0.3333333   0.2857143), wk =   0.0761905
        k(   28) = (   0.2000000   0.3333333   0.4285714), wk =   0.0761905
        k(   29) = (   0.2000000  -0.5000000   0.0000000), wk =   0.0190476
        k(   30) = (   0.2000000  -0.5000000   0.1428571), wk =   0.0380952
        k(   31) = (   0.2000000  -0.5000000   0.2857143), wk =   0.0380952
        k(   32) = (   0.2000000  -0.5000000   0.4285714), wk =   0.0380952
        k(   33) = (   0.4000000   0.0000000   0.0000000), wk =   0.0190476
        k(   34) = (   0.4000000   0.0000000   0.1428571), wk =   0.0380952
        k(   35) = (   0.4000000   0.0000000   0.2857143), wk =   0.0380952
        k(   36) = (   0.4000000   0.0000000   0.4285714), wk =   0.0380952
        k(   37) = (   0.4000000   0.1666667   0.0000000), wk =   0.0380952
        k(   38) = (   0.4000000   0.1666667   0.1428571), wk =   0.0761905
        k(   39) = (   0.4000000   0.1666667   0.2857143), wk =   0.0761905
        k(   40) = (   0.4000000   0.1666667   0.4285714), wk =   0.0761905
        k(   41) = (   0.4000000   0.3333333   0.0000000), wk =   0.0380952
        k(   42) = (   0.4000000   0.3333333   0.1428571), wk =   0.0761905
        k(   43) = (   0.4000000   0.3333333   0.2857143), wk =   0.0761905
        k(   44) = (   0.4000000   0.3333333   0.4285714), wk =   0.0761905
        k(   45) = (   0.4000000  -0.5000000   0.0000000), wk =   0.0190476
        k(   46) = (   0.4000000  -0.5000000   0.1428571), wk =   0.0380952
        k(   47) = (   0.4000000  -0.5000000   0.2857143), wk =   0.0380952
        k(   48) = (   0.4000000  -0.5000000   0.4285714), wk =   0.0380952

     Largest allocated arrays     est. size (Mb)     dimensions
     Largest temporary arrays     est. size (Mb)     dimensions

     Initial potential from superposition of free atoms

     Starting from uniform charge
     Starting wfc are    0 randomized atomic wfcs

     Self-consistent Calculation

     iteration #  1     ecut=    40.00 Ry     beta=0.70
     CG style diagonalization
     ethr =  1.00E-02,  avg # of iterations = 13.2

     total energy              =    -471.19657296 Ry
     Harris-Foulkes estimate   =   -1733.33670696 Ry
     estimated scf accuracy    <    1482.96736566 Ry

     iteration #  2     ecut=    40.00 Ry     beta=0.70
     CG style diagonalization
     c_bands:  3 eigenvalues not converged
     c_bands:  5 eigenvalues not converged
     c_bands:  2 eigenvalues not converged
     c_bands:  1 eigenvalues not converged
     c_bands:  3 eigenvalues not converged
     c_bands:  5 eigenvalues not converged
     c_bands:  5 eigenvalues not converged
     c_bands:  4 eigenvalues not converged
     c_bands:  5 eigenvalues not converged
     c_bands:  2 eigenvalues not converged
     c_bands:  1 eigenvalues not converged
     c_bands:  3 eigenvalues not converged
     c_bands:  5 eigenvalues not converged
     c_bands:  2 eigenvalues not converged
     c_bands:  5 eigenvalues not converged
     c_bands:  5 eigenvalues not converged
     c_bands:  4 eigenvalues not converged
     c_bands:  4 eigenvalues not converged
     c_bands:  5 eigenvalues not converged
     c_bands:  4 eigenvalues not converged
     c_bands:  4 eigenvalues not converged
     c_bands:  2 eigenvalues not converged
     c_bands:  4 eigenvalues not converged
     c_bands:  3 eigenvalues not converged
     c_bands:  2 eigenvalues not converged
     c_bands:  3 eigenvalues not converged
     c_bands:  3 eigenvalues not converged
     c_bands:  2 eigenvalues not converged
     c_bands:  3 eigenvalues not converged
     c_bands:  4 eigenvalues not converged
     c_bands:  3 eigenvalues not converged
     c_bands:  5 eigenvalues not converged
     c_bands:  2 eigenvalues not converged
     c_bands:  1 eigenvalues not converged
     ethr =  1.00E-02,  avg # of iterations = 14.1

[...]

     End of self-consistent calculation

          k = 0.0000 0.0000 0.0000 (  2601 PWs)   bands (ev):

   -81.6785 -81.5874 -40.6718 -40.6718 -40.6718 -40.6596 -40.6596 -40.6596
     0.5105   2.8679   2.8679   6.5329   6.5329   6.5329  13.4699  13.4699
    15.2874  15.2874  15.2874  15.6851  16.0118  16.0118  16.0118  16.8801
    16.8801  17.5362  17.5362  17.5362  18.3569  18.3569  22.4509  22.4509
    22.4509  23.8307  23.8307  23.8307  25.3378  25.3378  25.3378  29.5950
    29.8221  30.0033  30.0033  30.0033  33.8312  33.8312  33.8312  36.2302
    36.8661  36.8661  36.8661  40.7734  41.2159  41.2159  42.9886  42.9886
    43.2944  43.2944  43.2944  45.2121  45.2121  45.2121  45.2760  45.2760
    45.2760  48.3631  48.3632  48.3633  48.6602  50.7656  50.7660  50.7668

[...]

     the Fermi energy is    43.9346 ev

!    total energy              =   -1274.77877940 Ry
     Harris-Foulkes estimate   =   -1274.77885002 Ry
     estimated scf accuracy    <       0.00007564 Ry

     The total energy is the sum of the following terms:

     one-electron contribution =      -4.99905877 Ry
     hartree contribution      =     155.55581292 Ry
     xc contribution           =    -135.38589002 Ry
     ewald contribution        =   -1289.68083993 Ry
     smearing contrib. (-TS)   =      -0.26880360 Ry

     convergence has been achieved in  10 iterations

     Forces acting on atoms (Ry/au):

     atom    1 type  1   force =     0.00000000    0.00000000    0.00000000
     atom    2 type  1   force =     0.00000000    0.00000000    0.00000000
[...]
     enthalpy new            =   -1279.0743492522 Ry

     CASE: enthalpy_new < enthalpy_old

     small trust_radius: resetting bfgs history

     new trust radius        =       1.4233220074 bohr
     new conv_thr            =       0.0000010000 Ry

[...]

          total   stress  (Ry/bohr**3)                   (kbar)     P=-1984.58
  -0.01349091   0.00000000   0.00000000      -1984.58      0.00      0.00
   0.00000000  -0.01349091   0.00000000          0.00  -1984.58      0.00
   0.00000000   0.00000000  -0.01349091          0.00      0.00  -1984.58

     number of scf cycles    =   3
     number of bfgs steps    =   2

     enthalpy old            =   -1279.0743492522 Ry
     enthalpy new            =   -1274.8910588941 Ry

     CASE: enthalpy_new > enthalpy_old

     new trust radius        =       0.4707676593 bohr

     trust_radius < trust_radius_min

     resetting bfgs history

     Message from routine bfgs:
     history already reset at previous step: stopping
     new conv_thr            =       0.0000010000 Ry

     new unit-cell volume =   1036.68345 a.u.^3 (   153.62064 Ang^3 )

[...]

ATOMIC_POSITIONS (crystal)
Cr       0.000000000   0.500000000   0.250000000
Cr       0.000000000   0.500000000   0.750000000
Cr       0.500000000   0.750000000   0.000000000
Cr       0.500000000   0.250000000   0.000000000
Cr       0.750000000   0.000000000   0.500000000
Cr       0.250000000   0.000000000   0.500000000
Si       0.500000000   0.500000000   0.500000000
Si       0.000000000   0.000000000   0.000000000

     Writing output data file Prototype-La-cP8-Cr3Si.save
     NEW-OLD atomic charge density approx. for the potential
     NEW k-points:
        k(    1) = (   0.0000000   0.0000000   0.0000000), wk =   0.0095238
        k(    2) = (   0.0000000   0.0000000   0.1204671), wk =   0.0190476
        k(    3) = (   0.0000000   0.0000000   0.2409342), wk =   0.0190476
        k(    4) = (   0.0000000   0.0000000   0.3614012), wk =   0.0190476
        k(    5) = (   0.0000000   0.1405449   0.0000000), wk =   0.0190476
        k(    6) = (   0.0000000   0.1405449   0.1204671), wk =   0.0380952
        k(    7) = (   0.0000000   0.1405449   0.2409342), wk =   0.0380952
        k(    8) = (   0.0000000   0.1405449   0.3614012), wk =   0.0380952
        k(    9) = (   0.0000000   0.2810899   0.0000000), wk =   0.0190476
        k(   10) = (   0.0000000   0.2810899   0.1204671), wk =   0.0380952
        k(   11) = (   0.0000000   0.2810899   0.2409342), wk =   0.0380952
        k(   12) = (   0.0000000   0.2810899   0.3614012), wk =   0.0380952
        k(   13) = (   0.0000000  -0.4216348   0.0000000), wk =   0.0095238
        k(   14) = (   0.0000000  -0.4216348   0.1204671), wk =   0.0190476
        k(   15) = (   0.0000000  -0.4216348   0.2409342), wk =   0.0190476
        k(   16) = (   0.0000000  -0.4216348   0.3614012), wk =   0.0190476
        k(   17) = (   0.1686539   0.0000000   0.0000000), wk =   0.0190476
        k(   18) = (   0.1686539   0.0000000   0.1204671), wk =   0.0380952
        k(   19) = (   0.1686539   0.0000000   0.2409342), wk =   0.0380952
        k(   20) = (   0.1686539   0.0000000   0.3614012), wk =   0.0380952
        k(   21) = (   0.1686539   0.1405449   0.0000000), wk =   0.0380952
        k(   22) = (   0.1686539   0.1405449   0.1204671), wk =   0.0761905
        k(   23) = (   0.1686539   0.1405449   0.2409342), wk =   0.0761905
        k(   24) = (   0.1686539   0.1405449   0.3614012), wk =   0.0761905
        k(   25) = (   0.1686539   0.2810899   0.0000000), wk =   0.0380952
        k(   26) = (   0.1686539   0.2810899   0.1204671), wk =   0.0761905
        k(   27) = (   0.1686539   0.2810899   0.2409342), wk =   0.0761905
        k(   28) = (   0.1686539   0.2810899   0.3614012), wk =   0.0761905
        k(   29) = (   0.1686539  -0.4216348   0.0000000), wk =   0.0190476
        k(   30) = (   0.1686539  -0.4216348   0.1204671), wk =   0.0380952
        k(   31) = (   0.1686539  -0.4216348   0.2409342), wk =   0.0380952
        k(   32) = (   0.1686539  -0.4216348   0.3614012), wk =   0.0380952
        k(   33) = (   0.3373078   0.0000000   0.0000000), wk =   0.0190476
        k(   34) = (   0.3373078   0.0000000   0.1204671), wk =   0.0380952
        k(   35) = (   0.3373078   0.0000000   0.2409342), wk =   0.0380952
        k(   36) = (   0.3373078   0.0000000   0.3614012), wk =   0.0380952
        k(   37) = (   0.3373078   0.1405449   0.0000000), wk =   0.0380952
        k(   38) = (   0.3373078   0.1405449   0.1204671), wk =   0.0761905
        k(   39) = (   0.3373078   0.1405449   0.2409342), wk =   0.0761905
        k(   40) = (   0.3373078   0.1405449   0.3614012), wk =   0.0761905
        k(   41) = (   0.3373078   0.2810899   0.0000000), wk =   0.0380952
        k(   42) = (   0.3373078   0.2810899   0.1204671), wk =   0.0761905
        k(   43) = (   0.3373078   0.2810899   0.2409342), wk =   0.0761905
        k(   44) = (   0.3373078   0.2810899   0.3614012), wk =   0.0761905
        k(   45) = (   0.3373078  -0.4216348   0.0000000), wk =   0.0190476
        k(   46) = (   0.3373078  -0.4216348   0.1204671), wk =   0.0380952
        k(   47) = (   0.3373078  -0.4216348   0.2409342), wk =   0.0380952
        k(   48) = (   0.3373078  -0.4216348   0.3614012), wk =   0.0380952

[...]

     The maximum number of steps has been reached.

     End of BFGS Geometry Optimization
Begin final coordinates
     new unit-cell volume =   1036.68345 a.u.^3 (   153.62064 Ang^3 )

CELL_PARAMETERS (alat=  8.53457320)
   1.185860439   0.000000000   0.000000000
   0.000000000   1.185860439   0.000000000
   0.000000000   0.000000000   1.185860439

ATOMIC_POSITIONS (crystal)
Cr       0.000000000   0.500000000   0.250000000
Cr       0.000000000   0.500000000   0.750000000
Cr       0.500000000   0.750000000   0.000000000
Cr       0.500000000   0.250000000   0.000000000
Cr       0.750000000   0.000000000   0.500000000
Cr       0.250000000   0.000000000   0.500000000
Si       0.500000000   0.500000000   0.500000000
Si       0.000000000   0.000000000   0.000000000
End final coordinates

     A final scf calculation at the relaxed structure.
     The G-vectors are recalculated for the final unit cell
     Results may differ from those at the preceding step.

     bravais-lattice index     =            0
     lattice parameter (alat)  =       8.5346  a.u.
     unit-cell volume          =    1036.6835 (a.u.)^3
     number of atoms/cell      =            8
     number of atomic types    =            2
     number of electrons       =       120.00
     number of Kohn-Sham states=           72
     kinetic-energy cutoff     =      40.0000  Ry
     charge density cutoff     =     160.0000  Ry
     convergence threshold     =      1.0E-06
     mixing beta               =       0.7000
     number of iterations used =            8  plain     mixing
     Exchange-correlation      = SLA-PZ-NOGX-NOGC ( 1 1 0 0 0)
     EXX-fraction              =        0.00

     celldm(1)=   8.534573  celldm(2)=   0.000000  celldm(3)=   0.000000
     celldm(4)=   0.000000  celldm(5)=   0.000000  celldm(6)=   0.000000

     crystal axes: (cart. coord. in units of alat)
               a(1) = (   1.185860   0.000000   0.000000 )
               a(2) = (   0.000000   1.185860   0.000000 )
               a(3) = (   0.000000   0.000000   1.185860 )

     reciprocal axes: (cart. coord. in units 2 pi/alat)
               b(1) = (  0.843270  0.000000  0.000000 )
               b(2) = (  0.000000  0.843270  0.000000 )
               b(3) = (  0.000000  0.000000  0.843270 )

     PseudoPot. # 1 for Ce read from file:
     /home/jld5415/pp.La/Ce.UPF
     MD5 check sum: 44451aa79a44a00cf2bc029dc19922f6
     Pseudo is Norm-conserving, Zval = 12.0
     Generated in analytical, separable form
     Using radial grid of 1255 points,  6 beta functions with:
                l(1) =   0
                l(2) =   0
                l(3) =   1
                l(4) =   1
                l(5) =   2
                l(6) =   3

     PseudoPot. # 2 for Yb read from file:
     /home/jld5415/pp.La/Yb.UPF
     MD5 check sum: 3e859b81cc28c53ec6aa3a2e888efcdf
     Pseudo is Norm-conserving, Zval = 24.0
     Generated in analytical, separable form
     Using radial grid of 1269 points,  6 beta functions with:
                l(1) =   0
                l(2) =   0
                l(3) =   1
                l(4) =   1
                l(5) =   2
                l(6) =   3

     atomic species   valence    mass     pseudopotential
        Cr            12.00    51.99610     Ce( 1.00)
        Si            24.00    28.08550     Yb( 1.00)

     48 Sym. Ops., with inversion, found (24 have fractional translation)

   Cartesian axes

     site n.     atom                  positions (alat units)
         1           Cr  tau(   1) = (   0.0000000   0.5929302   0.2964651  )
         2           Cr  tau(   2) = (   0.0000000   0.5929302   0.8893953  )
         3           Cr  tau(   3) = (   0.5929302   0.8893953   0.0000000  )
         4           Cr  tau(   4) = (   0.5929302   0.2964651   0.0000000  )
         5           Cr  tau(   5) = (   0.8893953   0.0000000   0.5929302  )
         6           Cr  tau(   6) = (   0.2964651   0.0000000   0.5929302  )
         7           Si  tau(   7) = (   0.5929302   0.5929302   0.5929302  )
         8           Si  tau(   8) = (   0.0000000   0.0000000   0.0000000  )

     number of k points=    48  gaussian smearing, width (Ry)=  0.1000
                       cart. coord. in units 2pi/alat
        k(    1) = (   0.0000000   0.0000000   0.0000000), wk =   0.0095238
        k(    2) = (   0.0000000   0.0000000   0.1204671), wk =   0.0190476
        k(    3) = (   0.0000000   0.0000000   0.2409342), wk =   0.0190476
        k(    4) = (   0.0000000   0.0000000   0.3614012), wk =   0.0190476
        k(    5) = (   0.0000000   0.1405449   0.0000000), wk =   0.0190476
        k(    6) = (   0.0000000   0.1405449   0.1204671), wk =   0.0380952
        k(    7) = (   0.0000000   0.1405449   0.2409342), wk =   0.0380952
        k(    8) = (   0.0000000   0.1405449   0.3614012), wk =   0.0380952
        k(    9) = (   0.0000000   0.2810899   0.0000000), wk =   0.0190476
        k(   10) = (   0.0000000   0.2810899   0.1204671), wk =   0.0380952
        k(   11) = (   0.0000000   0.2810899   0.2409342), wk =   0.0380952
        k(   12) = (   0.0000000   0.2810899   0.3614012), wk =   0.0380952
        k(   13) = (   0.0000000  -0.4216348   0.0000000), wk =   0.0095238
        k(   14) = (   0.0000000  -0.4216348   0.1204671), wk =   0.0190476
        k(   15) = (   0.0000000  -0.4216348   0.2409342), wk =   0.0190476
        k(   16) = (   0.0000000  -0.4216348   0.3614012), wk =   0.0190476
        k(   17) = (   0.1686539   0.0000000   0.0000000), wk =   0.0190476
        k(   18) = (   0.1686539   0.0000000   0.1204671), wk =   0.0380952
        k(   19) = (   0.1686539   0.0000000   0.2409342), wk =   0.0380952
        k(   20) = (   0.1686539   0.0000000   0.3614012), wk =   0.0380952
        k(   21) = (   0.1686539   0.1405449   0.0000000), wk =   0.0380952
        k(   22) = (   0.1686539   0.1405449   0.1204671), wk =   0.0761905
        k(   23) = (   0.1686539   0.1405449   0.2409342), wk =   0.0761905
        k(   24) = (   0.1686539   0.1405449   0.3614012), wk =   0.0761905
        k(   25) = (   0.1686539   0.2810899   0.0000000), wk =   0.0380952
        k(   26) = (   0.1686539   0.2810899   0.1204671), wk =   0.0761905
        k(   27) = (   0.1686539   0.2810899   0.2409342), wk =   0.0761905
        k(   28) = (   0.1686539   0.2810899   0.3614012), wk =   0.0761905
        k(   29) = (   0.1686539  -0.4216348   0.0000000), wk =   0.0190476
        k(   30) = (   0.1686539  -0.4216348   0.1204671), wk =   0.0380952
        k(   31) = (   0.1686539  -0.4216348   0.2409342), wk =   0.0380952
        k(   32) = (   0.1686539  -0.4216348   0.3614012), wk =   0.0380952
        k(   33) = (   0.3373078   0.0000000   0.0000000), wk =   0.0190476
        k(   34) = (   0.3373078   0.0000000   0.1204671), wk =   0.0380952
        k(   35) = (   0.3373078   0.0000000   0.2409342), wk =   0.0380952
        k(   36) = (   0.3373078   0.0000000   0.3614012), wk =   0.0380952
        k(   37) = (   0.3373078   0.1405449   0.0000000), wk =   0.0380952
        k(   38) = (   0.3373078   0.1405449   0.1204671), wk =   0.0761905
        k(   39) = (   0.3373078   0.1405449   0.2409342), wk =   0.0761905
        k(   40) = (   0.3373078   0.1405449   0.3614012), wk =   0.0761905
        k(   41) = (   0.3373078   0.2810899   0.0000000), wk =   0.0380952
        k(   42) = (   0.3373078   0.2810899   0.1204671), wk =   0.0761905
        k(   43) = (   0.3373078   0.2810899   0.2409342), wk =   0.0761905
        k(   44) = (   0.3373078   0.2810899   0.3614012), wk =   0.0761905
        k(   45) = (   0.3373078  -0.4216348   0.0000000), wk =   0.0190476
        k(   46) = (   0.3373078  -0.4216348   0.1204671), wk =   0.0380952
        k(   47) = (   0.3373078  -0.4216348   0.2409342), wk =   0.0380952
        k(   48) = (   0.3373078  -0.4216348   0.3614012), wk =   0.0380952

     Largest allocated arrays     est. size (Mb)     dimensions
     Largest temporary arrays     est. size (Mb)     dimensions

     Initial potential from superposition of free atoms

     Starting from uniform charge
     Starting wfc are    0 randomized atomic wfcs

     Writing output data file Prototype-La-cP8-Cr3Si.save

     Self-consistent Calculation

[...]

     iteration # 12     ecut=    40.00 Ry     beta=0.70
     CG style diagonalization
     c_bands:  1 eigenvalues not converged
     c_bands:  1 eigenvalues not converged
     c_bands:  1 eigenvalues not converged
     ethr =  6.19E-07,  avg # of iterations =  3.6

[...]

     total energy              =   -1282.14165418 Ry
     Harris-Foulkes estimate   =   -1282.14167387 Ry
     estimated scf accuracy    <       0.00005746 Ry

     iteration # 14     ecut=    40.00 Ry     beta=0.70
     CG style diagonalization
     ethr =  4.79E-08,  avg # of iterations =  3.9

     End of self-consistent calculation

[...]

          k = 0.3373-0.4216 0.3614 (  4438 PWs)   bands (ev):

   -98.4418 -98.4413 -57.2330 -57.2329 -57.2320 -57.2319 -57.2289 -57.2287
   -11.9624 -11.9214 -11.7685 -11.7657 -11.6210 -11.5733   0.5961   0.5961
     0.5992   0.5992   0.7158   0.7258   0.7416   0.7422   0.7501   0.7503
     4.3933   4.3972   4.6171   4.8278   5.2965   5.3043   5.6770   5.7479
     6.3525   6.3872   6.5535   6.5685   6.7614   6.8849   6.9216   6.9242
     6.9500   6.9599  15.0957  15.0962  20.3657  20.3824  20.5762  20.6624
    20.7584  20.7876  23.9348  23.9497  24.2035  24.2438  24.3083  24.4321
    25.4214  25.4429  25.7486  25.7836  26.2546  26.2808  26.6485  26.7559
    27.0710  27.0713  28.8061  28.9952  29.2939  29.4050  29.7856  29.8201

     the Fermi energy is    25.8840 ev

!    total energy              =   -1282.14166934 Ry
     Harris-Foulkes estimate   =   -1282.14167017 Ry
     estimated scf accuracy    <       0.00000096 Ry

     The total energy is the sum of the following terms:

     one-electron contribution =    -286.27497077 Ry
     hartree contribution      =     219.28937153 Ry
     xc contribution           =    -127.21118463 Ry
     ewald contribution        =   -1087.54858271 Ry
     smearing contrib. (-TS)   =      -0.39630275 Ry

     convergence has been achieved in  14 iterations

     Forces acting on atoms (Ry/au):

     atom    1 type  1   force =     0.00000000    0.00000000    0.00000000
     atom    2 type  1   force =     0.00000000    0.00000000    0.00000000
     atom    3 type  1   force =     0.00000000    0.00000000    0.00000000
     atom    4 type  1   force =     0.00000000    0.00000000    0.00000000
     atom    5 type  1   force =     0.00000000    0.00000000    0.00000000
     atom    6 type  1   force =     0.00000000    0.00000000    0.00000000
     atom    7 type  2   force =     0.00000000    0.00000000    0.00000000
     atom    8 type  2   force =     0.00000000    0.00000000    0.00000000

     Total force =     0.000000     Total SCF correction =     0.000000

     entering subroutine stress ...

          total   stress  (Ry/bohr**3)                   (kbar)     P=  580.08
   0.00394332   0.00000000   0.00000000        580.08      0.00      0.00
   0.00000000   0.00394332   0.00000000          0.00    580.08      0.00
   0.00000000   0.00000000   0.00394332          0.00      0.00    580.08

     Writing output data file Prototype-La-cP8-Cr3Si.save

     General routines

     Parallel routines

   This run was terminated on:   1: 7:52  22Mar2018

   JOB DONE.