     Program PWSCF v.5.0.2 starts on 22Mar2018 at  0:41: 5

     Current dimensions of program PWSCF are:
     Max number of different atomic species (ntypx) = 10
     Max number of k-points (npk) =  40000
     Max angular momentum in pseudopotentials (lmaxx) =  3
     Waiting for input...
     Reading input from standard input

     Subspace diagonalization in iterative solution of the eigenvalue problem:
     a serial algorithm will be used

     bravais-lattice index     =            0
     lattice parameter (alat)  =       7.0151  a.u.
     unit-cell volume          =     862.2778 (a.u.)^3
     number of atoms/cell      =           12
     number of atomic types    =            2
     number of electrons       =       192.00
     number of Kohn-Sham states=          115
     kinetic-energy cutoff     =      40.0000  Ry
     charge density cutoff     =     160.0000  Ry
     convergence threshold     =      1.0E-04
     mixing beta               =       0.7000
     number of iterations used =            8  plain     mixing
     Exchange-correlation      = SLA-PZ-NOGX-NOGC ( 1 1 0 0 0)
     EXX-fraction              =        0.00
     nstep                     =           50

     celldm(1)=   7.015105  celldm(2)=   0.000000  celldm(3)=   0.000000
     celldm(4)=   0.000000  celldm(5)=   0.000000  celldm(6)=   0.000000

     crystal axes: (cart. coord. in units of alat)
               a(1) = (   1.000000   0.000000   0.000000 )
               a(2) = (   0.000000   1.315963   0.000000 )
               a(3) = (   0.000000   0.000000   1.898020 )

     reciprocal axes: (cart. coord. in units 2 pi/alat)
               b(1) = (  1.000000  0.000000  0.000000 )
               b(2) = (  0.000000  0.759900  0.000000 )
               b(3) = (  0.000000  0.000000  0.526865 )

     PseudoPot. # 1 for Ce read from file:
     /home/jld5415/pp.La/Ce.UPF
     MD5 check sum: 44451aa79a44a00cf2bc029dc19922f6
     Pseudo is Norm-conserving, Zval = 12.0
     Generated in analytical, separable form
     Using radial grid of 1255 points,  6 beta functions with:
                l(1) =   0
                l(2) =   0
                l(3) =   1
                l(4) =   1
                l(5) =   2
                l(6) =   3

     PseudoPot. # 2 for Yb read from file:
     /home/jld5415/pp.La/Yb.UPF
     MD5 check sum: 3e859b81cc28c53ec6aa3a2e888efcdf
     Pseudo is Norm-conserving, Zval = 24.0
     Generated in analytical, separable form
     Using radial grid of 1269 points,  6 beta functions with:
                l(1) =   0
                l(2) =   0
                l(3) =   1
                l(4) =   1
                l(5) =   2
                l(6) =   3

     atomic species   valence    mass     pseudopotential
        Co            12.00    58.93320     Ce( 1.00)
        Si            24.00    28.08550     Yb( 1.00)

      8 Sym. Ops., with inversion, found ( 6 have fractional translation)

   Cartesian axes

     site n.     atom                  positions (alat units)
         1           Co  tau(   1) = (   0.7500000   1.0875135   0.8270358  )
         2           Co  tau(   2) = (   0.2500000   0.2284499   1.0709846  )
         3           Co  tau(   3) = (   0.7500000   0.4295318   0.1219744  )
         4           Co  tau(   4) = (   0.2500000   0.8864316   1.7760460  )
         5           Co  tau(   5) = (   0.2500000   0.7067855   0.5358966  )
         6           Co  tau(   6) = (   0.7500000   0.6091779   1.3621238  )
         7           Co  tau(   7) = (   0.2500000   0.0488038   0.4131136  )
         8           Co  tau(   8) = (   0.7500000   1.2671596   1.4849068  )
         9           Si  tau(   9) = (   0.2500000   0.2669484   1.6960710  )
        10           Si  tau(  10) = (   0.7500000   1.0490149   0.2019494  )
        11           Si  tau(  11) = (   0.2500000   0.9249301   1.1509596  )
        12           Si  tau(  12) = (   0.7500000   0.3910333   0.7470608  )

     number of k points=    12  gaussian smearing, width (Ry)=  0.1000
                       cart. coord. in units 2pi/alat
        k(    1) = (   0.0000000   0.0000000   0.0000000), wk =   0.0833333
        k(    2) = (   0.0000000   0.0000000   0.1317162), wk =   0.1666667
        k(    3) = (   0.0000000   0.0000000  -0.2634324), wk =   0.0833333
        k(    4) = (   0.0000000   0.2532999   0.0000000), wk =   0.1666667
        k(    5) = (   0.0000000   0.2532999   0.1317162), wk =   0.3333333
        k(    6) = (   0.0000000   0.2532999  -0.2634324), wk =   0.1666667
        k(    7) = (  -0.5000000   0.0000000   0.0000000), wk =   0.0833333
        k(    8) = (  -0.5000000   0.0000000   0.1317162), wk =   0.1666667
        k(    9) = (  -0.5000000   0.0000000  -0.2634324), wk =   0.0833333
        k(   10) = (  -0.5000000   0.2532999   0.0000000), wk =   0.1666667
        k(   11) = (  -0.5000000   0.2532999   0.1317162), wk =   0.3333333
        k(   12) = (  -0.5000000   0.2532999  -0.2634324), wk =   0.1666667

     Largest allocated arrays     est. size (Mb)     dimensions
     Largest temporary arrays     est. size (Mb)     dimensions

     Initial potential from superposition of free atoms

     Starting from uniform charge
     Starting wfc are    0 randomized atomic wfcs

     Self-consistent Calculation

     iteration #  1     ecut=    40.00 Ry     beta=0.70
     CG style diagonalization
     c_bands:  1 eigenvalues not converged
     c_bands:  1 eigenvalues not converged
     c_bands:  1 eigenvalues not converged
     c_bands:  2 eigenvalues not converged
     c_bands:  2 eigenvalues not converged
     c_bands:  3 eigenvalues not converged
     c_bands:  2 eigenvalues not converged
     c_bands:  1 eigenvalues not converged
     c_bands:  1 eigenvalues not converged
     c_bands:  1 eigenvalues not converged
     c_bands:  3 eigenvalues not converged
     ethr =  1.00E-02,  avg # of iterations = 13.7

     total energy              =   -1093.46611139 Ry
     Harris-Foulkes estimate   =   -3020.26645260 Ry
     estimated scf accuracy    <    2286.13745063 Ry

[...]

     iteration #  4     ecut=    40.00 Ry     beta=0.70
     CG style diagonalization
     ethr =  1.00E-02,  avg # of iterations =  4.4

[...]

     End of self-consistent calculation

          k = 0.0000 0.0000 0.0000 (  3675 PWs)   bands (ev):

   -77.2821 -77.2525 -77.2465 -77.2180 -36.4023 -36.4022 -36.3896 -36.3747
   -36.3358 -36.3353 -36.3347 -36.3286 -36.2048 -36.1970 -36.1818 -36.1659
     4.9862   6.8233   7.1419   8.2173   8.7236   9.3755   9.4593   9.9872
    17.3793  17.6306  17.6852  17.8977  18.5371  18.5452  18.6553  19.1356
    19.1587  19.6230  19.6718  19.9939  20.0297  20.4613  20.4812  20.5961
    20.6475  20.7308  21.0142  21.0480  21.1388  21.9807  22.4635  23.1542
    23.5453  25.1215  25.6941  25.7326  25.8226  26.0672  26.2166  26.4249
    26.4730  27.0075  27.9359  28.3637  28.8950  28.9735  28.9950  29.0019
    29.0753  30.9885  31.1314  31.1634  34.6248  35.9887  36.1333  37.6150
    38.3410  39.5065  39.8764  41.6985  41.7293  41.7717  41.8774  42.7495
    43.0722  43.2868  43.5647  43.6537  43.8294  44.4418  44.5244  45.3525
    46.7636  47.3133  47.3212  48.3358  48.3527  48.5848  48.8407  49.1988
    49.6091  49.7489  50.4272  50.8989  50.9751  51.5143  51.5969  51.6152
    51.6217  52.0117  52.2029  52.8650  53.2006  53.6243  53.9838  54.0885
    55.1654  55.2542  55.2962

[...]

          k =-0.5000 0.0000 0.0000 (  3722 PWs)   bands (ev):

[...]

     the Fermi energy is    48.9493 ev

!    total energy              =   -2240.36502931 Ry
     Harris-Foulkes estimate   =   -2240.36506921 Ry
     estimated scf accuracy    <       0.00004384 Ry

     The total energy is the sum of the following terms:

     one-electron contribution =     -26.55464645 Ry
     hartree contribution      =     277.00186939 Ry
     xc contribution           =    -227.45059565 Ry
     ewald contribution        =   -2262.99969378 Ry
     smearing contrib. (-TS)   =      -0.36196283 Ry

     convergence has been achieved in  10 iterations

     Forces acting on atoms (Ry/au):

     atom    1 type  1   force =     0.00000000   -0.06638696   -0.05776422
     atom    2 type  1   force =     0.00000000    0.06638696    0.05776422
     atom    3 type  1   force =     0.00000000   -0.06638696    0.05776422
     atom    4 type  1   force =     0.00000000    0.06638696   -0.05776422
     atom    5 type  1   force =     0.00000000    0.20944212   -0.33232532
     atom    6 type  1   force =     0.00000000   -0.20944212    0.33232532
     atom    7 type  1   force =     0.00000000    0.20944212    0.33232532
     atom    8 type  1   force =     0.00000000   -0.20944212   -0.33232532
     atom    9 type  2   force =     0.00000000   -0.17830959    0.00363281
     atom   10 type  2   force =     0.00000000    0.17830959   -0.00363281
     atom   11 type  2   force =     0.00000000   -0.17830959   -0.00363281
     atom   12 type  2   force =     0.00000000    0.17830959    0.00363281

     Total force =     0.880585     Total SCF correction =     0.000000

     entering subroutine stress ...

          total   stress  (Ry/bohr**3)                   (kbar)     P= 6929.53
   0.05159857   0.00000000   0.00000000       7590.41      0.00      0.00
   0.00000000   0.04320667   0.00000000          0.00   6355.92      0.00
   0.00000000   0.00000000   0.04651283          0.00      0.00   6842.27

     BFGS Geometry Optimization

     number of scf cycles    =   1
     number of bfgs steps    =   0

     enthalpy new            =   -2240.3650293123 Ry

     new trust radius        =       0.5000000000 bohr
     new conv_thr            =       0.0001000000 Ry

     new unit-cell volume =   1079.32372 a.u.^3 (   159.93927 Ang^3 )

CELL_PARAMETERS (alat=  7.01510508)
   1.085136619   0.000000000   0.000000000
   0.000000000   1.409778624   0.000000000
   0.000000000   0.000000000   2.043684444

ATOMIC_POSITIONS (crystal)
Co       0.750000000   0.825926383   0.435449673
Co       0.250000000   0.174073617   0.564550327
Co       0.750000000   0.325926383   0.064550327
Co       0.250000000   0.674073617   0.935449673
Co       0.250000000   0.538583355   0.280697721
Co       0.750000000   0.461416645   0.719302279
Co       0.250000000   0.038583355   0.219302279
Co       0.750000000   0.961416645   0.780697721
Si       0.250000000   0.201579219   0.893618007
Si       0.750000000   0.798420781   0.106381993
Si       0.250000000   0.701579219   0.606381993
Si       0.750000000   0.298420781   0.393618007

     Writing output data file Prototype-La-oP12-Co2Si.save
     NEW-OLD atomic charge density approx. for the potential
     NEW k-points:
        k(    1) = (   0.0000000   0.0000000   0.0000000), wk =   0.0833333
        k(    2) = (   0.0000000   0.0000000   0.1223281), wk =   0.1666667
        k(    3) = (   0.0000000   0.0000000  -0.2446562), wk =   0.0833333
        k(    4) = (   0.0000000   0.2364437   0.0000000), wk =   0.1666667
        k(    5) = (   0.0000000   0.2364437   0.1223281), wk =   0.3333333
        k(    6) = (   0.0000000   0.2364437  -0.2446562), wk =   0.1666667
        k(    7) = (  -0.4607715   0.0000000   0.0000000), wk =   0.0833333
        k(    8) = (  -0.4607715   0.0000000   0.1223281), wk =   0.1666667
        k(    9) = (  -0.4607715   0.0000000  -0.2446562), wk =   0.0833333
        k(   10) = (  -0.4607715   0.2364437   0.0000000), wk =   0.1666667
        k(   11) = (  -0.4607715   0.2364437   0.1223281), wk =   0.3333333
        k(   12) = (  -0.4607715   0.2364437  -0.2446562), wk =   0.1666667

[...]

     enthalpy old            =   -2240.3650293123 Ry
     enthalpy new            =   -2247.3247609948 Ry

     CASE: enthalpy_new < enthalpy_old

     small trust_radius: resetting bfgs history

     new trust radius        =       3.5370468103 bohr
     new conv_thr            =       0.0001000000 Ry

[...]

          total   stress  (Ry/bohr**3)                   (kbar)     P=-3606.98
  -0.02700826   0.00000000   0.00000000      -3973.05      0.00      0.00
   0.00000000  -0.02248163   0.00000000          0.00  -3307.16      0.00
   0.00000000   0.00000000  -0.02406929          0.00      0.00  -3540.71

     number of scf cycles    =   3
     number of bfgs steps    =   2

     enthalpy old            =   -2247.3247609948 Ry
     enthalpy new            =   -2213.1647705052 Ry

     CASE: enthalpy_new > enthalpy_old

     new trust radius        =       1.0000368702 bohr

     trust_radius < trust_radius_min

     resetting bfgs history

     Message from routine bfgs:
     history already reset at previous step: stopping
     new conv_thr            =       0.0001000000 Ry

     new unit-cell volume =   1267.46216 a.u.^3 (   187.81851 Ang^3 )

[...]

ATOMIC_POSITIONS (crystal)
Co       0.750000000   0.825408461   0.435293433
Co       0.250000000   0.174591539   0.564706567
Co       0.750000000   0.325408461   0.064706567
Co       0.250000000   0.674591539   0.935293433
Co       0.250000000   0.539652163   0.279612920
Co       0.750000000   0.460347837   0.720387080
Co       0.250000000   0.039652163   0.220387080
Co       0.750000000   0.960347837   0.779612920
Si       0.250000000   0.200385766   0.893496238
Si       0.750000000   0.799614234   0.106503762
Si       0.250000000   0.700385766   0.606503762
Si       0.750000000   0.299614234   0.393496238

     Writing output data file Prototype-La-oP12-Co2Si.save
     NEW-OLD atomic charge density approx. for the potential
     NEW k-points:
        k(    1) = (   0.0000000   0.0000000   0.0000000), wk =   0.0833333
        k(    2) = (   0.0000000   0.0000000   0.1161128), wk =   0.1666667
        k(    3) = (   0.0000000   0.0000000  -0.2322256), wk =   0.0833333
        k(    4) = (   0.0000000   0.2258052   0.0000000), wk =   0.1666667
        k(    5) = (   0.0000000   0.2258052   0.1161128), wk =   0.3333333
        k(    6) = (   0.0000000   0.2258052  -0.2322256), wk =   0.1666667
        k(    7) = (  -0.4328548   0.0000000   0.0000000), wk =   0.0833333
        k(    8) = (  -0.4328548   0.0000000   0.1161128), wk =   0.1666667
        k(    9) = (  -0.4328548   0.0000000  -0.2322256), wk =   0.0833333
        k(   10) = (  -0.4328548   0.2258052   0.0000000), wk =   0.1666667
        k(   11) = (  -0.4328548   0.2258052   0.1161128), wk =   0.3333333
        k(   12) = (  -0.4328548   0.2258052  -0.2322256), wk =   0.1666667

[...]

     The maximum number of steps has been reached.

     End of BFGS Geometry Optimization
Begin final coordinates
     new unit-cell volume =   1267.46216 a.u.^3 (   187.81851 Ang^3 )

CELL_PARAMETERS (alat=  7.01510508)
   1.155121706   0.000000000   0.000000000
   0.000000000   1.476198771   0.000000000
   0.000000000   0.000000000   2.153078562

ATOMIC_POSITIONS (crystal)
Co       0.750000000   0.825408461   0.435293433
Co       0.250000000   0.174591539   0.564706567
Co       0.750000000   0.325408461   0.064706567
Co       0.250000000   0.674591539   0.935293433
Co       0.250000000   0.539652163   0.279612920
Co       0.750000000   0.460347837   0.720387080
Co       0.250000000   0.039652163   0.220387080
Co       0.750000000   0.960347837   0.779612920
Si       0.250000000   0.200385766   0.893496238
Si       0.750000000   0.799614234   0.106503762
Si       0.250000000   0.700385766   0.606503762
Si       0.750000000   0.299614234   0.393496238
End final coordinates

     A final scf calculation at the relaxed structure.
     The G-vectors are recalculated for the final unit cell
     Results may differ from those at the preceding step.

     bravais-lattice index     =            0
     lattice parameter (alat)  =       7.0151  a.u.
     unit-cell volume          =    1267.4622 (a.u.)^3
     number of atoms/cell      =           12
     number of atomic types    =            2
     number of electrons       =       192.00
     number of Kohn-Sham states=          115
     kinetic-energy cutoff     =      40.0000  Ry
     charge density cutoff     =     160.0000  Ry
     convergence threshold     =      1.0E-04
     mixing beta               =       0.7000
     number of iterations used =            8  plain     mixing
     Exchange-correlation      = SLA-PZ-NOGX-NOGC ( 1 1 0 0 0)
     EXX-fraction              =        0.00

     celldm(1)=   7.015105  celldm(2)=   0.000000  celldm(3)=   0.000000
     celldm(4)=   0.000000  celldm(5)=   0.000000  celldm(6)=   0.000000

     crystal axes: (cart. coord. in units of alat)
               a(1) = (   1.155122   0.000000   0.000000 )
               a(2) = (   0.000000   1.476199   0.000000 )
               a(3) = (   0.000000   0.000000   2.153079 )

     reciprocal axes: (cart. coord. in units 2 pi/alat)
               b(1) = (  0.865710  0.000000  0.000000 )
               b(2) = (  0.000000  0.677416  0.000000 )
               b(3) = (  0.000000  0.000000  0.464451 )

     PseudoPot. # 1 for Ce read from file:
     /home/jld5415/pp.La/Ce.UPF
     MD5 check sum: 44451aa79a44a00cf2bc029dc19922f6
     Pseudo is Norm-conserving, Zval = 12.0
     Generated in analytical, separable form
     Using radial grid of 1255 points,  6 beta functions with:
                l(1) =   0
                l(2) =   0
                l(3) =   1
                l(4) =   1
                l(5) =   2
                l(6) =   3

     PseudoPot. # 2 for Yb read from file:
     /home/jld5415/pp.La/Yb.UPF
     MD5 check sum: 3e859b81cc28c53ec6aa3a2e888efcdf
     Pseudo is Norm-conserving, Zval = 24.0
     Generated in analytical, separable form
     Using radial grid of 1269 points,  6 beta functions with:
                l(1) =   0
                l(2) =   0
                l(3) =   1
                l(4) =   1
                l(5) =   2
                l(6) =   3

     atomic species   valence    mass     pseudopotential
        Co            12.00    58.93320     Ce( 1.00)
        Si            24.00    28.08550     Yb( 1.00)

      8 Sym. Ops., with inversion, found ( 6 have fractional translation)

   Cartesian axes

     site n.     atom                  positions (alat units)
         1           Co  tau(   1) = (   0.8663413   1.2184670   0.9372210  )
         2           Co  tau(   2) = (   0.2887804   0.2577318   1.2158576  )
         3           Co  tau(   3) = (   0.8663413   0.4803676   0.1393183  )
         4           Co  tau(   4) = (   0.2887804   0.9958312   2.0137602  )
         5           Co  tau(   5) = (   0.2887804   0.7966339   0.6020286  )
         6           Co  tau(   6) = (   0.8663413   0.6795649   1.5510500  )
         7           Co  tau(   7) = (   0.2887804   0.0585345   0.4745107  )
         8           Co  tau(   8) = (   0.8663413   1.4176643   1.6785679  )
         9           Si  tau(   9) = (   0.2887804   0.2958092   1.9237676  )
        10           Si  tau(  10) = (   0.8663413   1.1803895   0.2293110  )
        11           Si  tau(  11) = (   0.2887804   1.0339086   1.3058502  )
        12           Si  tau(  12) = (   0.8663413   0.4422902   0.8472283  )

     number of k points=    12  gaussian smearing, width (Ry)=  0.1000
                       cart. coord. in units 2pi/alat
        k(    1) = (   0.0000000   0.0000000   0.0000000), wk =   0.0833333
        k(    2) = (   0.0000000   0.0000000   0.1161128), wk =   0.1666667
        k(    3) = (   0.0000000   0.0000000  -0.2322256), wk =   0.0833333
        k(    4) = (   0.0000000   0.2258052   0.0000000), wk =   0.1666667
        k(    5) = (   0.0000000   0.2258052   0.1161128), wk =   0.3333333
        k(    6) = (   0.0000000   0.2258052  -0.2322256), wk =   0.1666667
        k(    7) = (  -0.4328548   0.0000000   0.0000000), wk =   0.0833333
        k(    8) = (  -0.4328548   0.0000000   0.1161128), wk =   0.1666667
        k(    9) = (  -0.4328548   0.0000000  -0.2322256), wk =   0.0833333
        k(   10) = (  -0.4328548   0.2258052   0.0000000), wk =   0.1666667
        k(   11) = (  -0.4328548   0.2258052   0.1161128), wk =   0.3333333
        k(   12) = (  -0.4328548   0.2258052  -0.2322256), wk =   0.1666667

     Largest allocated arrays     est. size (Mb)     dimensions
     Largest temporary arrays     est. size (Mb)     dimensions

     Initial potential from superposition of free atoms

     Starting from uniform charge
     Starting wfc are    0 randomized atomic wfcs

     Writing output data file Prototype-La-oP12-Co2Si.save

     Self-consistent Calculation

[...]

     iteration #  6     ecut=    40.00 Ry     beta=0.70
     CG style diagonalization
     ethr =  1.33E-03,  avg # of iterations =  4.4

[...]

     total energy              =   -2252.51139848 Ry
     Harris-Foulkes estimate   =   -2252.51177966 Ry
     estimated scf accuracy    <       0.00067770 Ry

     iteration # 11     ecut=    40.00 Ry     beta=0.70
     CG style diagonalization
     c_bands:  1 eigenvalues not converged
     ethr =  3.53E-07,  avg # of iterations =  3.6

     End of self-consistent calculation

[...]

          k = 0.0000 0.2258-0.2322 (  5422 PWs)   bands (ev):

[...]

          k =-0.4329 0.2258-0.2322 (  5432 PWs)   bands (ev):

   -91.7221 -91.7221 -91.7212 -91.7212 -50.5843 -50.5843 -50.5818 -50.5818
   -50.5767 -50.5767 -50.5751 -50.5751 -50.5450 -50.5450 -50.5402 -50.5402
    -5.3984  -5.3984  -5.1492  -5.1492  -4.8874  -4.8874  -4.6947  -4.6947
     6.6074   6.6074   6.6437   6.6437   6.7249   6.7249   6.7524   6.7524
     6.8544   6.8544   6.9277   6.9277   7.0401   7.0401   7.0719   7.0719
     7.1286   7.1286   7.1417   7.1417   9.8940   9.8940  10.2881  10.2881
    10.4176  10.4176  11.3090  11.3090  11.3252  11.3252  12.6044  12.6044
    13.3535  13.3535  13.6998  13.6998  14.0781  14.0781  14.1335  14.1335
    14.6883  14.6883  14.7564  14.7564  21.2785  21.2785  22.3996  22.3996
    26.3204  26.3204  26.7642  26.7642  27.7377  27.7377  28.0999  28.0999
    28.2398  28.2398  29.1686  29.1686  29.8451  29.8451  30.3118  30.3118
    31.0355  31.0355  31.8376  31.8376  32.0668  32.0668  33.4640  33.4640
    33.5182  33.5182  34.0539  34.0539  34.3855  34.3855  35.2659  35.2659
    35.3852  35.3852  35.6519  35.6520  35.9278  35.9278  36.5509  36.5510
    38.4190  38.4215  38.5619

     the Fermi energy is    33.1842 ev

!    total energy              =   -2252.51150198 Ry
     Harris-Foulkes estimate   =   -2252.51152110 Ry
     estimated scf accuracy    <       0.00002170 Ry

     The total energy is the sum of the following terms:

     one-electron contribution =    -404.09189874 Ry
     hartree contribution      =     360.13968239 Ry
     xc contribution           =    -216.60343654 Ry
     ewald contribution        =   -1991.49392992 Ry
     smearing contrib. (-TS)   =      -0.46191917 Ry

     convergence has been achieved in  11 iterations

     Forces acting on atoms (Ry/au):

     atom    1 type  1   force =     0.00000000   -0.05642374    0.00734763
     atom    2 type  1   force =     0.00000000    0.05642374   -0.00734763
     atom    3 type  1   force =     0.00000000   -0.05642374   -0.00734763
     atom    4 type  1   force =     0.00000000    0.05642374    0.00734763
     atom    5 type  1   force =     0.00000000    0.09305724   -0.13826408
     atom    6 type  1   force =     0.00000000   -0.09305724    0.13826408
     atom    7 type  1   force =     0.00000000    0.09305724    0.13826408
     atom    8 type  1   force =     0.00000000   -0.09305724   -0.13826408
     atom    9 type  2   force =     0.00000000   -0.07588263    0.01611974
     atom   10 type  2   force =     0.00000000    0.07588263   -0.01611974
     atom   11 type  2   force =     0.00000000   -0.07588263   -0.01611974
     atom   12 type  2   force =     0.00000000    0.07588263    0.01611974

     Total force =     0.384875     Total SCF correction =     0.000000

     entering subroutine stress ...

          total   stress  (Ry/bohr**3)                   (kbar)     P= 1669.70
   0.01232930   0.00000000   0.00000000       1813.70      0.00      0.00
   0.00000000   0.01046805   0.00000000          0.00   1539.90      0.00
   0.00000000   0.00000000   0.01125382          0.00      0.00   1655.49

     Writing output data file Prototype-La-oP12-Co2Si.save

     General routines

     Parallel routines

   This run was terminated on:   1:10:58  22Mar2018

   JOB DONE.