     Program PWSCF v.5.0.2 starts on 22Mar2018 at  0:36:43

     Current dimensions of program PWSCF are:
     Max number of different atomic species (ntypx) = 10
     Max number of k-points (npk) =  40000
     Max angular momentum in pseudopotentials (lmaxx) =  3
     Waiting for input...
     Reading input from standard input

     Subspace diagonalization in iterative solution of the eigenvalue problem:
     a serial algorithm will be used

     bravais-lattice index     =            0
     lattice parameter (alat)  =      13.3930  a.u.
     unit-cell volume          =    1134.0956 (a.u.)^3
     number of atoms/cell      =            4
     number of atomic types    =            2
     number of electrons       =        72.00
     number of Kohn-Sham states=           43
     kinetic-energy cutoff     =      40.0000  Ry
     charge density cutoff     =     160.0000  Ry
     convergence threshold     =      1.0E-04
     mixing beta               =       0.7000
     number of iterations used =            8  plain     mixing
     Exchange-correlation      = SLA-PZ-NOGX-NOGC ( 1 1 0 0 0)
     EXX-fraction              =        0.00
     nstep                     =           50

     celldm(1)=  13.392972  celldm(2)=   0.000000  celldm(3)=   0.000000
     celldm(4)=   0.000000  celldm(5)=   0.000000  celldm(6)=   0.000000

     crystal axes: (cart. coord. in units of alat)
               a(1) = (   1.000000   0.000000   0.000000 )
               a(2) = (  -0.776311   0.630350   0.000000 )
               a(3) = (   0.000000   0.000000   0.748922 )

     reciprocal axes: (cart. coord. in units 2 pi/alat)
               b(1) = (  1.000000  1.231554  0.000000 )
               b(2) = (  0.000000  1.586419  0.000000 )
               b(3) = (  0.000000  0.000000  1.335252 )

     PseudoPot. # 1 for Ce read from file:
     /home/jld5415/pp.La/Ce.UPF
     MD5 check sum: 44451aa79a44a00cf2bc029dc19922f6
     Pseudo is Norm-conserving, Zval = 12.0
     Generated in analytical, separable form
     Using radial grid of 1255 points,  6 beta functions with:
                l(1) =   0
                l(2) =   0
                l(3) =   1
                l(4) =   1
                l(5) =   2
                l(6) =   3

     PseudoPot. # 2 for Yb read from file:
     /home/jld5415/pp.La/Yb.UPF
     MD5 check sum: 3e859b81cc28c53ec6aa3a2e888efcdf
     Pseudo is Norm-conserving, Zval = 24.0
     Generated in analytical, separable form
     Using radial grid of 1269 points,  6 beta functions with:
                l(1) =   0
                l(2) =   0
                l(3) =   1
                l(4) =   1
                l(5) =   2
                l(6) =   3

     atomic species   valence    mass     pseudopotential
        Tl            12.00   204.38300     Ce( 1.00)
        I             24.00   126.90400     Yb( 1.00)

      2 Sym. Ops., with inversion, found
          (note:  2 additional sym.ops. were found but ignored
           their fractional translations are incommensurate with FFT grid)

   Cartesian axes

     site n.     atom                  positions (alat units)
         1           Tl  tau(   1) = (  -0.0906317   0.3870269   0.5616917  )
         2           Tl  tau(   2) = (   0.3143210   0.2433234   0.1872306  )
         3           I   tau(   3) = (  -0.5408004   0.5467760   0.5616917  )
         4           I   tau(   4) = (   0.7644896   0.0835744   0.1872306  )

     number of k points=   106  gaussian smearing, width (Ry)=  0.1000

     Number of k-points >= 100: set verbosity='high' to print them.

     Largest allocated arrays     est. size (Mb)     dimensions
     Largest temporary arrays     est. size (Mb)     dimensions

     Initial potential from superposition of free atoms

     Starting from uniform charge
     Starting wfc are    0 randomized atomic wfcs

     Self-consistent Calculation

     iteration #  1     ecut=    40.00 Ry     beta=0.70
     CG style diagonalization
     ethr =  1.00E-02,  avg # of iterations = 19.9

     total energy              =    -489.87972311 Ry
     Harris-Foulkes estimate   =   -1582.74360916 Ry
     estimated scf accuracy    <    1307.02359677 Ry

     iteration #  2     ecut=    40.00 Ry     beta=0.70
     CG style diagonalization
     c_bands:  3 eigenvalues not converged
     c_bands:  2 eigenvalues not converged
     c_bands:  4 eigenvalues not converged
     c_bands:  4 eigenvalues not converged
     c_bands:  2 eigenvalues not converged
     c_bands:  2 eigenvalues not converged
     c_bands:  4 eigenvalues not converged
     c_bands:  4 eigenvalues not converged
     c_bands:  2 eigenvalues not converged
     c_bands:  4 eigenvalues not converged
     c_bands:  1 eigenvalues not converged
     c_bands:  1 eigenvalues not converged
     c_bands:  2 eigenvalues not converged
     c_bands:  3 eigenvalues not converged
     c_bands:  4 eigenvalues not converged
     c_bands:  1 eigenvalues not converged
     c_bands:  4 eigenvalues not converged
     c_bands:  3 eigenvalues not converged
     c_bands:  2 eigenvalues not converged
     c_bands:  1 eigenvalues not converged
     c_bands:  3 eigenvalues not converged
     c_bands:  3 eigenvalues not converged
     c_bands:  3 eigenvalues not converged
     c_bands:  3 eigenvalues not converged
     c_bands:  2 eigenvalues not converged
     c_bands:  3 eigenvalues not converged
     c_bands:  3 eigenvalues not converged
     c_bands:  2 eigenvalues not converged
     c_bands:  2 eigenvalues not converged
     c_bands:  4 eigenvalues not converged
     c_bands:  2 eigenvalues not converged
     c_bands:  3 eigenvalues not converged
     c_bands:  5 eigenvalues not converged
     c_bands:  1 eigenvalues not converged
     c_bands:  3 eigenvalues not converged
     c_bands:  2 eigenvalues not converged
     c_bands:  5 eigenvalues not converged
     c_bands:  2 eigenvalues not converged
     c_bands:  1 eigenvalues not converged
     c_bands:  1 eigenvalues not converged
     c_bands:  1 eigenvalues not converged
     c_bands:  1 eigenvalues not converged
     c_bands:  3 eigenvalues not converged
     c_bands:  2 eigenvalues not converged
     c_bands:  2 eigenvalues not converged
     c_bands:  2 eigenvalues not converged
     c_bands:  3 eigenvalues not converged
     c_bands:  3 eigenvalues not converged
     c_bands:  3 eigenvalues not converged
     c_bands:  2 eigenvalues not converged
     c_bands:  2 eigenvalues not converged
     c_bands:  3 eigenvalues not converged
     c_bands:  4 eigenvalues not converged
     c_bands:  5 eigenvalues not converged
     c_bands:  3 eigenvalues not converged
     c_bands:  2 eigenvalues not converged
     c_bands:  1 eigenvalues not converged
     c_bands:  2 eigenvalues not converged
     c_bands:  2 eigenvalues not converged
     c_bands:  4 eigenvalues not converged
[...]
     c_bands:  2 eigenvalues not converged
     c_bands:  1 eigenvalues not converged
     c_bands:  3 eigenvalues not converged
     c_bands:  2 eigenvalues not converged
     c_bands:  2 eigenvalues not converged
     c_bands:  1 eigenvalues not converged
     c_bands:  5 eigenvalues not converged
     c_bands:  1 eigenvalues not converged
     c_bands:  2 eigenvalues not converged
     c_bands:  2 eigenvalues not converged
     c_bands:  2 eigenvalues not converged
     c_bands:  1 eigenvalues not converged
     c_bands:  2 eigenvalues not converged
     c_bands:  1 eigenvalues not converged
     c_bands:  2 eigenvalues not converged
     ethr =  1.00E-02,  avg # of iterations = 14.8

[...]

     End of self-consistent calculation

     Number of k-points >= 100: set verbosity='high' to print the bands.

     the Fermi energy is    11.1585 ev

!    total energy              =    -974.11451862 Ry
     Harris-Foulkes estimate   =    -974.11455460 Ry
     estimated scf accuracy    <       0.00004714 Ry

     The total energy is the sum of the following terms:

     one-electron contribution =    -568.35642427 Ry
     hartree contribution      =     278.03597562 Ry
     xc contribution           =     -82.06565556 Ry
     ewald contribution        =    -601.42612774 Ry
     smearing contrib. (-TS)   =      -0.30228668 Ry

     convergence has been achieved in  10 iterations

     Forces acting on atoms (Ry/au):

     atom    1 type  1   force =     0.00477297   -0.00190655    0.00316398
     atom    2 type  1   force =    -0.00477297    0.00190655   -0.00316398
     atom    3 type  2   force =     0.01904751   -0.00728397    0.00752068
     atom    4 type  2   force =    -0.01904751    0.00728397   -0.00752068

     Total force =     0.031901     Total SCF correction =     0.000000

     entering subroutine stress ...

          total   stress  (Ry/bohr**3)                   (kbar)     P= -354.17
  -0.00234926  -0.00004109  -0.00000039       -345.59     -6.04     -0.06
  -0.00004109  -0.00245067  -0.00000017         -6.04   -360.51     -0.03
  -0.00000039  -0.00000017  -0.00242290         -0.06     -0.03   -356.42

     BFGS Geometry Optimization

     number of scf cycles    =   1
     number of bfgs steps    =   0

     enthalpy new            =    -974.1145186215 Ry

     new trust radius        =       0.4127052834 bohr
     new conv_thr            =       0.0001000000 Ry

     new unit-cell volume =    941.38674 a.u.^3 (   139.49912 Ang^3 )

CELL_PARAMETERS (alat= 13.39297219)
   0.941268400  -0.001027317  -0.000009693
  -0.731364347   0.592528451   0.000004827
  -0.000007259  -0.000003206   0.703558060

ATOMIC_POSITIONS (crystal)
Tl       0.386194061   0.613761166   0.750315443
Tl       0.613805939   0.386238834   0.249684557
I        0.133336402   0.866553202   0.750749797
I        0.866663598   0.133446798   0.249250203

     Writing output data file Prototype-La-oS8-TlI.save
     NEW-OLD atomic charge density approx. for the potential
     NEW k-points: (use verbosity='high' to print them)

[...]

     enthalpy old            =    -974.1145186215 Ry
     enthalpy new            =    -974.5020506658 Ry

     CASE: enthalpy_new < enthalpy_old

     small trust_radius: resetting bfgs history

[...]

     number of scf cycles    =   3
     number of bfgs steps    =   2

     enthalpy old            =    -974.5020506658 Ry
     enthalpy new            =    -974.6402553668 Ry

     CASE: enthalpy_new < enthalpy_old

     Message from routine bfgs:
     history already reset at previous step: stopping
     small trust_radius: resetting bfgs history

     new trust radius        =       0.1380400380 bohr
     new conv_thr            =       0.0000385161 Ry

     new unit-cell volume =    785.65629 a.u.^3 (   116.42225 Ang^3 )

[...]

ATOMIC_POSITIONS (crystal)
Tl       0.389898282   0.610057474   0.750361433
Tl       0.610101718   0.389942526   0.249638567
I        0.128180919   0.871811243   0.752616616
I        0.871819081   0.128188757   0.247383384

     Writing output data file Prototype-La-oS8-TlI.save
     NEW-OLD atomic charge density approx. for the potential
     NEW k-points: (use verbosity='high' to print them)

[...]

     The maximum number of steps has been reached.

     End of BFGS Geometry Optimization
Begin final coordinates
     new unit-cell volume =    785.65629 a.u.^3 (   116.42225 Ang^3 )

CELL_PARAMETERS (alat= 13.39297219)
   0.886146017  -0.003515509  -0.000208586
  -0.690140653   0.555861478   0.000214296
  -0.000155539   0.000062118   0.667228009

ATOMIC_POSITIONS (crystal)
Tl       0.389898282   0.610057474   0.750361433
Tl       0.610101718   0.389942526   0.249638567
I        0.128180919   0.871811243   0.752616616
I        0.871819081   0.128188757   0.247383384
End final coordinates

     A final scf calculation at the relaxed structure.
     The G-vectors are recalculated for the final unit cell
     Results may differ from those at the preceding step.

     bravais-lattice index     =            0
     lattice parameter (alat)  =      13.3930  a.u.
     unit-cell volume          =     785.6563 (a.u.)^3
     number of atoms/cell      =            4
     number of atomic types    =            2
     number of electrons       =        72.00
     number of Kohn-Sham states=           43
     kinetic-energy cutoff     =      40.0000  Ry
     charge density cutoff     =     160.0000  Ry
     convergence threshold     =      3.9E-05
     mixing beta               =       0.7000
     number of iterations used =            8  plain     mixing
     Exchange-correlation      = SLA-PZ-NOGX-NOGC ( 1 1 0 0 0)
     EXX-fraction              =        0.00

     celldm(1)=  13.392972  celldm(2)=   0.000000  celldm(3)=   0.000000
     celldm(4)=   0.000000  celldm(5)=   0.000000  celldm(6)=   0.000000

     crystal axes: (cart. coord. in units of alat)
               a(1) = (   0.886146  -0.003516  -0.000209 )
               a(2) = (  -0.690141   0.555861   0.000214 )
               a(3) = (  -0.000156   0.000062   0.667228 )

     reciprocal axes: (cart. coord. in units 2 pi/alat)
               b(1) = (  1.134068  1.408024  0.000133 )
               b(2) = (  0.007172  1.807914 -0.000167 )
               b(3) = (  0.000352 -0.000140  1.498738 )

     PseudoPot. # 1 for Ce read from file:
     /home/jld5415/pp.La/Ce.UPF
     MD5 check sum: 44451aa79a44a00cf2bc029dc19922f6
     Pseudo is Norm-conserving, Zval = 12.0
     Generated in analytical, separable form
     Using radial grid of 1255 points,  6 beta functions with:
                l(1) =   0
                l(2) =   0
                l(3) =   1
                l(4) =   1
                l(5) =   2
                l(6) =   3

     PseudoPot. # 2 for Yb read from file:
     /home/jld5415/pp.La/Yb.UPF
     MD5 check sum: 3e859b81cc28c53ec6aa3a2e888efcdf
     Pseudo is Norm-conserving, Zval = 24.0
     Generated in analytical, separable form
     Using radial grid of 1269 points,  6 beta functions with:
                l(1) =   0
                l(2) =   0
                l(3) =   1
                l(4) =   1
                l(5) =   2
                l(6) =   3

     atomic species   valence    mass     pseudopotential
        Tl            12.00   204.38300     Ce( 1.00)
        I             24.00   126.90400     Yb( 1.00)

      2 Sym. Ops., with inversion, found
          (note:  2 additional sym.ops. were found but ignored
           their fractional translations are incommensurate with FFT grid)

   Cartesian axes

     site n.     atom                  positions (alat units)
         1           Tl  tau(   1) = (  -0.0756354   0.3377834   0.5007116  )
         2           Tl  tau(   2) = (   0.2714852   0.2146247   0.1665221  )
         3           I   tau(   3) = (  -0.4882024   0.4842024   0.5023270  )
         4           I   tau(   4) = (   0.6840523   0.0682057   0.1649067  )

     number of k points=   106  gaussian smearing, width (Ry)=  0.1000

     Number of k-points >= 100: set verbosity='high' to print them.

     Largest allocated arrays     est. size (Mb)     dimensions
     Largest temporary arrays     est. size (Mb)     dimensions

     Initial potential from superposition of free atoms

     Starting from uniform charge
     Starting wfc are    0 randomized atomic wfcs

     Writing output data file Prototype-La-oS8-TlI.save

     Self-consistent Calculation

[...]

     iteration # 10     ecut=    40.00 Ry     beta=0.70
     CG style diagonalization
     c_bands:  1 eigenvalues not converged
     c_bands:  1 eigenvalues not converged
     c_bands:  1 eigenvalues not converged
     ethr =  6.96E-07,  avg # of iterations =  4.2

     total energy              =    -974.15702305 Ry
     Harris-Foulkes estimate   =    -974.15709007 Ry
     estimated scf accuracy    <       0.00012026 Ry

     iteration # 11     ecut=    40.00 Ry     beta=0.70
     CG style diagonalization
     ethr =  1.67E-07,  avg # of iterations =  3.9

     End of self-consistent calculation

     Number of k-points >= 100: set verbosity='high' to print the bands.

     the Fermi energy is    17.7305 ev

!    total energy              =    -974.15704611 Ry
     Harris-Foulkes estimate   =    -974.15706260 Ry
     estimated scf accuracy    <       0.00001805 Ry

     The total energy is the sum of the following terms:

     one-electron contribution =    -443.51230040 Ry
     hartree contribution      =     232.65196116 Ry
     xc contribution           =     -83.20973275 Ry
     ewald contribution        =    -679.87314427 Ry
     smearing contrib. (-TS)   =      -0.21382986 Ry

     convergence has been achieved in  11 iterations

     Forces acting on atoms (Ry/au):

     atom    1 type  1   force =     0.03816462   -0.01359284   -0.00703050
     atom    2 type  1   force =    -0.03816462    0.01359284    0.00703050
     atom    3 type  2   force =    -0.03645960    0.01268971   -0.00780118
     atom    4 type  2   force =     0.03645960   -0.01268971    0.00780118

     Total force =     0.080522     Total SCF correction =     0.000000

     entering subroutine stress ...

          total   stress  (Ry/bohr**3)                   (kbar)     P= -269.65
  -0.00198127  -0.00003185  -0.00001034       -291.45     -4.69     -1.52
  -0.00003185  -0.00205846   0.00000361         -4.69   -302.81      0.53
  -0.00001034   0.00000361  -0.00145940         -1.52      0.53   -214.69

     Writing output data file Prototype-La-oS8-TlI.save

     General routines

     Parallel routines

   This run was terminated on:   1:25:53  22Mar2018

   JOB DONE.