     Program PWSCF v.5.0.2 starts on 22Mar2018 at 22:42:46

     Current dimensions of program PWSCF are:
     Max number of different atomic species (ntypx) = 10
     Max number of k-points (npk) =  40000
     Max angular momentum in pseudopotentials (lmaxx) =  3
     Waiting for input...
     Reading input from standard input

     Subspace diagonalization in iterative solution of the eigenvalue problem:
     a serial algorithm will be used

     bravais-lattice index     =            0
     lattice parameter (alat)  =       8.5346  a.u.
     unit-cell volume          =     621.6493 (a.u.)^3
     number of atoms/cell      =            8
     number of atomic types    =            2
     number of electrons       =       166.00
     number of Kohn-Sham states=          100
     kinetic-energy cutoff     =      40.0000  Ry
     charge density cutoff     =     160.0000  Ry
     convergence threshold     =      1.0E-04
     mixing beta               =       0.7000
     number of iterations used =            8  plain     mixing
     Exchange-correlation      = SLA-PZ-NOGX-NOGC ( 1 1 0 0 0)
     EXX-fraction              =        0.00
     nstep                     =           50

     celldm(1)=   8.534573  celldm(2)=   0.000000  celldm(3)=   0.000000
     celldm(4)=   0.000000  celldm(5)=   0.000000  celldm(6)=   0.000000

     crystal axes: (cart. coord. in units of alat)
               a(1) = (   1.000000   0.000000   0.000000 )
               a(2) = (   0.000000   1.000000   0.000000 )
               a(3) = (   0.000000   0.000000   1.000000 )

     reciprocal axes: (cart. coord. in units 2 pi/alat)
               b(1) = (  1.000000  0.000000  0.000000 )
               b(2) = (  0.000000  1.000000  0.000000 )
               b(3) = (  0.000000  0.000000  1.000000 )

     PseudoPot. # 1 for Er read from file:
     /home/cwx6513/pp.La/Er.UPF
     MD5 check sum: e152ae21b84514339d8526f066caf99b
     Pseudo is Norm-conserving, Zval = 22.0
     Generated in analytical, separable form
     Using radial grid of 1267 points,  6 beta functions with:
                l(1) =   0
                l(2) =   0
                l(3) =   1
                l(4) =   1
                l(5) =   2
                l(6) =   3

     PseudoPot. # 2 for Eu read from file:
     /home/cwx6513/pp.La/Eu.UPF
     MD5 check sum: 5efdbbfc50c6a10138933a6429836ad2
     Pseudo is Norm-conserving, Zval = 17.0
     Generated in analytical, separable form
     Using radial grid of 1261 points,  6 beta functions with:
                l(1) =   0
                l(2) =   0
                l(3) =   1
                l(4) =   1
                l(5) =   2
                l(6) =   3

     atomic species   valence    mass     pseudopotential
        Cr            22.00    51.99610     Er( 1.00)
        Si            17.00    28.08550     Eu( 1.00)

     48 Sym. Ops., with inversion, found (24 have fractional translation)

   Cartesian axes

     site n.     atom                  positions (alat units)
         1           Cr  tau(   1) = (   0.0000000   0.5000000   0.2500000  )
         2           Cr  tau(   2) = (   0.0000000   0.5000000   0.7500000  )
         3           Cr  tau(   3) = (   0.5000000   0.7500000   0.0000000  )
         4           Cr  tau(   4) = (   0.5000000   0.2500000   0.0000000  )
         5           Cr  tau(   5) = (   0.7500000   0.0000000   0.5000000  )
         6           Cr  tau(   6) = (   0.2500000   0.0000000   0.5000000  )
         7           Si  tau(   7) = (   0.5000000   0.5000000   0.5000000  )
         8           Si  tau(   8) = (   0.0000000   0.0000000   0.0000000  )

     number of k points=    48  gaussian smearing, width (Ry)=  0.1000
                       cart. coord. in units 2pi/alat
        k(    1) = (   0.0000000   0.0000000   0.0000000), wk =   0.0095238
        k(    2) = (   0.0000000   0.0000000   0.1428571), wk =   0.0190476
        k(    3) = (   0.0000000   0.0000000   0.2857143), wk =   0.0190476
        k(    4) = (   0.0000000   0.0000000   0.4285714), wk =   0.0190476
        k(    5) = (   0.0000000   0.1666667   0.0000000), wk =   0.0190476
        k(    6) = (   0.0000000   0.1666667   0.1428571), wk =   0.0380952
        k(    7) = (   0.0000000   0.1666667   0.2857143), wk =   0.0380952
        k(    8) = (   0.0000000   0.1666667   0.4285714), wk =   0.0380952
        k(    9) = (   0.0000000   0.3333333   0.0000000), wk =   0.0190476
        k(   10) = (   0.0000000   0.3333333   0.1428571), wk =   0.0380952
        k(   11) = (   0.0000000   0.3333333   0.2857143), wk =   0.0380952
        k(   12) = (   0.0000000   0.3333333   0.4285714), wk =   0.0380952
        k(   13) = (   0.0000000  -0.5000000   0.0000000), wk =   0.0095238
        k(   14) = (   0.0000000  -0.5000000   0.1428571), wk =   0.0190476
        k(   15) = (   0.0000000  -0.5000000   0.2857143), wk =   0.0190476
        k(   16) = (   0.0000000  -0.5000000   0.4285714), wk =   0.0190476
        k(   17) = (   0.2000000   0.0000000   0.0000000), wk =   0.0190476
        k(   18) = (   0.2000000   0.0000000   0.1428571), wk =   0.0380952
        k(   19) = (   0.2000000   0.0000000   0.2857143), wk =   0.0380952
        k(   20) = (   0.2000000   0.0000000   0.4285714), wk =   0.0380952
        k(   21) = (   0.2000000   0.1666667   0.0000000), wk =   0.0380952
        k(   22) = (   0.2000000   0.1666667   0.1428571), wk =   0.0761905
        k(   23) = (   0.2000000   0.1666667   0.2857143), wk =   0.0761905
        k(   24) = (   0.2000000   0.1666667   0.4285714), wk =   0.0761905
        k(   25) = (   0.2000000   0.3333333   0.0000000), wk =   0.0380952
        k(   26) = (   0.2000000   0.3333333   0.1428571), wk =   0.0761905
        k(   27) = (   0.2000000   0.3333333   0.2857143), wk =   0.0761905
        k(   28) = (   0.2000000   0.3333333   0.4285714), wk =   0.0761905
        k(   29) = (   0.2000000  -0.5000000   0.0000000), wk =   0.0190476
        k(   30) = (   0.2000000  -0.5000000   0.1428571), wk =   0.0380952
        k(   31) = (   0.2000000  -0.5000000   0.2857143), wk =   0.0380952
        k(   32) = (   0.2000000  -0.5000000   0.4285714), wk =   0.0380952
        k(   33) = (   0.4000000   0.0000000   0.0000000), wk =   0.0190476
        k(   34) = (   0.4000000   0.0000000   0.1428571), wk =   0.0380952
        k(   35) = (   0.4000000   0.0000000   0.2857143), wk =   0.0380952
        k(   36) = (   0.4000000   0.0000000   0.4285714), wk =   0.0380952
        k(   37) = (   0.4000000   0.1666667   0.0000000), wk =   0.0380952
        k(   38) = (   0.4000000   0.1666667   0.1428571), wk =   0.0761905
        k(   39) = (   0.4000000   0.1666667   0.2857143), wk =   0.0761905
        k(   40) = (   0.4000000   0.1666667   0.4285714), wk =   0.0761905
        k(   41) = (   0.4000000   0.3333333   0.0000000), wk =   0.0380952
        k(   42) = (   0.4000000   0.3333333   0.1428571), wk =   0.0761905
        k(   43) = (   0.4000000   0.3333333   0.2857143), wk =   0.0761905
        k(   44) = (   0.4000000   0.3333333   0.4285714), wk =   0.0761905
        k(   45) = (   0.4000000  -0.5000000   0.0000000), wk =   0.0190476
        k(   46) = (   0.4000000  -0.5000000   0.1428571), wk =   0.0380952
        k(   47) = (   0.4000000  -0.5000000   0.2857143), wk =   0.0380952
        k(   48) = (   0.4000000  -0.5000000   0.4285714), wk =   0.0380952

     Largest allocated arrays     est. size (Mb)     dimensions
     Largest temporary arrays     est. size (Mb)     dimensions

     Initial potential from superposition of free atoms

     Starting from uniform charge
     Starting wfc are    0 randomized atomic wfcs

     Self-consistent Calculation

     iteration #  1     ecut=    40.00 Ry     beta=0.70
     CG style diagonalization
     c_bands:  4 eigenvalues not converged
     c_bands:  4 eigenvalues not converged
     c_bands:  2 eigenvalues not converged
     c_bands:  1 eigenvalues not converged
     c_bands:  5 eigenvalues not converged
     c_bands:  4 eigenvalues not converged
     c_bands:  3 eigenvalues not converged
     c_bands:  3 eigenvalues not converged
     c_bands:  2 eigenvalues not converged
     c_bands:  1 eigenvalues not converged
     c_bands:  3 eigenvalues not converged
     c_bands:  4 eigenvalues not converged
     c_bands:  3 eigenvalues not converged
     c_bands:  4 eigenvalues not converged
     c_bands:  5 eigenvalues not converged
     c_bands:  3 eigenvalues not converged
     c_bands:  2 eigenvalues not converged
     c_bands:  2 eigenvalues not converged
     c_bands:  4 eigenvalues not converged
     c_bands:  5 eigenvalues not converged
     c_bands:  3 eigenvalues not converged
     c_bands:  1 eigenvalues not converged
     c_bands:  2 eigenvalues not converged
     c_bands:  1 eigenvalues not converged
     c_bands:  2 eigenvalues not converged
     c_bands:  1 eigenvalues not converged
     c_bands:  3 eigenvalues not converged
     c_bands:  5 eigenvalues not converged
     c_bands:  4 eigenvalues not converged
     c_bands:  2 eigenvalues not converged
     c_bands:  1 eigenvalues not converged
     c_bands:  1 eigenvalues not converged
     c_bands:  1 eigenvalues not converged
     c_bands:  1 eigenvalues not converged
     c_bands:  2 eigenvalues not converged
     c_bands:  1 eigenvalues not converged
     ethr =  1.00E-02,  avg # of iterations = 13.6

     total energy              =   -1995.27770414 Ry
     Harris-Foulkes estimate   =   -2695.20934399 Ry
     estimated scf accuracy    <     876.54898123 Ry

[...]

     iteration #  3     ecut=    40.00 Ry     beta=0.70
     CG style diagonalization
     ethr =  1.00E-02,  avg # of iterations =  8.5

[...]

     End of self-consistent calculation

          k = 0.0000 0.0000 0.0000 (  2601 PWs)   bands (ev):

   -53.2120 -53.2120 -53.1501 -52.7605 -52.7605 -52.7605 -17.0627 -17.0627
   -17.0409 -15.4928 -15.4928 -15.4928 -15.2733 -15.1282 -15.0313 -15.0313
   -15.0313 -14.9513 -14.9513 -14.9513 -14.8368 -14.8368 -14.8368 -14.4036
   -14.4036 -14.4036  11.0312  11.0312  11.0312  11.0647  11.0647  11.0647
    25.2757  25.2757  25.3491  26.7435  26.7435  26.7435  28.6936  29.3116
    29.3116  29.3116  29.7106  29.7106  29.7346  29.7346  29.7346  30.0998
    30.1199  31.9045  31.9045  31.9045  33.1113  33.1113  33.2154  33.2154
    33.2154  33.2289  33.2289  33.2289  33.8889  33.8889  33.8889  36.6143
    36.6143  41.5779  41.5779  41.5779  41.6541  41.6541  42.3030  42.3030
    42.3030  43.0563  43.0563  43.0563  48.0868  49.8745  49.8745  49.8745
    49.9929  49.9929  51.7811  51.7811  51.7811  52.2138  53.5054  53.5054
    55.3197  55.3197  55.3199  55.8870  55.8871  55.8874  56.1020  56.1021
    56.1023  56.4066  57.2339  57.2339

[...]

     the Fermi energy is    52.2808 ev

!    total energy              =   -2316.14333462 Ry
     Harris-Foulkes estimate   =   -2316.14341777 Ry
     estimated scf accuracy    <       0.00009052 Ry

     The total energy is the sum of the following terms:

     one-electron contribution =       6.28612449 Ry
     hartree contribution      =     230.37882878 Ry
     xc contribution           =    -213.55015140 Ry
[...]

     number of scf cycles    =   3
     number of bfgs steps    =   2

     enthalpy old            =   -2320.0758845819 Ry
     enthalpy new            =   -2318.1542924665 Ry

     CASE: enthalpy_new > enthalpy_old

     new trust radius        =       0.1641493355 bohr

     trust_radius < trust_radius_min

     resetting bfgs history

     Message from routine bfgs:
     history already reset at previous step: stopping
     new conv_thr            =       0.0000010000 Ry

     new unit-cell volume =   1048.84659 a.u.^3 (   155.42303 Ang^3 )

[...]

ATOMIC_POSITIONS (crystal)
Cr       0.000000000   0.500000000   0.250000000
Cr       0.000000000   0.500000000   0.750000000
Cr       0.500000000   0.750000000   0.000000000
Cr       0.500000000   0.250000000   0.000000000
Cr       0.750000000   0.000000000   0.500000000
Cr       0.250000000   0.000000000   0.500000000
Si       0.500000000   0.500000000   0.500000000
Si       0.000000000   0.000000000   0.000000000

     Writing output data file Prototype-La-cP8-Cr3Si.save
     NEW-OLD atomic charge density approx. for the potential
     NEW k-points:
        k(    1) = (   0.0000000   0.0000000   0.0000000), wk =   0.0095238
        k(    2) = (   0.0000000   0.0000000   0.1199996), wk =   0.0190476
        k(    3) = (   0.0000000   0.0000000   0.2399992), wk =   0.0190476
        k(    4) = (   0.0000000   0.0000000   0.3599988), wk =   0.0190476
        k(    5) = (   0.0000000   0.1399995   0.0000000), wk =   0.0190476
        k(    6) = (   0.0000000   0.1399995   0.1199996), wk =   0.0380952
        k(    7) = (   0.0000000   0.1399995   0.2399992), wk =   0.0380952
        k(    8) = (   0.0000000   0.1399995   0.3599988), wk =   0.0380952
        k(    9) = (   0.0000000   0.2799991   0.0000000), wk =   0.0190476
        k(   10) = (   0.0000000   0.2799991   0.1199996), wk =   0.0380952
        k(   11) = (   0.0000000   0.2799991   0.2399992), wk =   0.0380952
        k(   12) = (   0.0000000   0.2799991   0.3599988), wk =   0.0380952
        k(   13) = (   0.0000000  -0.4199986   0.0000000), wk =   0.0095238
        k(   14) = (   0.0000000  -0.4199986   0.1199996), wk =   0.0190476
        k(   15) = (   0.0000000  -0.4199986   0.2399992), wk =   0.0190476
        k(   16) = (   0.0000000  -0.4199986   0.3599988), wk =   0.0190476
        k(   17) = (   0.1679994   0.0000000   0.0000000), wk =   0.0190476
        k(   18) = (   0.1679994   0.0000000   0.1199996), wk =   0.0380952
        k(   19) = (   0.1679994   0.0000000   0.2399992), wk =   0.0380952
        k(   20) = (   0.1679994   0.0000000   0.3599988), wk =   0.0380952
        k(   21) = (   0.1679994   0.1399995   0.0000000), wk =   0.0380952
        k(   22) = (   0.1679994   0.1399995   0.1199996), wk =   0.0761905
        k(   23) = (   0.1679994   0.1399995   0.2399992), wk =   0.0761905
        k(   24) = (   0.1679994   0.1399995   0.3599988), wk =   0.0761905
        k(   25) = (   0.1679994   0.2799991   0.0000000), wk =   0.0380952
        k(   26) = (   0.1679994   0.2799991   0.1199996), wk =   0.0761905
        k(   27) = (   0.1679994   0.2799991   0.2399992), wk =   0.0761905
        k(   28) = (   0.1679994   0.2799991   0.3599988), wk =   0.0761905
        k(   29) = (   0.1679994  -0.4199986   0.0000000), wk =   0.0190476
        k(   30) = (   0.1679994  -0.4199986   0.1199996), wk =   0.0380952
        k(   31) = (   0.1679994  -0.4199986   0.2399992), wk =   0.0380952
        k(   32) = (   0.1679994  -0.4199986   0.3599988), wk =   0.0380952
        k(   33) = (   0.3359989   0.0000000   0.0000000), wk =   0.0190476
        k(   34) = (   0.3359989   0.0000000   0.1199996), wk =   0.0380952
        k(   35) = (   0.3359989   0.0000000   0.2399992), wk =   0.0380952
        k(   36) = (   0.3359989   0.0000000   0.3599988), wk =   0.0380952
        k(   37) = (   0.3359989   0.1399995   0.0000000), wk =   0.0380952
        k(   38) = (   0.3359989   0.1399995   0.1199996), wk =   0.0761905
        k(   39) = (   0.3359989   0.1399995   0.2399992), wk =   0.0761905
        k(   40) = (   0.3359989   0.1399995   0.3599988), wk =   0.0761905
        k(   41) = (   0.3359989   0.2799991   0.0000000), wk =   0.0380952
        k(   42) = (   0.3359989   0.2799991   0.1199996), wk =   0.0761905
        k(   43) = (   0.3359989   0.2799991   0.2399992), wk =   0.0761905
        k(   44) = (   0.3359989   0.2799991   0.3599988), wk =   0.0761905
        k(   45) = (   0.3359989  -0.4199986   0.0000000), wk =   0.0190476
        k(   46) = (   0.3359989  -0.4199986   0.1199996), wk =   0.0380952
        k(   47) = (   0.3359989  -0.4199986   0.2399992), wk =   0.0380952
        k(   48) = (   0.3359989  -0.4199986   0.3599988), wk =   0.0380952

[...]

          total   stress  (Ry/bohr**3)                   (kbar)     P=-1256.45
  -0.00854115   0.00000000   0.00000000      -1256.45      0.00      0.00
   0.00000000  -0.00854115   0.00000000          0.00  -1256.45      0.00
   0.00000000   0.00000000  -0.00854115          0.00      0.00  -1256.45

     The maximum number of steps has been reached.

     End of BFGS Geometry Optimization
Begin final coordinates
     new unit-cell volume =   1048.84659 a.u.^3 (   155.42303 Ang^3 )

CELL_PARAMETERS (alat=  8.53457320)
   1.190480217   0.000000000   0.000000000
   0.000000000   1.190480217   0.000000000
   0.000000000   0.000000000   1.190480217

ATOMIC_POSITIONS (crystal)
Cr       0.000000000   0.500000000   0.250000000
Cr       0.000000000   0.500000000   0.750000000
Cr       0.500000000   0.750000000   0.000000000
Cr       0.500000000   0.250000000   0.000000000
Cr       0.750000000   0.000000000   0.500000000
Cr       0.250000000   0.000000000   0.500000000
Si       0.500000000   0.500000000   0.500000000
Si       0.000000000   0.000000000   0.000000000
End final coordinates

     A final scf calculation at the relaxed structure.
     The G-vectors are recalculated for the final unit cell
     Results may differ from those at the preceding step.

     bravais-lattice index     =            0
     lattice parameter (alat)  =       8.5346  a.u.
     unit-cell volume          =    1048.8466 (a.u.)^3
     number of atoms/cell      =            8
     number of atomic types    =            2
     number of electrons       =       166.00
     number of Kohn-Sham states=          100
     kinetic-energy cutoff     =      40.0000  Ry
     charge density cutoff     =     160.0000  Ry
     convergence threshold     =      1.0E-06
     mixing beta               =       0.7000
     number of iterations used =            8  plain     mixing
     Exchange-correlation      = SLA-PZ-NOGX-NOGC ( 1 1 0 0 0)
     EXX-fraction              =        0.00

     celldm(1)=   8.534573  celldm(2)=   0.000000  celldm(3)=   0.000000
     celldm(4)=   0.000000  celldm(5)=   0.000000  celldm(6)=   0.000000

     crystal axes: (cart. coord. in units of alat)
               a(1) = (   1.190480   0.000000   0.000000 )
               a(2) = (   0.000000   1.190480   0.000000 )
               a(3) = (   0.000000   0.000000   1.190480 )

     reciprocal axes: (cart. coord. in units 2 pi/alat)
               b(1) = (  0.839997  0.000000  0.000000 )
               b(2) = (  0.000000  0.839997  0.000000 )
               b(3) = (  0.000000  0.000000  0.839997 )

     PseudoPot. # 1 for Er read from file:
     /home/cwx6513/pp.La/Er.UPF
     MD5 check sum: e152ae21b84514339d8526f066caf99b
     Pseudo is Norm-conserving, Zval = 22.0
     Generated in analytical, separable form
     Using radial grid of 1267 points,  6 beta functions with:
                l(1) =   0
                l(2) =   0
                l(3) =   1
                l(4) =   1
                l(5) =   2
                l(6) =   3

     PseudoPot. # 2 for Eu read from file:
     /home/cwx6513/pp.La/Eu.UPF
     MD5 check sum: 5efdbbfc50c6a10138933a6429836ad2
     Pseudo is Norm-conserving, Zval = 17.0
     Generated in analytical, separable form
     Using radial grid of 1261 points,  6 beta functions with:
                l(1) =   0
                l(2) =   0
                l(3) =   1
                l(4) =   1
                l(5) =   2
                l(6) =   3

     atomic species   valence    mass     pseudopotential
        Cr            22.00    51.99610     Er( 1.00)
        Si            17.00    28.08550     Eu( 1.00)

     48 Sym. Ops., with inversion, found (24 have fractional translation)

   Cartesian axes

     site n.     atom                  positions (alat units)
         1           Cr  tau(   1) = (   0.0000000   0.5952401   0.2976201  )
         2           Cr  tau(   2) = (   0.0000000   0.5952401   0.8928602  )
         3           Cr  tau(   3) = (   0.5952401   0.8928602   0.0000000  )
         4           Cr  tau(   4) = (   0.5952401   0.2976201   0.0000000  )
         5           Cr  tau(   5) = (   0.8928602   0.0000000   0.5952401  )
         6           Cr  tau(   6) = (   0.2976201   0.0000000   0.5952401  )
         7           Si  tau(   7) = (   0.5952401   0.5952401   0.5952401  )
         8           Si  tau(   8) = (   0.0000000   0.0000000   0.0000000  )

     number of k points=    48  gaussian smearing, width (Ry)=  0.1000
                       cart. coord. in units 2pi/alat
        k(    1) = (   0.0000000   0.0000000   0.0000000), wk =   0.0095238
        k(    2) = (   0.0000000   0.0000000   0.1199996), wk =   0.0190476
        k(    3) = (   0.0000000   0.0000000   0.2399992), wk =   0.0190476
        k(    4) = (   0.0000000   0.0000000   0.3599988), wk =   0.0190476
        k(    5) = (   0.0000000   0.1399995   0.0000000), wk =   0.0190476
        k(    6) = (   0.0000000   0.1399995   0.1199996), wk =   0.0380952
        k(    7) = (   0.0000000   0.1399995   0.2399992), wk =   0.0380952
        k(    8) = (   0.0000000   0.1399995   0.3599988), wk =   0.0380952
        k(    9) = (   0.0000000   0.2799991   0.0000000), wk =   0.0190476
        k(   10) = (   0.0000000   0.2799991   0.1199996), wk =   0.0380952
        k(   11) = (   0.0000000   0.2799991   0.2399992), wk =   0.0380952
        k(   12) = (   0.0000000   0.2799991   0.3599988), wk =   0.0380952
        k(   13) = (   0.0000000  -0.4199986   0.0000000), wk =   0.0095238
        k(   14) = (   0.0000000  -0.4199986   0.1199996), wk =   0.0190476
        k(   15) = (   0.0000000  -0.4199986   0.2399992), wk =   0.0190476
        k(   16) = (   0.0000000  -0.4199986   0.3599988), wk =   0.0190476
        k(   17) = (   0.1679994   0.0000000   0.0000000), wk =   0.0190476
        k(   18) = (   0.1679994   0.0000000   0.1199996), wk =   0.0380952
        k(   19) = (   0.1679994   0.0000000   0.2399992), wk =   0.0380952
        k(   20) = (   0.1679994   0.0000000   0.3599988), wk =   0.0380952
        k(   21) = (   0.1679994   0.1399995   0.0000000), wk =   0.0380952
        k(   22) = (   0.1679994   0.1399995   0.1199996), wk =   0.0761905
        k(   23) = (   0.1679994   0.1399995   0.2399992), wk =   0.0761905
        k(   24) = (   0.1679994   0.1399995   0.3599988), wk =   0.0761905
        k(   25) = (   0.1679994   0.2799991   0.0000000), wk =   0.0380952
        k(   26) = (   0.1679994   0.2799991   0.1199996), wk =   0.0761905
        k(   27) = (   0.1679994   0.2799991   0.2399992), wk =   0.0761905
        k(   28) = (   0.1679994   0.2799991   0.3599988), wk =   0.0761905
        k(   29) = (   0.1679994  -0.4199986   0.0000000), wk =   0.0190476
        k(   30) = (   0.1679994  -0.4199986   0.1199996), wk =   0.0380952
        k(   31) = (   0.1679994  -0.4199986   0.2399992), wk =   0.0380952
        k(   32) = (   0.1679994  -0.4199986   0.3599988), wk =   0.0380952
        k(   33) = (   0.3359989   0.0000000   0.0000000), wk =   0.0190476
        k(   34) = (   0.3359989   0.0000000   0.1199996), wk =   0.0380952
        k(   35) = (   0.3359989   0.0000000   0.2399992), wk =   0.0380952
        k(   36) = (   0.3359989   0.0000000   0.3599988), wk =   0.0380952
        k(   37) = (   0.3359989   0.1399995   0.0000000), wk =   0.0380952
        k(   38) = (   0.3359989   0.1399995   0.1199996), wk =   0.0761905
        k(   39) = (   0.3359989   0.1399995   0.2399992), wk =   0.0761905
        k(   40) = (   0.3359989   0.1399995   0.3599988), wk =   0.0761905
        k(   41) = (   0.3359989   0.2799991   0.0000000), wk =   0.0380952
        k(   42) = (   0.3359989   0.2799991   0.1199996), wk =   0.0761905
        k(   43) = (   0.3359989   0.2799991   0.2399992), wk =   0.0761905
        k(   44) = (   0.3359989   0.2799991   0.3599988), wk =   0.0761905
        k(   45) = (   0.3359989  -0.4199986   0.0000000), wk =   0.0190476
        k(   46) = (   0.3359989  -0.4199986   0.1199996), wk =   0.0380952
        k(   47) = (   0.3359989  -0.4199986   0.2399992), wk =   0.0380952
        k(   48) = (   0.3359989  -0.4199986   0.3599988), wk =   0.0380952

     Largest allocated arrays     est. size (Mb)     dimensions
     Largest temporary arrays     est. size (Mb)     dimensions

     Initial potential from superposition of free atoms

     Starting from uniform charge
     Starting wfc are    0 randomized atomic wfcs

     Writing output data file Prototype-La-cP8-Cr3Si.save

     Self-consistent Calculation

[...]

     iteration #  9     ecut=    40.00 Ry     beta=0.70
     CG style diagonalization
     c_bands:  1 eigenvalues not converged
     c_bands:  1 eigenvalues not converged
     c_bands:  1 eigenvalues not converged
     ethr =  1.61E-06,  avg # of iterations =  3.6

[...]

     total energy              =   -2325.18369693 Ry
     Harris-Foulkes estimate   =   -2325.18369729 Ry
     estimated scf accuracy    <       0.00000126 Ry

     iteration # 12     ecut=    40.00 Ry     beta=0.70
     CG style diagonalization
     ethr =  7.58E-10,  avg # of iterations =  3.4

     End of self-consistent calculation

[...]

          k = 0.3360-0.4200 0.3600 (  4502 PWs)   bands (ev):

   -72.9304 -72.9297 -72.9261 -72.9256 -72.9206 -72.9190 -35.1015 -35.0840
   -35.0366 -35.0365 -34.9804 -34.9621 -34.8649 -34.8645 -34.8348 -34.8339
   -34.8321 -34.8301 -34.8274 -34.8263 -34.8230 -34.8205 -34.8145 -34.8126
   -34.4296 -34.4295  -7.3536  -7.3536  -7.3517  -7.3516  -7.3491  -7.3491
    10.8549  10.9977  11.2871  11.2912  11.3306  11.3313  11.3430  11.3630
    11.4829  11.5002  11.5740  11.6010  11.6445  11.6506  11.7274  11.7322
    11.9929  11.9933  12.0736  12.0822  12.0976  12.1165  12.1851  12.2564
    12.3564  12.3778  12.4151  12.4265  12.4425  12.4484  18.1545  18.1690
    18.8525  18.8623  19.3884  19.3889  22.4573  22.4573  24.2655  24.2668
    24.2937  24.2949  25.1785  25.2408  25.3965  25.4292  25.5420  25.5477
    29.3730  29.6155  30.3986  30.4621  31.4147  31.8267  32.7077  32.7543
    33.0308  33.0937  33.4748  33.5748  33.7074  33.7146  34.5614  34.5644
    34.6283  34.6656  35.3456  35.3557

     the Fermi energy is    29.3127 ev

!    total energy              =   -2325.18369676 Ry
     Harris-Foulkes estimate   =   -2325.18369713 Ry
     estimated scf accuracy    <       0.00000044 Ry

     The total energy is the sum of the following terms:

     one-electron contribution =    -531.26445491 Ry
     hartree contribution      =     375.98633234 Ry
     xc contribution           =    -204.91519655 Ry
     ewald contribution        =   -1964.76528757 Ry
     smearing contrib. (-TS)   =      -0.22509007 Ry

     convergence has been achieved in  12 iterations

     Forces acting on atoms (Ry/au):

     atom    1 type  1   force =     0.00000000    0.00000000    0.00000000
     atom    2 type  1   force =     0.00000000    0.00000000    0.00000000
     atom    3 type  1   force =     0.00000000    0.00000000    0.00000000
     atom    4 type  1   force =     0.00000000    0.00000000    0.00000000
     atom    5 type  1   force =     0.00000000    0.00000000    0.00000000
     atom    6 type  1   force =     0.00000000    0.00000000    0.00000000
     atom    7 type  2   force =     0.00000000    0.00000000    0.00000000
     atom    8 type  2   force =     0.00000000    0.00000000    0.00000000

     Total force =     0.000000     Total SCF correction =     0.000000

     entering subroutine stress ...

          total   stress  (Ry/bohr**3)                   (kbar)     P=  109.46
   0.00074409   0.00000000   0.00000000        109.46      0.00      0.00
   0.00000000   0.00074409   0.00000000          0.00    109.46      0.00
   0.00000000   0.00000000   0.00074409          0.00      0.00    109.46

     Writing output data file Prototype-La-cP8-Cr3Si.save

     General routines

     Parallel routines

   This run was terminated on:  23:20:23  22Mar2018

   JOB DONE.