     Program PWSCF v.5.0.2 starts on 22Mar2018 at 22:42:46

     Current dimensions of program PWSCF are:
     Max number of different atomic species (ntypx) = 10
     Max number of k-points (npk) =  40000
     Max angular momentum in pseudopotentials (lmaxx) =  3
     Waiting for input...
     Reading input from standard input

     Subspace diagonalization in iterative solution of the eigenvalue problem:
     a serial algorithm will be used

     bravais-lattice index     =            0
     lattice parameter (alat)  =      12.0168  a.u.
     unit-cell volume          =    1187.3413 (a.u.)^3
     number of atoms/cell      =            8
     number of atomic types    =            2
     number of electrons       =       166.00
     number of Kohn-Sham states=          100
     kinetic-energy cutoff     =      40.0000  Ry
     charge density cutoff     =     160.0000  Ry
     convergence threshold     =      1.0E-04
     mixing beta               =       0.7000
     number of iterations used =            8  plain     mixing
     Exchange-correlation      = SLA-PZ-NOGX-NOGC ( 1 1 0 0 0)
     EXX-fraction              =        0.00
     nstep                     =           50

     celldm(1)=  12.016801  celldm(2)=   0.000000  celldm(3)=   0.000000
     celldm(4)=   0.000000  celldm(5)=   0.000000  celldm(6)=   0.000000

     crystal axes: (cart. coord. in units of alat)
               a(1) = (   1.000000   0.000000   0.000000 )
               a(2) = (  -0.500000   0.866025   0.000000 )
               a(3) = (   0.000000   0.000000   0.790093 )

     reciprocal axes: (cart. coord. in units 2 pi/alat)
               b(1) = (  1.000000  0.577350  0.000000 )
               b(2) = (  0.000000  1.154701  0.000000 )
               b(3) = (  0.000000  0.000000  1.265674 )

     PseudoPot. # 1 for Er read from file:
     /home/cwx6513/pp.La/Er.UPF
     MD5 check sum: e152ae21b84514339d8526f066caf99b
     Pseudo is Norm-conserving, Zval = 22.0
     Generated in analytical, separable form
     Using radial grid of 1267 points,  6 beta functions with:
                l(1) =   0
                l(2) =   0
                l(3) =   1
                l(4) =   1
                l(5) =   2
                l(6) =   3

     PseudoPot. # 2 for Eu read from file:
     /home/cwx6513/pp.La/Eu.UPF
     MD5 check sum: 5efdbbfc50c6a10138933a6429836ad2
     Pseudo is Norm-conserving, Zval = 17.0
     Generated in analytical, separable form
     Using radial grid of 1261 points,  6 beta functions with:
                l(1) =   0
                l(2) =   0
                l(3) =   1
                l(4) =   1
                l(5) =   2
                l(6) =   3

     atomic species   valence    mass     pseudopotential
        Mg            22.00    24.30500     Er( 1.00)
        Cd            17.00   112.41100     Eu( 1.00)

     24 Sym. Ops., with inversion, found (12 have fractional translation)

   Cartesian axes

     site n.     atom                  positions (alat units)
         1           Mg  tau(   1) = (   0.2478935   0.7204716   0.1975233  )
         2           Mg  tau(   2) = (   0.7478935   0.1455538   0.5925699  )
         3           Mg  tau(   3) = (   0.2521065   0.1455538   0.5925699  )
         4           Mg  tau(   4) = (  -0.2478935   0.7204716   0.1975233  )
         5           Mg  tau(   5) = (   0.0000000   0.2911075   0.1975233  )
         6           Mg  tau(   6) = (   0.5000000   0.5749179   0.5925699  )
         7           Cd  tau(   7) = (   0.5000005   0.2886748   0.1975233  )
         8           Cd  tau(   8) = (  -0.0000005   0.5773506   0.5925699  )

     number of k points=    64  gaussian smearing, width (Ry)=  0.1000
                       cart. coord. in units 2pi/alat
        k(    1) = (   0.0000000   0.0000000   0.0000000), wk =   0.0095238
        k(    2) = (   0.0000000   0.0000000   0.1808105), wk =   0.0190476
        k(    3) = (   0.0000000   0.0000000   0.3616210), wk =   0.0190476
        k(    4) = (   0.0000000   0.0000000   0.5424315), wk =   0.0190476
        k(    5) = (   0.0000000   0.1924501   0.0000000), wk =   0.0190476
        k(    6) = (   0.0000000   0.1924501   0.1808105), wk =   0.0380952
        k(    7) = (   0.0000000   0.1924501   0.3616210), wk =   0.0380952
        k(    8) = (   0.0000000   0.1924501   0.5424315), wk =   0.0380952
        k(    9) = (   0.0000000   0.3849002   0.0000000), wk =   0.0190476
        k(   10) = (   0.0000000   0.3849002   0.1808105), wk =   0.0380952
        k(   11) = (   0.0000000   0.3849002   0.3616210), wk =   0.0380952
        k(   12) = (   0.0000000   0.3849002   0.5424315), wk =   0.0380952
        k(   13) = (   0.0000000  -0.5773503   0.0000000), wk =   0.0095238
        k(   14) = (   0.0000000  -0.5773503   0.1808105), wk =   0.0190476
        k(   15) = (   0.0000000  -0.5773503   0.3616210), wk =   0.0190476
        k(   16) = (   0.0000000  -0.5773503   0.5424315), wk =   0.0190476
        k(   17) = (   0.2000000   0.1154701   0.0000000), wk =   0.0190476
        k(   18) = (   0.2000000   0.1154701   0.1808105), wk =   0.0380952
        k(   19) = (   0.2000000   0.1154701   0.3616210), wk =   0.0380952
        k(   20) = (   0.2000000   0.1154701   0.5424315), wk =   0.0380952
        k(   21) = (   0.2000000   0.3079201   0.0000000), wk =   0.0190476
        k(   22) = (   0.2000000   0.3079201   0.1808105), wk =   0.0380952
        k(   23) = (   0.2000000   0.3079201   0.3616210), wk =   0.0380952
        k(   24) = (   0.2000000   0.3079201   0.5424315), wk =   0.0380952
        k(   25) = (   0.2000000   0.5003702   0.0000000), wk =   0.0190476
        k(   26) = (   0.2000000   0.5003702   0.1808105), wk =   0.0380952
        k(   27) = (   0.2000000   0.5003702   0.3616210), wk =   0.0380952
        k(   28) = (   0.2000000   0.5003702   0.5424315), wk =   0.0380952
        k(   29) = (   0.2000000  -0.4618802   0.0000000), wk =   0.0190476
        k(   30) = (   0.2000000  -0.4618802   0.1808105), wk =   0.0380952
        k(   31) = (   0.2000000  -0.4618802   0.3616210), wk =   0.0380952
        k(   32) = (   0.2000000  -0.4618802   0.5424315), wk =   0.0380952
        k(   33) = (   0.2000000  -0.2694301   0.0000000), wk =   0.0190476
        k(   34) = (   0.2000000  -0.2694301   0.1808105), wk =   0.0380952
        k(   35) = (   0.2000000  -0.2694301   0.3616210), wk =   0.0380952
        k(   36) = (   0.2000000  -0.2694301   0.5424315), wk =   0.0380952
        k(   37) = (   0.2000000  -0.0769800   0.0000000), wk =   0.0190476
        k(   38) = (   0.2000000  -0.0769800   0.1808105), wk =   0.0380952
        k(   39) = (   0.2000000  -0.0769800   0.3616210), wk =   0.0380952
        k(   40) = (   0.2000000  -0.0769800   0.5424315), wk =   0.0380952
        k(   41) = (   0.4000000   0.2309401   0.0000000), wk =   0.0190476
        k(   42) = (   0.4000000   0.2309401   0.1808105), wk =   0.0380952
        k(   43) = (   0.4000000   0.2309401   0.3616210), wk =   0.0380952
        k(   44) = (   0.4000000   0.2309401   0.5424315), wk =   0.0380952
        k(   45) = (   0.4000000   0.4233902   0.0000000), wk =   0.0190476
        k(   46) = (   0.4000000   0.4233902   0.1808105), wk =   0.0380952
        k(   47) = (   0.4000000   0.4233902   0.3616210), wk =   0.0380952
        k(   48) = (   0.4000000   0.4233902   0.5424315), wk =   0.0380952
        k(   49) = (   0.4000000   0.6158403   0.0000000), wk =   0.0190476
        k(   50) = (   0.4000000   0.6158403   0.1808105), wk =   0.0380952
        k(   51) = (   0.4000000   0.6158403   0.3616210), wk =   0.0380952
        k(   52) = (   0.4000000   0.6158403   0.5424315), wk =   0.0380952
        k(   53) = (   0.4000000  -0.3464102   0.0000000), wk =   0.0190476
        k(   54) = (   0.4000000  -0.3464102   0.1808105), wk =   0.0380952
        k(   55) = (   0.4000000  -0.3464102   0.3616210), wk =   0.0380952
        k(   56) = (   0.4000000  -0.3464102   0.5424315), wk =   0.0380952
        k(   57) = (   0.4000000  -0.1539601   0.0000000), wk =   0.0190476
        k(   58) = (   0.4000000  -0.1539601   0.1808105), wk =   0.0380952
        k(   59) = (   0.4000000  -0.1539601   0.3616210), wk =   0.0380952
        k(   60) = (   0.4000000  -0.1539601   0.5424315), wk =   0.0380952
        k(   61) = (   0.4000000   0.0384900   0.0000000), wk =   0.0190476
        k(   62) = (   0.4000000   0.0384900   0.1808105), wk =   0.0380952
        k(   63) = (   0.4000000   0.0384900   0.3616210), wk =   0.0380952
        k(   64) = (   0.4000000   0.0384900   0.5424315), wk =   0.0380952

     Largest allocated arrays     est. size (Mb)     dimensions
     Largest temporary arrays     est. size (Mb)     dimensions

     Initial potential from superposition of free atoms

     Starting from uniform charge
     Starting wfc are    0 randomized atomic wfcs

     Self-consistent Calculation

     iteration #  1     ecut=    40.00 Ry     beta=0.70
     CG style diagonalization
     c_bands:  3 eigenvalues not converged
     c_bands:  3 eigenvalues not converged
     c_bands:  3 eigenvalues not converged
     c_bands:  2 eigenvalues not converged
     c_bands:  5 eigenvalues not converged
     c_bands:  5 eigenvalues not converged
     c_bands:  3 eigenvalues not converged
     c_bands:  4 eigenvalues not converged
     c_bands:  4 eigenvalues not converged
     c_bands:  4 eigenvalues not converged
     c_bands:  4 eigenvalues not converged
     c_bands:  5 eigenvalues not converged
     c_bands:  4 eigenvalues not converged
     c_bands:  2 eigenvalues not converged
     c_bands:  3 eigenvalues not converged
     c_bands:  3 eigenvalues not converged
     c_bands:  2 eigenvalues not converged
     c_bands:  4 eigenvalues not converged
     c_bands:  3 eigenvalues not converged
     c_bands:  3 eigenvalues not converged
     c_bands:  3 eigenvalues not converged
     c_bands:  2 eigenvalues not converged
     c_bands:  3 eigenvalues not converged
     c_bands:  1 eigenvalues not converged
     c_bands:  3 eigenvalues not converged
     c_bands:  4 eigenvalues not converged
     c_bands:  3 eigenvalues not converged
     c_bands:  3 eigenvalues not converged
     c_bands:  3 eigenvalues not converged
     c_bands:  5 eigenvalues not converged
     c_bands:  1 eigenvalues not converged
     c_bands:  4 eigenvalues not converged
     c_bands:  2 eigenvalues not converged
     c_bands:  2 eigenvalues not converged
     c_bands:  2 eigenvalues not converged
     c_bands:  3 eigenvalues not converged
     c_bands:  4 eigenvalues not converged
     c_bands:  4 eigenvalues not converged
     c_bands:  4 eigenvalues not converged
     c_bands:  4 eigenvalues not converged
     c_bands:  5 eigenvalues not converged
     c_bands:  3 eigenvalues not converged
     c_bands:  1 eigenvalues not converged
     c_bands:  3 eigenvalues not converged
     c_bands:  2 eigenvalues not converged
     c_bands:  3 eigenvalues not converged
     c_bands:  4 eigenvalues not converged
     c_bands:  4 eigenvalues not converged
     c_bands:  3 eigenvalues not converged
     c_bands:  4 eigenvalues not converged
[...]
        k(   16) = (   0.0000000  -0.6090067   0.5675849), wk =   0.0190476
        k(   17) = (   0.2109661   0.1218013   0.0000000), wk =   0.0190476
        k(   18) = (   0.2109661   0.1218013   0.1891950), wk =   0.0380952
        k(   19) = (   0.2109661   0.1218013   0.3783899), wk =   0.0380952
        k(   20) = (   0.2109661   0.1218013   0.5675849), wk =   0.0380952
        k(   21) = (   0.2109661   0.3248036   0.0000000), wk =   0.0190476
        k(   22) = (   0.2109661   0.3248036   0.1891950), wk =   0.0380952
        k(   23) = (   0.2109661   0.3248036   0.3783899), wk =   0.0380952
        k(   24) = (   0.2109661   0.3248036   0.5675849), wk =   0.0380952
        k(   25) = (   0.2109661   0.5278058   0.0000000), wk =   0.0190476
        k(   26) = (   0.2109661   0.5278058   0.1891950), wk =   0.0380952
        k(   27) = (   0.2109661   0.5278058   0.3783899), wk =   0.0380952
        k(   28) = (   0.2109661   0.5278058   0.5675849), wk =   0.0380952
        k(   29) = (   0.2109661  -0.4872054   0.0000000), wk =   0.0190476
        k(   30) = (   0.2109661  -0.4872054   0.1891950), wk =   0.0380952
        k(   31) = (   0.2109661  -0.4872054   0.3783899), wk =   0.0380952
        k(   32) = (   0.2109661  -0.4872054   0.5675849), wk =   0.0380952
        k(   33) = (   0.2109661  -0.2842031   0.0000000), wk =   0.0190476
        k(   34) = (   0.2109661  -0.2842031   0.1891950), wk =   0.0380952
        k(   35) = (   0.2109661  -0.2842031   0.3783899), wk =   0.0380952
        k(   36) = (   0.2109661  -0.2842031   0.5675849), wk =   0.0380952
        k(   37) = (   0.2109661  -0.0812009   0.0000000), wk =   0.0190476
        k(   38) = (   0.2109661  -0.0812009   0.1891950), wk =   0.0380952
        k(   39) = (   0.2109661  -0.0812009   0.3783899), wk =   0.0380952
        k(   40) = (   0.2109661  -0.0812009   0.5675849), wk =   0.0380952
        k(   41) = (   0.4219322   0.2436027   0.0000000), wk =   0.0190476
        k(   42) = (   0.4219322   0.2436027   0.1891950), wk =   0.0380952
        k(   43) = (   0.4219322   0.2436027   0.3783899), wk =   0.0380952
        k(   44) = (   0.4219322   0.2436027   0.5675849), wk =   0.0380952
        k(   45) = (   0.4219322   0.4466049   0.0000000), wk =   0.0190476
        k(   46) = (   0.4219322   0.4466049   0.1891950), wk =   0.0380952
        k(   47) = (   0.4219322   0.4466049   0.3783899), wk =   0.0380952
        k(   48) = (   0.4219322   0.4466049   0.5675849), wk =   0.0380952
        k(   49) = (   0.4219322   0.6496072   0.0000000), wk =   0.0190476
        k(   50) = (   0.4219322   0.6496072   0.1891950), wk =   0.0380952
        k(   51) = (   0.4219322   0.6496072   0.3783899), wk =   0.0380952
        k(   52) = (   0.4219322   0.6496072   0.5675849), wk =   0.0380952
        k(   53) = (   0.4219322  -0.3654040   0.0000000), wk =   0.0190476
        k(   54) = (   0.4219322  -0.3654040   0.1891950), wk =   0.0380952
        k(   55) = (   0.4219322  -0.3654040   0.3783899), wk =   0.0380952
        k(   56) = (   0.4219322  -0.3654040   0.5675849), wk =   0.0380952
        k(   57) = (   0.4219322  -0.1624018   0.0000000), wk =   0.0190476
        k(   58) = (   0.4219322  -0.1624018   0.1891950), wk =   0.0380952
        k(   59) = (   0.4219322  -0.1624018   0.3783899), wk =   0.0380952
        k(   60) = (   0.4219322  -0.1624018   0.5675849), wk =   0.0380952
        k(   61) = (   0.4219322   0.0406004   0.0000000), wk =   0.0190476
        k(   62) = (   0.4219322   0.0406004   0.1891950), wk =   0.0380952
        k(   63) = (   0.4219322   0.0406004   0.3783899), wk =   0.0380952
        k(   64) = (   0.4219322   0.0406004   0.5675849), wk =   0.0380952

[...]

     Threshold (ethr) on eigenvalues was too large:
     Diagonalizing with lowered threshold

     CG style diagonalization
     ethr =  9.42E-08,  avg # of iterations =  3.3

[...]

     The maximum number of steps has been reached.

     End of BFGS Geometry Optimization
Begin final coordinates
     new unit-cell volume =   1019.82170 a.u.^3 (   151.12198 Ang^3 )

CELL_PARAMETERS (alat= 12.01680127)
   0.948019554   0.000000000   0.000000000
  -0.474009777   0.821009017   0.000000000
   0.000000000   0.000000000   0.755078992

ATOMIC_POSITIONS (crystal)
Mg       0.657500529   0.828750264   0.250000000
Mg       0.828750264   0.171249736   0.750000000
Mg       0.342499471   0.171249736   0.750000000
Mg       0.171249736   0.828750264   0.250000000
Mg       0.171249736   0.342499471   0.250000000
Mg       0.828750264   0.657500529   0.750000000
Cd       0.666667000   0.333333000   0.250000000
Cd       0.333333000   0.666667000   0.750000000
End final coordinates

     A final scf calculation at the relaxed structure.
     The G-vectors are recalculated for the final unit cell
     Results may differ from those at the preceding step.

     bravais-lattice index     =            0
     lattice parameter (alat)  =      12.0168  a.u.
     unit-cell volume          =    1019.8217 (a.u.)^3
     number of atoms/cell      =            8
     number of atomic types    =            2
     number of electrons       =       166.00
     number of Kohn-Sham states=          100
     kinetic-energy cutoff     =      40.0000  Ry
     charge density cutoff     =     160.0000  Ry
     convergence threshold     =      1.0E-04
     mixing beta               =       0.7000
     number of iterations used =            8  plain     mixing
     Exchange-correlation      = SLA-PZ-NOGX-NOGC ( 1 1 0 0 0)
     EXX-fraction              =        0.00

     celldm(1)=  12.016801  celldm(2)=   0.000000  celldm(3)=   0.000000
     celldm(4)=   0.000000  celldm(5)=   0.000000  celldm(6)=   0.000000

     crystal axes: (cart. coord. in units of alat)
               a(1) = (   0.948020   0.000000   0.000000 )
               a(2) = (  -0.474010   0.821009   0.000000 )
               a(3) = (   0.000000   0.000000   0.755079 )

     reciprocal axes: (cart. coord. in units 2 pi/alat)
               b(1) = (  1.054831  0.609007  0.000000 )
               b(2) = (  0.000000  1.218013  0.000000 )
               b(3) = (  0.000000  0.000000  1.324365 )

     PseudoPot. # 1 for Er read from file:
     /home/cwx6513/pp.La/Er.UPF
     MD5 check sum: e152ae21b84514339d8526f066caf99b
     Pseudo is Norm-conserving, Zval = 22.0
     Generated in analytical, separable form
     Using radial grid of 1267 points,  6 beta functions with:
                l(1) =   0
                l(2) =   0
                l(3) =   1
                l(4) =   1
                l(5) =   2
                l(6) =   3

     PseudoPot. # 2 for Eu read from file:
     /home/cwx6513/pp.La/Eu.UPF
     MD5 check sum: 5efdbbfc50c6a10138933a6429836ad2
     Pseudo is Norm-conserving, Zval = 17.0
     Generated in analytical, separable form
     Using radial grid of 1261 points,  6 beta functions with:
                l(1) =   0
                l(2) =   0
                l(3) =   1
                l(4) =   1
                l(5) =   2
                l(6) =   3

     atomic species   valence    mass     pseudopotential
        Mg            22.00    24.30500     Er( 1.00)
        Cd            17.00   112.41100     Eu( 1.00)

     24 Sym. Ops., with inversion, found (12 have fractional translation)

   Cartesian axes

     site n.     atom                  positions (alat units)
         1           Mg  tau(   1) = (   0.2304876   0.6804114   0.1887697  )
         2           Mg  tau(   2) = (   0.7044974   0.1405976   0.5663092  )
         3           Mg  tau(   3) = (   0.2435221   0.1405976   0.5663092  )
         4           Mg  tau(   4) = (  -0.2304876   0.6804114   0.1887697  )
         5           Mg  tau(   5) = (   0.0000000   0.2811952   0.1887697  )
         6           Mg  tau(   6) = (   0.4740098   0.5398139   0.5663092  )
         7           Cd  tau(   7) = (   0.4740103   0.2736694   0.1887697  )
         8           Cd  tau(   8) = (  -0.0000005   0.5473396   0.5663092  )

     number of k points=    64  gaussian smearing, width (Ry)=  0.1000
                       cart. coord. in units 2pi/alat
        k(    1) = (   0.0000000   0.0000000   0.0000000), wk =   0.0095238
        k(    2) = (   0.0000000   0.0000000   0.1891950), wk =   0.0190476
        k(    3) = (   0.0000000   0.0000000   0.3783899), wk =   0.0190476
        k(    4) = (   0.0000000   0.0000000   0.5675849), wk =   0.0190476
        k(    5) = (   0.0000000   0.2030022   0.0000000), wk =   0.0190476
        k(    6) = (   0.0000000   0.2030022   0.1891950), wk =   0.0380952
        k(    7) = (   0.0000000   0.2030022   0.3783899), wk =   0.0380952
        k(    8) = (   0.0000000   0.2030022   0.5675849), wk =   0.0380952
        k(    9) = (   0.0000000   0.4060045   0.0000000), wk =   0.0190476
        k(   10) = (   0.0000000   0.4060045   0.1891950), wk =   0.0380952
        k(   11) = (   0.0000000   0.4060045   0.3783899), wk =   0.0380952
        k(   12) = (   0.0000000   0.4060045   0.5675849), wk =   0.0380952
        k(   13) = (   0.0000000  -0.6090067   0.0000000), wk =   0.0095238
        k(   14) = (   0.0000000  -0.6090067   0.1891950), wk =   0.0190476
        k(   15) = (   0.0000000  -0.6090067   0.3783899), wk =   0.0190476
        k(   16) = (   0.0000000  -0.6090067   0.5675849), wk =   0.0190476
        k(   17) = (   0.2109661   0.1218013   0.0000000), wk =   0.0190476
        k(   18) = (   0.2109661   0.1218013   0.1891950), wk =   0.0380952
        k(   19) = (   0.2109661   0.1218013   0.3783899), wk =   0.0380952
        k(   20) = (   0.2109661   0.1218013   0.5675849), wk =   0.0380952
        k(   21) = (   0.2109661   0.3248036   0.0000000), wk =   0.0190476
        k(   22) = (   0.2109661   0.3248036   0.1891950), wk =   0.0380952
        k(   23) = (   0.2109661   0.3248036   0.3783899), wk =   0.0380952
        k(   24) = (   0.2109661   0.3248036   0.5675849), wk =   0.0380952
        k(   25) = (   0.2109661   0.5278058   0.0000000), wk =   0.0190476
        k(   26) = (   0.2109661   0.5278058   0.1891950), wk =   0.0380952
        k(   27) = (   0.2109661   0.5278058   0.3783899), wk =   0.0380952
        k(   28) = (   0.2109661   0.5278058   0.5675849), wk =   0.0380952
        k(   29) = (   0.2109661  -0.4872054   0.0000000), wk =   0.0190476
        k(   30) = (   0.2109661  -0.4872054   0.1891950), wk =   0.0380952
        k(   31) = (   0.2109661  -0.4872054   0.3783899), wk =   0.0380952
        k(   32) = (   0.2109661  -0.4872054   0.5675849), wk =   0.0380952
        k(   33) = (   0.2109661  -0.2842031   0.0000000), wk =   0.0190476
        k(   34) = (   0.2109661  -0.2842031   0.1891950), wk =   0.0380952
        k(   35) = (   0.2109661  -0.2842031   0.3783899), wk =   0.0380952
        k(   36) = (   0.2109661  -0.2842031   0.5675849), wk =   0.0380952
        k(   37) = (   0.2109661  -0.0812009   0.0000000), wk =   0.0190476
        k(   38) = (   0.2109661  -0.0812009   0.1891950), wk =   0.0380952
        k(   39) = (   0.2109661  -0.0812009   0.3783899), wk =   0.0380952
        k(   40) = (   0.2109661  -0.0812009   0.5675849), wk =   0.0380952
        k(   41) = (   0.4219322   0.2436027   0.0000000), wk =   0.0190476
        k(   42) = (   0.4219322   0.2436027   0.1891950), wk =   0.0380952
        k(   43) = (   0.4219322   0.2436027   0.3783899), wk =   0.0380952
        k(   44) = (   0.4219322   0.2436027   0.5675849), wk =   0.0380952
        k(   45) = (   0.4219322   0.4466049   0.0000000), wk =   0.0190476
        k(   46) = (   0.4219322   0.4466049   0.1891950), wk =   0.0380952
        k(   47) = (   0.4219322   0.4466049   0.3783899), wk =   0.0380952
        k(   48) = (   0.4219322   0.4466049   0.5675849), wk =   0.0380952
        k(   49) = (   0.4219322   0.6496072   0.0000000), wk =   0.0190476
        k(   50) = (   0.4219322   0.6496072   0.1891950), wk =   0.0380952
        k(   51) = (   0.4219322   0.6496072   0.3783899), wk =   0.0380952
        k(   52) = (   0.4219322   0.6496072   0.5675849), wk =   0.0380952
        k(   53) = (   0.4219322  -0.3654040   0.0000000), wk =   0.0190476
        k(   54) = (   0.4219322  -0.3654040   0.1891950), wk =   0.0380952
        k(   55) = (   0.4219322  -0.3654040   0.3783899), wk =   0.0380952
        k(   56) = (   0.4219322  -0.3654040   0.5675849), wk =   0.0380952
        k(   57) = (   0.4219322  -0.1624018   0.0000000), wk =   0.0190476
        k(   58) = (   0.4219322  -0.1624018   0.1891950), wk =   0.0380952
        k(   59) = (   0.4219322  -0.1624018   0.3783899), wk =   0.0380952
        k(   60) = (   0.4219322  -0.1624018   0.5675849), wk =   0.0380952
        k(   61) = (   0.4219322   0.0406004   0.0000000), wk =   0.0190476
        k(   62) = (   0.4219322   0.0406004   0.1891950), wk =   0.0380952
        k(   63) = (   0.4219322   0.0406004   0.3783899), wk =   0.0380952
        k(   64) = (   0.4219322   0.0406004   0.5675849), wk =   0.0380952

     Largest allocated arrays     est. size (Mb)     dimensions
     Largest temporary arrays     est. size (Mb)     dimensions

     Initial potential from superposition of free atoms

     Starting from uniform charge
     Starting wfc are    0 randomized atomic wfcs

     Writing output data file Prototype-La-hP8-Mg3Cd.save

     Self-consistent Calculation

[...]

     iteration #  7     ecut=    40.00 Ry     beta=0.70
     CG style diagonalization
     ethr =  7.01E-04,  avg # of iterations =  4.4

[...]

     total energy              =   -2325.07635618 Ry
     Harris-Foulkes estimate   =   -2325.07640962 Ry
     estimated scf accuracy    <       0.00010580 Ry

     iteration # 12     ecut=    40.00 Ry     beta=0.70
     CG style diagonalization
     c_bands:  1 eigenvalues not converged
     ethr =  6.37E-08,  avg # of iterations =  4.1

     End of self-consistent calculation

[...]

          k = 0.4219 0.0406 0.5676 (  4373 PWs)   bands (ev):

   -72.0211 -72.0153 -71.9986 -71.9958 -71.9909 -71.9843 -34.0662 -34.0636
   -34.0434 -34.0380 -34.0173 -34.0111 -34.0012 -33.9930 -33.9672 -33.9572
   -33.9522 -33.9493 -33.9330 -33.9258 -33.9225 -33.9205 -33.9084 -33.9022
   -33.4778 -33.4760  -6.5162  -6.5140  -6.3961  -6.3937  -6.3919  -6.3884
    11.6440  11.6821  11.7981  11.8743  11.9531  11.9951  12.0442  12.1437
    12.1515  12.1570  12.3379  12.3878  12.5923  12.7239  12.7531  12.7891
    12.8217  12.9818  13.0156  13.0490  13.1483  13.2108  13.2499  13.2953
    13.3579  13.3795  13.6661  13.6915  13.8264  13.9374  17.3753  18.5611
    19.7197  20.2448  21.0992  21.5224  23.3919  23.7570  23.9255  24.2057
    25.0653  25.3869  25.5984  25.7767  26.3261  26.5225  27.3842  27.5709
    28.5741  29.0165  30.3855  31.1062  31.6349  31.7522  32.7730  33.2428
    33.9037  34.1783  34.6539  34.8926  35.3288  35.4372  35.6901  35.7793
    36.1749  36.3768  36.6056  36.8910

     the Fermi energy is    30.0867 ev

!    total energy              =   -2325.07639244 Ry
     Harris-Foulkes estimate   =   -2325.07640680 Ry
     estimated scf accuracy    <       0.00001628 Ry

     The total energy is the sum of the following terms:

     one-electron contribution =    -496.42854080 Ry
     hartree contribution      =     364.24167110 Ry
     xc contribution           =    -205.20676624 Ry
     ewald contribution        =   -1987.44810852 Ry
     smearing contrib. (-TS)   =      -0.23464797 Ry

     convergence has been achieved in  12 iterations

     Forces acting on atoms (Ry/au):

     atom    1 type  1   force =     0.03728387    0.02152585    0.00000000
     atom    2 type  1   force =     0.03728387   -0.02152585    0.00000000
     atom    3 type  1   force =    -0.03728387   -0.02152585    0.00000000
     atom    4 type  1   force =    -0.03728387    0.02152585    0.00000000
     atom    5 type  1   force =     0.00000000   -0.04305171    0.00000000
     atom    6 type  1   force =     0.00000000    0.04305171    0.00000000
     atom    7 type  2   force =     0.00000000    0.00000000    0.00000000
     atom    8 type  2   force =     0.00000000    0.00000000    0.00000000

     Total force =     0.105455     Total SCF correction =     0.000000

     entering subroutine stress ...

          total   stress  (Ry/bohr**3)                   (kbar)     P=  181.57
   0.00113576   0.00000000   0.00000000        167.08      0.00      0.00
   0.00000000   0.00113576   0.00000000          0.00    167.08      0.00
   0.00000000   0.00000000   0.00143131          0.00      0.00    210.55

     Writing output data file Prototype-La-hP8-Mg3Cd.save

     General routines

     Parallel routines

   This run was terminated on:  23:41:43  22Mar2018

   JOB DONE.