     Program PWSCF v.5.0.2 starts on 22Mar2018 at  0:39:35

     Current dimensions of program PWSCF are:
     Max number of different atomic species (ntypx) = 10
     Max number of k-points (npk) =  40000
     Max angular momentum in pseudopotentials (lmaxx) =  3
     Waiting for input...
     Reading input from standard input

     Subspace diagonalization in iterative solution of the eigenvalue problem:
     a serial algorithm will be used

     bravais-lattice index     =            0
     lattice parameter (alat)  =       8.8008  a.u.
     unit-cell volume          =    1116.9454 (a.u.)^3
     number of atoms/cell      =           16
     number of atomic types    =            2
     number of electrons       =       220.00
     number of Kohn-Sham states=          132
     kinetic-energy cutoff     =      40.0000  Ry
     charge density cutoff     =     160.0000  Ry
     convergence threshold     =      1.0E-04
     mixing beta               =       0.7000
     number of iterations used =            8  plain     mixing
     Exchange-correlation      = SLA-PZ-NOGX-NOGC ( 1 1 0 0 0)
     EXX-fraction              =        0.00
     nstep                     =           50

     celldm(1)=   8.800765  celldm(2)=   0.000000  celldm(3)=   0.000000
     celldm(4)=   0.000000  celldm(5)=   0.000000  celldm(6)=   0.000000

     crystal axes: (cart. coord. in units of alat)
               a(1) = (   1.000000   0.000000   0.000000 )
               a(2) = (   0.000000   1.083771   0.000000 )
               a(3) = (   0.000000   0.000000   1.511935 )

     reciprocal axes: (cart. coord. in units 2 pi/alat)
               b(1) = (  1.000000  0.000000  0.000000 )
               b(2) = (  0.000000  0.922704  0.000000 )
               b(3) = (  0.000000  0.000000  0.661404 )

     PseudoPot. # 1 for Ce read from file:
     /home/jld5415/pp.La/Ce.UPF
     MD5 check sum: 44451aa79a44a00cf2bc029dc19922f6
     Pseudo is Norm-conserving, Zval = 12.0
     Generated in analytical, separable form
     Using radial grid of 1255 points,  6 beta functions with:
                l(1) =   0
                l(2) =   0
                l(3) =   1
                l(4) =   1
                l(5) =   2
                l(6) =   3

     PseudoPot. # 2 for Tb read from file:
     /home/jld5415/pp.La/Tb.UPF
     MD5 check sum: 3d6088a3f0cf7fd2e110c43f7f8e95c2
     Pseudo is Norm-conserving, Zval = 19.0
     Generated in analytical, separable form
     Using radial grid of 1263 points,  6 beta functions with:
                l(1) =   0
                l(2) =   0
                l(3) =   1
                l(4) =   1
                l(5) =   2
                l(6) =   3

     atomic species   valence    mass     pseudopotential
        Fe            12.00    55.84500     Ce( 1.00)
        C             19.00    12.01070     Tb( 1.00)

      8 Sym. Ops., with inversion, found ( 6 have fractional translation)

   Cartesian axes

     site n.     atom                  positions (alat units)
         1           Fe  tau(   1) = (   0.3472940   0.1827628   1.3947267  )
         2           Fe  tau(   2) = (   0.1527060   0.7246484   0.8731757  )
         3           Fe  tau(   3) = (   0.8472940   0.3591227   0.6387592  )
         4           Fe  tau(   4) = (   0.3396640   0.4879235   0.3779837  )
         5           Fe  tau(   5) = (   0.1527060   0.7246484   1.3947267  )
         6           Fe  tau(   6) = (   0.3472940   0.1827628   0.8731757  )
         7           Fe  tau(   7) = (   0.1603360   1.0298091   0.3779837  )
         8           Fe  tau(   8) = (   0.6527060   0.9010083   0.6387592  )
         9           Fe  tau(   9) = (   0.8472940   0.3591227   0.1172082  )
        10           Fe  tau(  10) = (   0.6603360   0.5958476   1.1339512  )
        11           Fe  tau(  11) = (   0.6527060   0.9010083   0.1172082  )
        12           Fe  tau(  12) = (   0.8396640   0.0539620   1.1339512  )
        13           C   tau(  13) = (   0.0000000   0.0000000   0.0000000  )
        14           C   tau(  14) = (   0.5000000   0.5418856   0.0000000  )
        15           C   tau(  15) = (   0.5000000   0.5418856   0.7559674  )
        16           C   tau(  16) = (   0.0000000   0.0000000   0.7559674  )

     number of k points=    12  gaussian smearing, width (Ry)=  0.1000
                       cart. coord. in units 2pi/alat
        k(    1) = (   0.0000000   0.0000000   0.0000000), wk =   0.0833333
        k(    2) = (   0.0000000   0.0000000   0.1653510), wk =   0.1666667
        k(    3) = (   0.0000000   0.0000000  -0.3307021), wk =   0.0833333
        k(    4) = (   0.0000000   0.3075680   0.0000000), wk =   0.1666667
        k(    5) = (   0.0000000   0.3075680   0.1653510), wk =   0.3333333
        k(    6) = (   0.0000000   0.3075680  -0.3307021), wk =   0.1666667
        k(    7) = (  -0.5000000   0.0000000   0.0000000), wk =   0.0833333
        k(    8) = (  -0.5000000   0.0000000   0.1653510), wk =   0.1666667
        k(    9) = (  -0.5000000   0.0000000  -0.3307021), wk =   0.0833333
        k(   10) = (  -0.5000000   0.3075680   0.0000000), wk =   0.1666667
        k(   11) = (  -0.5000000   0.3075680   0.1653510), wk =   0.3333333
        k(   12) = (  -0.5000000   0.3075680  -0.3307021), wk =   0.1666667

     Largest allocated arrays     est. size (Mb)     dimensions
     Largest temporary arrays     est. size (Mb)     dimensions

     Initial potential from superposition of free atoms

     Starting from uniform charge
     Starting wfc are    0 randomized atomic wfcs

     Self-consistent Calculation

     iteration #  1     ecut=    40.00 Ry     beta=0.70
     CG style diagonalization
     ethr =  1.00E-02,  avg # of iterations = 19.0

     total energy              =    -836.12015972 Ry
     Harris-Foulkes estimate   =   -2441.28105061 Ry
     estimated scf accuracy    <    1902.18429870 Ry

     iteration #  2     ecut=    40.00 Ry     beta=0.70
     CG style diagonalization
     c_bands:  3 eigenvalues not converged
     c_bands:  4 eigenvalues not converged
     c_bands:  1 eigenvalues not converged
     c_bands:  3 eigenvalues not converged
     c_bands:  4 eigenvalues not converged
     c_bands:  4 eigenvalues not converged
     ethr =  1.00E-02,  avg # of iterations = 16.4

[...]

     End of self-consistent calculation

          k = 0.0000 0.0000 0.0000 (  4785 PWs)   bands (ev):

   -38.4473 -38.4283 -38.3752 -38.3636  -9.9350  -9.8957  -9.8886  -9.8456
    -9.5361  -9.4297  -9.0434  -9.0333  -9.0024  -8.9956  -8.7028  -8.6630
     3.3201   3.8077   4.4148   4.6311   4.6707   5.4423   7.6757   8.3693
     8.7922   9.4653   9.9225   9.9421  16.2783  16.4959  16.5083  16.6536
    16.9789  17.0499  17.4132  17.6738  18.7347  21.1048  21.2074  21.5497
    21.6399  21.7264  21.8042  22.2733  22.3592  22.7172  22.8805  23.4980
    23.6024  23.9759  24.3445  24.4886  24.6975  24.8277  25.3387  25.4809
    25.5326  26.7281  26.9799  27.2098  27.2874  27.3107  27.4107  27.5084
    27.6376  27.7313  27.8248  28.0510  29.3831  29.6424  29.8702  30.4670
    32.5841  33.3123  33.5108  33.7371  37.1185  37.2337  38.4848  38.9611
    39.0504  39.1292  39.1758  39.2552  39.3258  39.8569  40.0933  40.2787
    41.2447  41.5078  41.7520  42.5681  42.7550  43.0618  43.1631  43.1908
    43.7742  43.8899  43.9135  44.0928  44.1194  44.2373  44.6378  44.8238
    45.3512  45.4344  45.6982  45.7787  45.9378  46.2684  46.2867  46.6431
    46.6531  46.9797  47.0740  47.2136  48.4339  48.4340  48.5952  48.6672
    48.8170  48.8805  49.1327  49.5335  50.5917  50.6872  51.0389  51.1391
    51.6102  51.7463  51.8747  52.6543

[...]

          k =-0.5000 0.0000 0.0000 (  4798 PWs)   bands (ev):

[...]

     the Fermi energy is    46.7978 ev

!    total energy              =   -1806.59756392 Ry
     Harris-Foulkes estimate   =   -1806.59761705 Ry
     estimated scf accuracy    <       0.00006244 Ry

     The total energy is the sum of the following terms:

     one-electron contribution =     207.86926292 Ry
     hartree contribution      =     231.22117093 Ry
     xc contribution           =    -239.95810591 Ry
     ewald contribution        =   -2005.21176628 Ry
     smearing contrib. (-TS)   =      -0.51812557 Ry

     convergence has been achieved in  10 iterations

     Forces acting on atoms (Ry/au):

     atom    1 type  1   force =     0.96174882   -1.03412876   -1.31380980
     atom    2 type  1   force =    -0.96174882   -1.03412876    1.31380980
     atom    3 type  1   force =     0.96174882    1.03412876   -1.31380980
     atom    4 type  1   force =    -1.62234813   -0.58383333    0.00000000
     atom    5 type  1   force =    -0.96174882   -1.03412876   -1.31380980
     atom    6 type  1   force =     0.96174882   -1.03412876    1.31380980
     atom    7 type  1   force =     1.62234813   -0.58383333    0.00000000
     atom    8 type  1   force =    -0.96174882    1.03412876   -1.31380980
     atom    9 type  1   force =     0.96174882    1.03412876    1.31380980
     atom   10 type  1   force =     1.62234813    0.58383333    0.00000000
     atom   11 type  1   force =    -0.96174882    1.03412876    1.31380980
     atom   12 type  1   force =    -1.62234813    0.58383333    0.00000000
     atom   13 type  2   force =     0.00000000    0.00000000    0.00000000
     atom   14 type  2   force =     0.00000000    0.00000000    0.00000000
     atom   15 type  2   force =     0.00000000    0.00000000    0.00000000
     atom   16 type  2   force =     0.00000000    0.00000000    0.00000000

     Total force =     6.454094     Total SCF correction =     0.000000

     entering subroutine stress ...

          total   stress  (Ry/bohr**3)                   (kbar)     P=11014.90
   0.07719947   0.00000000   0.00000000      11356.43      0.00      0.00
   0.00000000   0.07458408   0.00000000          0.00  10971.70      0.00
   0.00000000   0.00000000   0.07284987          0.00      0.00  10716.58

     BFGS Geometry Optimization

     number of scf cycles    =   1
     number of bfgs steps    =   0

     enthalpy new            =   -1806.5975639172 Ry

     new trust radius        =       0.5000000000 bohr
     new conv_thr            =       0.0001000000 Ry

     new unit-cell volume =   1378.12319 a.u.^3 (   204.21678 Ang^3 )

CELL_PARAMETERS (alat=  8.80076499)
   1.074803866   0.000000000   0.000000000
   0.000000000   1.162094887   0.000000000
   0.000000000   0.000000000   1.618661205

ATOMIC_POSITIONS (crystal)
Fe       0.351529561   0.164433707   0.918651086
Fe       0.148470439   0.664433707   0.581348914
Fe       0.851529561   0.335566293   0.418651086
Fe       0.332519146   0.447836531   0.250000000
Fe       0.148470439   0.664433707   0.918651086
Fe       0.351529561   0.164433707   0.581348914
Fe       0.167480854   0.947836531   0.250000000
Fe       0.648470439   0.835566293   0.418651086
Fe       0.851529561   0.335566293   0.081348914
Fe       0.667480854   0.552163469   0.750000000
Fe       0.648470439   0.835566293   0.081348914
Fe       0.832519146   0.052163469   0.750000000
C        0.000000000   0.000000000   0.000000000
C        0.500000000   0.500000000   0.000000000
C        0.500000000   0.500000000   0.500000000
C        0.000000000   0.000000000   0.500000000

     Writing output data file Prototype-La-oP16-Fe3C.save
     NEW-OLD atomic charge density approx. for the potential
     NEW k-points:
        k(    1) = (   0.0000000   0.0000000   0.0000000), wk =   0.0833333
        k(    2) = (   0.0000000   0.0000000   0.1544486), wk =   0.1666667
        k(    3) = (   0.0000000   0.0000000  -0.3088973), wk =   0.0833333
        k(    4) = (   0.0000000   0.2868383   0.0000000), wk =   0.1666667
        k(    5) = (   0.0000000   0.2868383   0.1544486), wk =   0.3333333
        k(    6) = (   0.0000000   0.2868383  -0.3088973), wk =   0.1666667
        k(    7) = (  -0.4652012   0.0000000   0.0000000), wk =   0.0833333
        k(    8) = (  -0.4652012   0.0000000   0.1544486), wk =   0.1666667
        k(    9) = (  -0.4652012   0.0000000  -0.3088973), wk =   0.0833333
        k(   10) = (  -0.4652012   0.2868383   0.0000000), wk =   0.1666667
        k(   11) = (  -0.4652012   0.2868383   0.1544486), wk =   0.3333333
        k(   12) = (  -0.4652012   0.2868383  -0.3088973), wk =   0.1666667

[...]

          total   stress  (Ry/bohr**3)                   (kbar)     P= 5356.99
   0.03784920   0.00000000   0.00000000       5567.81      0.00      0.00
   0.00000000   0.03568810   0.00000000          0.00   5249.90      0.00
   0.00000000   0.00000000   0.03571086          0.00      0.00   5253.25

[...]

     enthalpy old            =   -1806.5975639172 Ry
     enthalpy new            =   -1821.8413302183 Ry

     CASE: enthalpy_new < enthalpy_old

     small trust_radius: resetting bfgs history

     new trust radius        =       7.0253953152 bohr
     new conv_thr            =       0.0001000000 Ry

[...]

     number of scf cycles    =   3
     number of bfgs steps    =   2

     enthalpy old            =   -1821.8413302183 Ry
     enthalpy new            =   -1785.3216553749 Ry

     CASE: enthalpy_new > enthalpy_old

     new trust radius        =       3.8430686045 bohr

     trust_radius < trust_radius_min

     resetting bfgs history

     Message from routine bfgs:
     history already reset at previous step: stopping
     new conv_thr            =       0.0001000000 Ry

     new unit-cell volume =   1577.45938 a.u.^3 (   233.75536 Ang^3 )

[...]

ATOMIC_POSITIONS (crystal)
Fe       0.353077123   0.162770219   0.917186032
Fe       0.146922877   0.662770219   0.582813968
Fe       0.853077123   0.337229781   0.417186032
Fe       0.329861109   0.446885940   0.250000000
Fe       0.146922877   0.662770219   0.917186032
Fe       0.353077123   0.162770219   0.582813968
Fe       0.170138891   0.946885940   0.250000000
Fe       0.646922877   0.837229781   0.417186032
Fe       0.853077123   0.337229781   0.082813968
Fe       0.670138891   0.553114060   0.750000000
Fe       0.646922877   0.837229781   0.082813968
Fe       0.829861109   0.053114060   0.750000000
C        0.000000000   0.000000000   0.000000000
C        0.500000000   0.500000000   0.000000000
C        0.500000000   0.500000000   0.500000000
C        0.000000000   0.000000000   0.500000000

     Writing output data file Prototype-La-oP16-Fe3C.save
     NEW-OLD atomic charge density approx. for the potential
     NEW k-points:
        k(    1) = (   0.0000000   0.0000000   0.0000000), wk =   0.0833333
        k(    2) = (   0.0000000   0.0000000   0.1478967), wk =   0.1666667
        k(    3) = (   0.0000000   0.0000000  -0.2957934), wk =   0.0833333
        k(    4) = (   0.0000000   0.2746846   0.0000000), wk =   0.1666667
        k(    5) = (   0.0000000   0.2746846   0.1478967), wk =   0.3333333
        k(    6) = (   0.0000000   0.2746846  -0.2957934), wk =   0.1666667
        k(    7) = (  -0.4431993   0.0000000   0.0000000), wk =   0.0833333
        k(    8) = (  -0.4431993   0.0000000   0.1478967), wk =   0.1666667
        k(    9) = (  -0.4431993   0.0000000  -0.2957934), wk =   0.0833333
        k(   10) = (  -0.4431993   0.2746846   0.0000000), wk =   0.1666667
        k(   11) = (  -0.4431993   0.2746846   0.1478967), wk =   0.3333333
        k(   12) = (  -0.4431993   0.2746846  -0.2957934), wk =   0.1666667

[...]

     The maximum number of steps has been reached.

     End of BFGS Geometry Optimization
Begin final coordinates
     new unit-cell volume =   1577.45938 a.u.^3 (   233.75536 Ang^3 )

CELL_PARAMETERS (alat=  8.80076499)
   1.128160620   0.000000000   0.000000000
   0.000000000   1.213512911   0.000000000
   0.000000000   0.000000000   1.690369220

ATOMIC_POSITIONS (crystal)
Fe       0.353077123   0.162770219   0.917186032
Fe       0.146922877   0.662770219   0.582813968
Fe       0.853077123   0.337229781   0.417186032
Fe       0.329861109   0.446885940   0.250000000
Fe       0.146922877   0.662770219   0.917186032
Fe       0.353077123   0.162770219   0.582813968
Fe       0.170138891   0.946885940   0.250000000
Fe       0.646922877   0.837229781   0.417186032
Fe       0.853077123   0.337229781   0.082813968
Fe       0.670138891   0.553114060   0.750000000
Fe       0.646922877   0.837229781   0.082813968
Fe       0.829861109   0.053114060   0.750000000
C        0.000000000   0.000000000   0.000000000
C        0.500000000   0.500000000   0.000000000
C        0.500000000   0.500000000   0.500000000
C        0.000000000   0.000000000   0.500000000
End final coordinates

     A final scf calculation at the relaxed structure.
     The G-vectors are recalculated for the final unit cell
     Results may differ from those at the preceding step.

     bravais-lattice index     =            0
     lattice parameter (alat)  =       8.8008  a.u.
     unit-cell volume          =    1577.4594 (a.u.)^3
     number of atoms/cell      =           16
     number of atomic types    =            2
     number of electrons       =       220.00
     number of Kohn-Sham states=          132
     kinetic-energy cutoff     =      40.0000  Ry
     charge density cutoff     =     160.0000  Ry
     convergence threshold     =      1.0E-04
     mixing beta               =       0.7000
     number of iterations used =            8  plain     mixing
     Exchange-correlation      = SLA-PZ-NOGX-NOGC ( 1 1 0 0 0)
     EXX-fraction              =        0.00

     celldm(1)=   8.800765  celldm(2)=   0.000000  celldm(3)=   0.000000
     celldm(4)=   0.000000  celldm(5)=   0.000000  celldm(6)=   0.000000

     crystal axes: (cart. coord. in units of alat)
               a(1) = (   1.128161   0.000000   0.000000 )
               a(2) = (   0.000000   1.213513   0.000000 )
               a(3) = (   0.000000   0.000000   1.690369 )

     reciprocal axes: (cart. coord. in units 2 pi/alat)
               b(1) = (  0.886399  0.000000  0.000000 )
               b(2) = (  0.000000  0.824054  0.000000 )
               b(3) = (  0.000000  0.000000  0.591587 )

     PseudoPot. # 1 for Ce read from file:
     /home/jld5415/pp.La/Ce.UPF
     MD5 check sum: 44451aa79a44a00cf2bc029dc19922f6
     Pseudo is Norm-conserving, Zval = 12.0
     Generated in analytical, separable form
     Using radial grid of 1255 points,  6 beta functions with:
                l(1) =   0
                l(2) =   0
                l(3) =   1
                l(4) =   1
                l(5) =   2
                l(6) =   3

     PseudoPot. # 2 for Tb read from file:
     /home/jld5415/pp.La/Tb.UPF
     MD5 check sum: 3d6088a3f0cf7fd2e110c43f7f8e95c2
     Pseudo is Norm-conserving, Zval = 19.0
     Generated in analytical, separable form
     Using radial grid of 1263 points,  6 beta functions with:
                l(1) =   0
                l(2) =   0
                l(3) =   1
                l(4) =   1
                l(5) =   2
                l(6) =   3

     atomic species   valence    mass     pseudopotential
        Fe            12.00    55.84500     Ce( 1.00)
        C             19.00    12.01070     Tb( 1.00)

      8 Sym. Ops., with inversion, found ( 6 have fractional translation)

   Cartesian axes

     site n.     atom                  positions (alat units)
         1           Fe  tau(   1) = (   0.3983277   0.1975238   1.5503830  )
         2           Fe  tau(   2) = (   0.1657526   0.8042802   0.9851708  )
         3           Fe  tau(   3) = (   0.9624080   0.4092327   0.7051984  )
         4           Fe  tau(   4) = (   0.3721363   0.5423019   0.4225923  )
         5           Fe  tau(   5) = (   0.1657526   0.8042802   1.5503830  )
         6           Fe  tau(   6) = (   0.3983277   0.1975238   0.9851708  )
         7           Fe  tau(   7) = (   0.1919440   1.1490583   0.4225923  )
         8           Fe  tau(   8) = (   0.7298329   1.0159891   0.7051984  )
         9           Fe  tau(   9) = (   0.9624080   0.4092327   0.1399862  )
        10           Fe  tau(  10) = (   0.7560243   0.6712111   1.2677769  )
        11           Fe  tau(  11) = (   0.7298329   1.0159891   0.1399862  )
        12           Fe  tau(  12) = (   0.9362166   0.0644546   1.2677769  )
        13           C   tau(  13) = (   0.0000000   0.0000000   0.0000000  )
        14           C   tau(  14) = (   0.5640803   0.6067565   0.0000000  )
        15           C   tau(  15) = (   0.5640803   0.6067565   0.8451846  )
        16           C   tau(  16) = (   0.0000000   0.0000000   0.8451846  )

     number of k points=    12  gaussian smearing, width (Ry)=  0.1000
                       cart. coord. in units 2pi/alat
        k(    1) = (   0.0000000   0.0000000   0.0000000), wk =   0.0833333
        k(    2) = (   0.0000000   0.0000000   0.1478967), wk =   0.1666667
        k(    3) = (   0.0000000   0.0000000  -0.2957934), wk =   0.0833333
        k(    4) = (   0.0000000   0.2746846   0.0000000), wk =   0.1666667
        k(    5) = (   0.0000000   0.2746846   0.1478967), wk =   0.3333333
        k(    6) = (   0.0000000   0.2746846  -0.2957934), wk =   0.1666667
        k(    7) = (  -0.4431993   0.0000000   0.0000000), wk =   0.0833333
        k(    8) = (  -0.4431993   0.0000000   0.1478967), wk =   0.1666667
        k(    9) = (  -0.4431993   0.0000000  -0.2957934), wk =   0.0833333
        k(   10) = (  -0.4431993   0.2746846   0.0000000), wk =   0.1666667
        k(   11) = (  -0.4431993   0.2746846   0.1478967), wk =   0.3333333
        k(   12) = (  -0.4431993   0.2746846  -0.2957934), wk =   0.1666667

     Largest allocated arrays     est. size (Mb)     dimensions
     Largest temporary arrays     est. size (Mb)     dimensions

     Initial potential from superposition of free atoms

     Starting from uniform charge
     Starting wfc are    0 randomized atomic wfcs

     Writing output data file Prototype-La-oP16-Fe3C.save

     Self-consistent Calculation

[...]

     iteration # 10     ecut=    40.00 Ry     beta=0.70
     CG style diagonalization
     c_bands:  1 eigenvalues not converged
     c_bands:  1 eigenvalues not converged
     ethr =  1.67E-06,  avg # of iterations =  3.6

     total energy              =   -1829.95602432 Ry
     Harris-Foulkes estimate   =   -1829.95609589 Ry
     estimated scf accuracy    <       0.00011522 Ry

     iteration # 11     ecut=    40.00 Ry     beta=0.70
     CG style diagonalization
     ethr =  5.24E-08,  avg # of iterations =  5.4

     End of self-consistent calculation

[...]

          k = 0.0000 0.2747-0.2958 (  6720 PWs)   bands (ev):

[...]

          k =-0.4432 0.2747-0.2958 (  6748 PWs)   bands (ev):

   -48.1855 -48.1855 -48.1855 -48.1855 -17.8295 -17.8295 -17.8273 -17.8273
   -17.5695 -17.5695 -17.5695 -17.5695 -17.4906 -17.4906 -17.4871 -17.4871
    -6.1831  -6.1831  -6.1637  -6.1637  -5.6245  -5.6245  -5.4394  -5.4394
    -5.1786  -5.1786  -5.1210  -5.1210   8.2923   8.2923   8.3577   8.3577
     9.0456   9.0456   9.3973   9.3973   9.6322   9.6322   9.7642   9.7642
    10.7580  10.7580  11.0216  11.0216  11.1742  11.1742  11.8358  11.8358
    12.1326  12.1326  12.2847  12.2847  12.5349  12.5349  12.5749  12.5749
    13.0235  13.0235  13.3159  13.3159  13.8738  13.8738  14.0658  14.0658
    19.2225  19.2225  19.3345  19.3345  19.9004  19.9004  19.9147  19.9147
    21.0530  21.0530  21.0990  21.0990  23.4434  23.4434  23.5538  23.5538
    24.7463  24.7463  24.7501  24.7501  28.0801  28.0801  28.9784  28.9784
    29.2404  29.2404  29.6432  29.6432  29.7106  29.7106  29.9735  29.9735
    30.9055  30.9055  30.9185  30.9185  31.4668  31.4668  31.6778  31.6778
    31.9970  31.9970  32.0614  32.0614  33.1680  33.1680  33.4511  33.4511
    33.7125  33.7125  34.1928  34.1928  34.6105  34.6105  34.9188  34.9188
    35.2626  35.2626  35.8733  35.8735  36.1379  36.1380  36.4031  36.4032
    36.7794  36.7796  36.8498  36.8499

     the Fermi energy is    33.0868 ev

!    total energy              =   -1829.95611922 Ry
     Harris-Foulkes estimate   =   -1829.95619385 Ry
     estimated scf accuracy    <       0.00008198 Ry

     The total energy is the sum of the following terms:

     one-electron contribution =     -65.91750800 Ry
     hartree contribution      =     266.35870207 Ry
     xc contribution           =    -225.34037583 Ry
     ewald contribution        =   -1804.33413800 Ry
     smearing contrib. (-TS)   =      -0.72279946 Ry

     convergence has been achieved in  11 iterations

     Forces acting on atoms (Ry/au):

     atom    1 type  1   force =     0.39356822   -0.45556487   -0.54150236
     atom    2 type  1   force =    -0.39356822   -0.45556487    0.54150236
     atom    3 type  1   force =     0.39356822    0.45556487   -0.54150236
     atom    4 type  1   force =    -0.69734431   -0.25438792    0.00000000
     atom    5 type  1   force =    -0.39356822   -0.45556487   -0.54150236
     atom    6 type  1   force =     0.39356822   -0.45556487    0.54150236
     atom    7 type  1   force =     0.69734431   -0.25438792    0.00000000
     atom    8 type  1   force =    -0.39356822    0.45556487   -0.54150236
     atom    9 type  1   force =     0.39356822    0.45556487    0.54150236
     atom   10 type  1   force =     0.69734431    0.25438792    0.00000000
     atom   11 type  1   force =    -0.39356822    0.45556487    0.54150236
     atom   12 type  1   force =    -0.69734431    0.25438792    0.00000000
     atom   13 type  2   force =     0.00000000    0.00000000    0.00000000
     atom   14 type  2   force =     0.00000000    0.00000000    0.00000000
     atom   15 type  2   force =     0.00000000    0.00000000    0.00000000
     atom   16 type  2   force =     0.00000000    0.00000000    0.00000000

     Total force =     2.729339     Total SCF correction =     0.000000

     entering subroutine stress ...

          total   stress  (Ry/bohr**3)                   (kbar)     P= 3437.86
   0.02434267   0.00000000   0.00000000       3580.93      0.00      0.00
   0.00000000   0.02278057   0.00000000          0.00   3351.14      0.00
   0.00000000   0.00000000   0.02298707          0.00      0.00   3381.51

     Writing output data file Prototype-La-oP16-Fe3C.save

     General routines

     Parallel routines

   This run was terminated on:   1:16:30  22Mar2018

   JOB DONE.