     Program PWSCF v.5.0.2 starts on 22Mar2018 at  0:39:35

     Current dimensions of program PWSCF are:
     Max number of different atomic species (ntypx) = 10
     Max number of k-points (npk) =  40000
     Max angular momentum in pseudopotentials (lmaxx) =  3
     Waiting for input...
     Reading input from standard input

     Subspace diagonalization in iterative solution of the eigenvalue problem:
     a serial algorithm will be used

     bravais-lattice index     =            0
     lattice parameter (alat)  =      13.3930  a.u.
     unit-cell volume          =    1134.0956 (a.u.)^3
     number of atoms/cell      =            4
     number of atomic types    =            2
     number of electrons       =        62.00
     number of Kohn-Sham states=           37
     kinetic-energy cutoff     =      40.0000  Ry
     charge density cutoff     =     160.0000  Ry
     convergence threshold     =      1.0E-04
     mixing beta               =       0.7000
     number of iterations used =            8  plain     mixing
     Exchange-correlation      = SLA-PZ-NOGX-NOGC ( 1 1 0 0 0)
     EXX-fraction              =        0.00
     nstep                     =           50

     celldm(1)=  13.392972  celldm(2)=   0.000000  celldm(3)=   0.000000
     celldm(4)=   0.000000  celldm(5)=   0.000000  celldm(6)=   0.000000

     crystal axes: (cart. coord. in units of alat)
               a(1) = (   1.000000   0.000000   0.000000 )
               a(2) = (  -0.776311   0.630350   0.000000 )
               a(3) = (   0.000000   0.000000   0.748922 )

     reciprocal axes: (cart. coord. in units 2 pi/alat)
               b(1) = (  1.000000  1.231554  0.000000 )
               b(2) = (  0.000000  1.586419  0.000000 )
               b(3) = (  0.000000  0.000000  1.335252 )

     PseudoPot. # 1 for Ce read from file:
     /home/jld5415/pp.La/Ce.UPF
     MD5 check sum: 44451aa79a44a00cf2bc029dc19922f6
     Pseudo is Norm-conserving, Zval = 12.0
     Generated in analytical, separable form
     Using radial grid of 1255 points,  6 beta functions with:
                l(1) =   0
                l(2) =   0
                l(3) =   1
                l(4) =   1
                l(5) =   2
                l(6) =   3

     PseudoPot. # 2 for Tb read from file:
     /home/jld5415/pp.La/Tb.UPF
     MD5 check sum: 3d6088a3f0cf7fd2e110c43f7f8e95c2
     Pseudo is Norm-conserving, Zval = 19.0
     Generated in analytical, separable form
     Using radial grid of 1263 points,  6 beta functions with:
                l(1) =   0
                l(2) =   0
                l(3) =   1
                l(4) =   1
                l(5) =   2
                l(6) =   3

     atomic species   valence    mass     pseudopotential
        Tl            12.00   204.38300     Ce( 1.00)
        I             19.00   126.90400     Tb( 1.00)

      2 Sym. Ops., with inversion, found
          (note:  2 additional sym.ops. were found but ignored
           their fractional translations are incommensurate with FFT grid)

   Cartesian axes

     site n.     atom                  positions (alat units)
         1           Tl  tau(   1) = (  -0.0906317   0.3870269   0.5616917  )
         2           Tl  tau(   2) = (   0.3143210   0.2433234   0.1872306  )
         3           I   tau(   3) = (  -0.5408004   0.5467760   0.5616917  )
         4           I   tau(   4) = (   0.7644896   0.0835744   0.1872306  )

     number of k points=   106  gaussian smearing, width (Ry)=  0.1000

     Number of k-points >= 100: set verbosity='high' to print them.

     Largest allocated arrays     est. size (Mb)     dimensions
     Largest temporary arrays     est. size (Mb)     dimensions

     Initial potential from superposition of free atoms

     Starting from uniform charge
     Starting wfc are    0 randomized atomic wfcs

     Self-consistent Calculation

     iteration #  1     ecut=    40.00 Ry     beta=0.70
     CG style diagonalization
     ethr =  1.00E-02,  avg # of iterations = 20.3

     total energy              =    -221.44023072 Ry
     Harris-Foulkes estimate   =    -899.21414644 Ry
     estimated scf accuracy    <     823.14897339 Ry

     iteration #  2     ecut=    40.00 Ry     beta=0.70
     CG style diagonalization
     c_bands:  5 eigenvalues not converged
     c_bands:  4 eigenvalues not converged
     c_bands:  5 eigenvalues not converged
     c_bands:  5 eigenvalues not converged
     c_bands:  1 eigenvalues not converged
     c_bands:  2 eigenvalues not converged
     c_bands:  4 eigenvalues not converged
     c_bands:  1 eigenvalues not converged
     c_bands:  5 eigenvalues not converged
     c_bands:  4 eigenvalues not converged
     c_bands:  5 eigenvalues not converged
     c_bands:  3 eigenvalues not converged
     c_bands:  4 eigenvalues not converged
     c_bands:  1 eigenvalues not converged
     c_bands:  1 eigenvalues not converged
     c_bands:  2 eigenvalues not converged
     c_bands:  2 eigenvalues not converged
     c_bands:  5 eigenvalues not converged
     c_bands:  4 eigenvalues not converged
     c_bands:  4 eigenvalues not converged
     c_bands:  4 eigenvalues not converged
     c_bands:  5 eigenvalues not converged
     c_bands:  5 eigenvalues not converged
     c_bands:  5 eigenvalues not converged
     c_bands:  4 eigenvalues not converged
     c_bands:  2 eigenvalues not converged
     c_bands:  2 eigenvalues not converged
     c_bands:  5 eigenvalues not converged
     c_bands:  3 eigenvalues not converged
     c_bands:  5 eigenvalues not converged
     c_bands:  4 eigenvalues not converged
     c_bands:  5 eigenvalues not converged
     c_bands:  5 eigenvalues not converged
     c_bands:  5 eigenvalues not converged
     c_bands:  3 eigenvalues not converged
     c_bands:  5 eigenvalues not converged
     c_bands:  4 eigenvalues not converged
     c_bands:  4 eigenvalues not converged
     c_bands:  5 eigenvalues not converged
     c_bands:  5 eigenvalues not converged
     c_bands:  4 eigenvalues not converged
     c_bands:  2 eigenvalues not converged
     c_bands:  5 eigenvalues not converged
     c_bands:  4 eigenvalues not converged
     c_bands:  4 eigenvalues not converged
     c_bands:  1 eigenvalues not converged
     c_bands:  3 eigenvalues not converged
     c_bands:  2 eigenvalues not converged
     c_bands:  3 eigenvalues not converged
     c_bands:  2 eigenvalues not converged
     c_bands:  2 eigenvalues not converged
     c_bands:  3 eigenvalues not converged
     c_bands:  3 eigenvalues not converged
     c_bands:  3 eigenvalues not converged
     c_bands:  5 eigenvalues not converged
     c_bands:  1 eigenvalues not converged
     c_bands:  1 eigenvalues not converged
     c_bands:  4 eigenvalues not converged
     c_bands:  5 eigenvalues not converged
     c_bands:  4 eigenvalues not converged
     c_bands:  4 eigenvalues not converged
     c_bands:  5 eigenvalues not converged
     c_bands:  5 eigenvalues not converged
     c_bands:  5 eigenvalues not converged
     c_bands:  5 eigenvalues not converged
     c_bands:  4 eigenvalues not converged
     ethr =  1.00E-02,  avg # of iterations = 16.6

[...]

     negative rho (up, down):  0.676E-05 0.000E+00

[...]

     End of self-consistent calculation

     Number of k-points >= 100: set verbosity='high' to print the bands.

     the Fermi energy is     9.3387 ev

!    total energy              =    -613.25606642 Ry
     Harris-Foulkes estimate   =    -613.25607956 Ry
     estimated scf accuracy    <       0.00001432 Ry

     The total energy is the sum of the following terms:

     one-electron contribution =    -267.32907611 Ry
     hartree contribution      =     148.04903194 Ry
     xc contribution           =     -62.56477097 Ry
     ewald contribution        =    -431.05315517 Ry
     smearing contrib. (-TS)   =      -0.35809610 Ry

     convergence has been achieved in  11 iterations

     Forces acting on atoms (Ry/au):

     atom    1 type  1   force =    -0.00159715    0.00057535    0.00061701
     atom    2 type  1   force =     0.00159715   -0.00057535   -0.00061701
     atom    3 type  2   force =    -0.00027245    0.00014599    0.00140232
     atom    4 type  2   force =     0.00027245   -0.00014599   -0.00140232

     Total force =     0.003263     Total SCF correction =     0.000000

     entering subroutine stress ...

          total   stress  (Ry/bohr**3)                   (kbar)     P= -297.00
  -0.00201885   0.00000266  -0.00000009       -296.98      0.39     -0.01
   0.00000266  -0.00201180  -0.00000003          0.39   -295.95      0.00
  -0.00000009  -0.00000003  -0.00202625         -0.01      0.00   -298.07

     BFGS Geometry Optimization

     number of scf cycles    =   1
     number of bfgs steps    =   0

     enthalpy new            =    -613.2560664155 Ry

     new trust radius        =       0.3411838300 bohr
     new conv_thr            =       0.0001000000 Ry

     new unit-cell volume =    970.88971 a.u.^3 (   143.87101 Ang^3 )

CELL_PARAMETERS (alat= 13.39297219)
   0.949528743   0.000066498  -0.000002372
  -0.737087453   0.598595228   0.000001432
  -0.000001776  -0.000000486   0.710984581

ATOMIC_POSITIONS (crystal)
Tl       0.385946654   0.614055152   0.750061515
Tl       0.614053346   0.385944848   0.249938485
I        0.132577081   0.867433293   0.750139808
I        0.867422919   0.132566707   0.249860192

     Writing output data file Prototype-La-oS8-TlI.save
     NEW-OLD atomic charge density approx. for the potential
     NEW k-points: (use verbosity='high' to print them)

[...]

     enthalpy old            =    -613.2560664155 Ry
     enthalpy new            =    -613.5471413363 Ry

     CASE: enthalpy_new < enthalpy_old

     small trust_radius: resetting bfgs history

[...]

     number of scf cycles    =   3
     number of bfgs steps    =   2

     enthalpy old            =    -613.5471413363 Ry
     enthalpy new            =    -613.6851486990 Ry

     CASE: enthalpy_new < enthalpy_old

     Message from routine bfgs:
     history already reset at previous step: stopping
     small trust_radius: resetting bfgs history

     new trust radius        =       0.1539847516 bohr
     new conv_thr            =       0.0000257706 Ry

     new unit-cell volume =    800.27279 a.u.^3 (   118.58819 Ang^3 )

[...]

ATOMIC_POSITIONS (crystal)
Tl       0.387073438   0.612939164   0.749864374
Tl       0.612926562   0.387060836   0.250135626
I        0.130619596   0.869389252   0.749616762
I        0.869380404   0.130610748   0.250383238

     Writing output data file Prototype-La-oS8-TlI.save
     NEW-OLD atomic charge density approx. for the potential
     NEW k-points: (use verbosity='high' to print them)

[...]

     The maximum number of steps has been reached.

     End of BFGS Geometry Optimization
Begin final coordinates
     new unit-cell volume =    800.27279 a.u.^3 (   118.58819 Ang^3 )

CELL_PARAMETERS (alat= 13.39297219)
   0.889180715   0.000176706   0.000008612
  -0.690169160   0.560644394  -0.000008777
   0.000006461  -0.000002486   0.668072193

ATOMIC_POSITIONS (crystal)
Tl       0.387073438   0.612939164   0.749864374
Tl       0.612926562   0.387060836   0.250135626
I        0.130619596   0.869389252   0.749616762
I        0.869380404   0.130610748   0.250383238
End final coordinates

     A final scf calculation at the relaxed structure.
     The G-vectors are recalculated for the final unit cell
     Results may differ from those at the preceding step.

     bravais-lattice index     =            0
     lattice parameter (alat)  =      13.3930  a.u.
     unit-cell volume          =     800.2728 (a.u.)^3
     number of atoms/cell      =            4
     number of atomic types    =            2
     number of electrons       =        62.00
     number of Kohn-Sham states=           37
     kinetic-energy cutoff     =      40.0000  Ry
     charge density cutoff     =     160.0000  Ry
     convergence threshold     =      2.6E-05
     mixing beta               =       0.7000
     number of iterations used =            8  plain     mixing
     Exchange-correlation      = SLA-PZ-NOGX-NOGC ( 1 1 0 0 0)
     EXX-fraction              =        0.00

     celldm(1)=  13.392972  celldm(2)=   0.000000  celldm(3)=   0.000000
     celldm(4)=   0.000000  celldm(5)=   0.000000  celldm(6)=   0.000000

     crystal axes: (cart. coord. in units of alat)
               a(1) = (   0.889181   0.000177   0.000009 )
               a(2) = (  -0.690169   0.560644  -0.000009 )
               a(3) = (   0.000006  -0.000002   0.668072 )

     reciprocal axes: (cart. coord. in units 2 pi/alat)
               b(1) = (  1.124356  1.384114 -0.000006 )
               b(2) = ( -0.000354  1.783226  0.000007 )
               b(3) = ( -0.000014  0.000006  1.496844 )

     PseudoPot. # 1 for Ce read from file:
     /home/jld5415/pp.La/Ce.UPF
     MD5 check sum: 44451aa79a44a00cf2bc029dc19922f6
     Pseudo is Norm-conserving, Zval = 12.0
     Generated in analytical, separable form
     Using radial grid of 1255 points,  6 beta functions with:
                l(1) =   0
                l(2) =   0
                l(3) =   1
                l(4) =   1
                l(5) =   2
                l(6) =   3

     PseudoPot. # 2 for Tb read from file:
     /home/jld5415/pp.La/Tb.UPF
     MD5 check sum: 3d6088a3f0cf7fd2e110c43f7f8e95c2
     Pseudo is Norm-conserving, Zval = 19.0
     Generated in analytical, separable form
     Using radial grid of 1263 points,  6 beta functions with:
                l(1) =   0
                l(2) =   0
                l(3) =   1
                l(4) =   1
                l(5) =   2
                l(6) =   3

     atomic species   valence    mass     pseudopotential
        Tl            12.00   204.38300     Ce( 1.00)
        I             19.00   126.90400     Tb( 1.00)

      2 Sym. Ops., with inversion, found
          (note:  2 additional sym.ops. were found but ignored
           their fractional translations are incommensurate with FFT grid)

   Cartesian axes

     site n.     atom                  positions (alat units)
         1           Tl  tau(   1) = (  -0.0788486   0.3437074   0.5009615  )
         2           Tl  tau(   2) = (   0.2778666   0.2171112   0.1671105  )
         3           I   tau(   3) = (  -0.4838764   0.4874394   0.5007916  )
         4           I   tau(   4) = (   0.6828944   0.0733792   0.1672804  )

     number of k points=   106  gaussian smearing, width (Ry)=  0.1000

     Number of k-points >= 100: set verbosity='high' to print them.

     Largest allocated arrays     est. size (Mb)     dimensions
     Largest temporary arrays     est. size (Mb)     dimensions

     Initial potential from superposition of free atoms

     Starting from uniform charge
     Starting wfc are    0 randomized atomic wfcs

     Writing output data file Prototype-La-oS8-TlI.save

     Self-consistent Calculation

[...]

     negative rho (up, down):  0.106E-03 0.000E+00

[...]

     iteration #  7     ecut=    40.00 Ry     beta=0.70
     CG style diagonalization
     ethr =  7.50E-04,  avg # of iterations =  3.7

[...]

     total energy              =    -613.42309250 Ry
     Harris-Foulkes estimate   =    -613.42334205 Ry
     estimated scf accuracy    <       0.00041965 Ry

     iteration # 10     ecut=    40.00 Ry     beta=0.70
     CG style diagonalization
     c_bands:  1 eigenvalues not converged
     ethr =  6.77E-07,  avg # of iterations =  4.0

     End of self-consistent calculation

     Number of k-points >= 100: set verbosity='high' to print the bands.

     the Fermi energy is    14.9629 ev

!    total energy              =    -613.42316591 Ry
     Harris-Foulkes estimate   =    -613.42317606 Ry
     estimated scf accuracy    <       0.00001357 Ry

     The total energy is the sum of the following terms:

     one-electron contribution =    -184.00623743 Ry
     hartree contribution      =     118.52166494 Ry
     xc contribution           =     -63.37580876 Ry
     ewald contribution        =    -484.27842816 Ry
     smearing contrib. (-TS)   =      -0.28435650 Ry

     convergence has been achieved in  10 iterations

     Forces acting on atoms (Ry/au):

     atom    1 type  1   force =     0.01654303   -0.00562982   -0.00061147
     atom    2 type  1   force =    -0.01654303    0.00562982    0.00061147
     atom    3 type  2   force =    -0.03290749    0.01247082   -0.00190346
     atom    4 type  2   force =     0.03290749   -0.01247082    0.00190346

     Total force =     0.055638     Total SCF correction =     0.000000

     entering subroutine stress ...

          total   stress  (Ry/bohr**3)                   (kbar)     P= -266.77
  -0.00187879   0.00001210   0.00000055       -276.38      1.78      0.08
   0.00001210  -0.00184814   0.00000004          1.78   -271.87      0.01
   0.00000055   0.00000004  -0.00171352          0.08      0.01   -252.07

     Writing output data file Prototype-La-oS8-TlI.save

     General routines

     Parallel routines

   This run was terminated on:   1:17:27  22Mar2018

   JOB DONE.