     Program PWSCF v.5.0.2 starts on 22Mar2018 at  0:39:33

     Current dimensions of program PWSCF are:
     Max number of different atomic species (ntypx) = 10
     Max number of k-points (npk) =  40000
     Max angular momentum in pseudopotentials (lmaxx) =  3
     Waiting for input...
     Reading input from standard input

     Subspace diagonalization in iterative solution of the eigenvalue problem:
     a serial algorithm will be used

     bravais-lattice index     =            0
     lattice parameter (alat)  =      12.0168  a.u.
     unit-cell volume          =    1187.3413 (a.u.)^3
     number of atoms/cell      =            8
     number of atomic types    =            2
     number of electrons       =       110.00
     number of Kohn-Sham states=           66
     kinetic-energy cutoff     =      40.0000  Ry
     charge density cutoff     =     160.0000  Ry
     convergence threshold     =      1.0E-04
     mixing beta               =       0.7000
     number of iterations used =            8  plain     mixing
     Exchange-correlation      = SLA-PZ-NOGX-NOGC ( 1 1 0 0 0)
     EXX-fraction              =        0.00
     nstep                     =           50

     celldm(1)=  12.016801  celldm(2)=   0.000000  celldm(3)=   0.000000
     celldm(4)=   0.000000  celldm(5)=   0.000000  celldm(6)=   0.000000

     crystal axes: (cart. coord. in units of alat)
               a(1) = (   1.000000   0.000000   0.000000 )
               a(2) = (  -0.500000   0.866025   0.000000 )
               a(3) = (   0.000000   0.000000   0.790093 )

     reciprocal axes: (cart. coord. in units 2 pi/alat)
               b(1) = (  1.000000  0.577350  0.000000 )
               b(2) = (  0.000000  1.154701  0.000000 )
               b(3) = (  0.000000  0.000000  1.265674 )

     PseudoPot. # 1 for Ce read from file:
     /home/jld5415/pp.La/Ce.UPF
     MD5 check sum: 44451aa79a44a00cf2bc029dc19922f6
     Pseudo is Norm-conserving, Zval = 12.0
     Generated in analytical, separable form
     Using radial grid of 1255 points,  6 beta functions with:
                l(1) =   0
                l(2) =   0
                l(3) =   1
                l(4) =   1
                l(5) =   2
                l(6) =   3

     PseudoPot. # 2 for Tb read from file:
     /home/jld5415/pp.La/Tb.UPF
     MD5 check sum: 3d6088a3f0cf7fd2e110c43f7f8e95c2
     Pseudo is Norm-conserving, Zval = 19.0
     Generated in analytical, separable form
     Using radial grid of 1263 points,  6 beta functions with:
                l(1) =   0
                l(2) =   0
                l(3) =   1
                l(4) =   1
                l(5) =   2
                l(6) =   3

     atomic species   valence    mass     pseudopotential
        Mg            12.00    24.30500     Ce( 1.00)
        Cd            19.00   112.41100     Tb( 1.00)

     24 Sym. Ops., with inversion, found (12 have fractional translation)

   Cartesian axes

     site n.     atom                  positions (alat units)
         1           Mg  tau(   1) = (   0.2478935   0.7204716   0.1975233  )
         2           Mg  tau(   2) = (   0.7478935   0.1455538   0.5925699  )
         3           Mg  tau(   3) = (   0.2521065   0.1455538   0.5925699  )
         4           Mg  tau(   4) = (  -0.2478935   0.7204716   0.1975233  )
         5           Mg  tau(   5) = (   0.0000000   0.2911075   0.1975233  )
         6           Mg  tau(   6) = (   0.5000000   0.5749179   0.5925699  )
         7           Cd  tau(   7) = (   0.5000005   0.2886748   0.1975233  )
         8           Cd  tau(   8) = (  -0.0000005   0.5773506   0.5925699  )

     number of k points=    64  gaussian smearing, width (Ry)=  0.1000
                       cart. coord. in units 2pi/alat
        k(    1) = (   0.0000000   0.0000000   0.0000000), wk =   0.0095238
        k(    2) = (   0.0000000   0.0000000   0.1808105), wk =   0.0190476
        k(    3) = (   0.0000000   0.0000000   0.3616210), wk =   0.0190476
        k(    4) = (   0.0000000   0.0000000   0.5424315), wk =   0.0190476
        k(    5) = (   0.0000000   0.1924501   0.0000000), wk =   0.0190476
        k(    6) = (   0.0000000   0.1924501   0.1808105), wk =   0.0380952
        k(    7) = (   0.0000000   0.1924501   0.3616210), wk =   0.0380952
        k(    8) = (   0.0000000   0.1924501   0.5424315), wk =   0.0380952
        k(    9) = (   0.0000000   0.3849002   0.0000000), wk =   0.0190476
        k(   10) = (   0.0000000   0.3849002   0.1808105), wk =   0.0380952
        k(   11) = (   0.0000000   0.3849002   0.3616210), wk =   0.0380952
        k(   12) = (   0.0000000   0.3849002   0.5424315), wk =   0.0380952
        k(   13) = (   0.0000000  -0.5773503   0.0000000), wk =   0.0095238
        k(   14) = (   0.0000000  -0.5773503   0.1808105), wk =   0.0190476
        k(   15) = (   0.0000000  -0.5773503   0.3616210), wk =   0.0190476
        k(   16) = (   0.0000000  -0.5773503   0.5424315), wk =   0.0190476
        k(   17) = (   0.2000000   0.1154701   0.0000000), wk =   0.0190476
        k(   18) = (   0.2000000   0.1154701   0.1808105), wk =   0.0380952
        k(   19) = (   0.2000000   0.1154701   0.3616210), wk =   0.0380952
        k(   20) = (   0.2000000   0.1154701   0.5424315), wk =   0.0380952
        k(   21) = (   0.2000000   0.3079201   0.0000000), wk =   0.0190476
        k(   22) = (   0.2000000   0.3079201   0.1808105), wk =   0.0380952
        k(   23) = (   0.2000000   0.3079201   0.3616210), wk =   0.0380952
        k(   24) = (   0.2000000   0.3079201   0.5424315), wk =   0.0380952
        k(   25) = (   0.2000000   0.5003702   0.0000000), wk =   0.0190476
        k(   26) = (   0.2000000   0.5003702   0.1808105), wk =   0.0380952
        k(   27) = (   0.2000000   0.5003702   0.3616210), wk =   0.0380952
        k(   28) = (   0.2000000   0.5003702   0.5424315), wk =   0.0380952
        k(   29) = (   0.2000000  -0.4618802   0.0000000), wk =   0.0190476
        k(   30) = (   0.2000000  -0.4618802   0.1808105), wk =   0.0380952
        k(   31) = (   0.2000000  -0.4618802   0.3616210), wk =   0.0380952
        k(   32) = (   0.2000000  -0.4618802   0.5424315), wk =   0.0380952
        k(   33) = (   0.2000000  -0.2694301   0.0000000), wk =   0.0190476
        k(   34) = (   0.2000000  -0.2694301   0.1808105), wk =   0.0380952
        k(   35) = (   0.2000000  -0.2694301   0.3616210), wk =   0.0380952
        k(   36) = (   0.2000000  -0.2694301   0.5424315), wk =   0.0380952
        k(   37) = (   0.2000000  -0.0769800   0.0000000), wk =   0.0190476
        k(   38) = (   0.2000000  -0.0769800   0.1808105), wk =   0.0380952
        k(   39) = (   0.2000000  -0.0769800   0.3616210), wk =   0.0380952
        k(   40) = (   0.2000000  -0.0769800   0.5424315), wk =   0.0380952
        k(   41) = (   0.4000000   0.2309401   0.0000000), wk =   0.0190476
        k(   42) = (   0.4000000   0.2309401   0.1808105), wk =   0.0380952
        k(   43) = (   0.4000000   0.2309401   0.3616210), wk =   0.0380952
        k(   44) = (   0.4000000   0.2309401   0.5424315), wk =   0.0380952
        k(   45) = (   0.4000000   0.4233902   0.0000000), wk =   0.0190476
        k(   46) = (   0.4000000   0.4233902   0.1808105), wk =   0.0380952
        k(   47) = (   0.4000000   0.4233902   0.3616210), wk =   0.0380952
        k(   48) = (   0.4000000   0.4233902   0.5424315), wk =   0.0380952
        k(   49) = (   0.4000000   0.6158403   0.0000000), wk =   0.0190476
        k(   50) = (   0.4000000   0.6158403   0.1808105), wk =   0.0380952
        k(   51) = (   0.4000000   0.6158403   0.3616210), wk =   0.0380952
        k(   52) = (   0.4000000   0.6158403   0.5424315), wk =   0.0380952
        k(   53) = (   0.4000000  -0.3464102   0.0000000), wk =   0.0190476
        k(   54) = (   0.4000000  -0.3464102   0.1808105), wk =   0.0380952
        k(   55) = (   0.4000000  -0.3464102   0.3616210), wk =   0.0380952
        k(   56) = (   0.4000000  -0.3464102   0.5424315), wk =   0.0380952
        k(   57) = (   0.4000000  -0.1539601   0.0000000), wk =   0.0190476
        k(   58) = (   0.4000000  -0.1539601   0.1808105), wk =   0.0380952
        k(   59) = (   0.4000000  -0.1539601   0.3616210), wk =   0.0380952
        k(   60) = (   0.4000000  -0.1539601   0.5424315), wk =   0.0380952
        k(   61) = (   0.4000000   0.0384900   0.0000000), wk =   0.0190476
        k(   62) = (   0.4000000   0.0384900   0.1808105), wk =   0.0380952
        k(   63) = (   0.4000000   0.0384900   0.3616210), wk =   0.0380952
        k(   64) = (   0.4000000   0.0384900   0.5424315), wk =   0.0380952

     Largest allocated arrays     est. size (Mb)     dimensions
     Largest temporary arrays     est. size (Mb)     dimensions

     Initial potential from superposition of free atoms

     Starting from uniform charge
     Starting wfc are    0 randomized atomic wfcs

     Self-consistent Calculation

     iteration #  1     ecut=    40.00 Ry     beta=0.70
     CG style diagonalization
     ethr =  1.00E-02,  avg # of iterations = 16.4

     total energy              =    -317.11400809 Ry
     Harris-Foulkes estimate   =   -1226.26298415 Ry
     estimated scf accuracy    <    1084.14731400 Ry

     iteration #  2     ecut=    40.00 Ry     beta=0.70
     CG style diagonalization
     c_bands:  4 eigenvalues not converged
     c_bands:  4 eigenvalues not converged
     c_bands:  2 eigenvalues not converged
     c_bands:  4 eigenvalues not converged
     c_bands:  4 eigenvalues not converged
     c_bands:  4 eigenvalues not converged
     c_bands:  2 eigenvalues not converged
     c_bands:  4 eigenvalues not converged
     c_bands:  5 eigenvalues not converged
     ethr =  1.00E-02,  avg # of iterations = 17.0

[...]

     End of self-consistent calculation

          k = 0.0000 0.0000 0.0000 (  5047 PWs)   bands (ev):

   -54.5312 -54.5297 -22.8985 -22.8891 -22.8416 -22.8416 -22.8352 -22.8352
   -17.1831 -16.6611 -16.6610 -16.5883 -16.3688 -16.3687  -0.4755  -0.2137
     0.2210   0.5655   0.5656   0.7265   0.7266   0.8105   0.8106   1.5364
     1.9713   1.9714   2.4421   2.4438   2.4439   2.4744   2.4745   2.5622
    14.0581  14.0581  14.1865  14.4201  14.5188  14.5189  14.6975  14.6975
    15.1253  15.1253  15.4052  16.0464  17.0293  18.4095  19.3637  19.6029
    19.6030  19.6647  19.6647  20.6858  20.6859  20.8641  20.9556  21.7851
    21.7851  21.9679  21.9680  22.6367  22.6900  22.6901  24.4545  25.0265
    25.0269  25.4423

[...]

     the Fermi energy is    20.9635 ev

!    total energy              =    -922.23664810 Ry
     Harris-Foulkes estimate   =    -922.23672005 Ry
     estimated scf accuracy    <       0.00007739 Ry

     The total energy is the sum of the following terms:

     one-electron contribution =     -94.25867748 Ry
     hartree contribution      =     121.68886864 Ry
     xc contribution           =    -105.56479213 Ry
     ewald contribution        =    -843.57765381 Ry
     smearing contrib. (-TS)   =      -0.52439333 Ry

     convergence has been achieved in  11 iterations

     Forces acting on atoms (Ry/au):

     atom    1 type  1   force =     0.00838313    0.00484000    0.00000000
[...]
        k(   11) = (   0.0000000   0.3784734   0.3527548), wk =   0.0380952
        k(   12) = (   0.0000000   0.3784734   0.5291323), wk =   0.0380952
        k(   13) = (   0.0000000  -0.5677101   0.0000000), wk =   0.0095238
        k(   14) = (   0.0000000  -0.5677101   0.1763774), wk =   0.0190476
        k(   15) = (   0.0000000  -0.5677101   0.3527548), wk =   0.0190476
        k(   16) = (   0.0000000  -0.5677101   0.5291323), wk =   0.0190476
        k(   17) = (   0.1966606   0.1135420   0.0000000), wk =   0.0190476
        k(   18) = (   0.1966606   0.1135420   0.1763774), wk =   0.0380952
        k(   19) = (   0.1966606   0.1135420   0.3527548), wk =   0.0380952
        k(   20) = (   0.1966606   0.1135420   0.5291323), wk =   0.0380952
        k(   21) = (   0.1966606   0.3027787   0.0000000), wk =   0.0190476
        k(   22) = (   0.1966606   0.3027787   0.1763774), wk =   0.0380952
        k(   23) = (   0.1966606   0.3027787   0.3527548), wk =   0.0380952
        k(   24) = (   0.1966606   0.3027787   0.5291323), wk =   0.0380952
        k(   25) = (   0.1966606   0.4920154   0.0000000), wk =   0.0190476
        k(   26) = (   0.1966606   0.4920154   0.1763774), wk =   0.0380952
        k(   27) = (   0.1966606   0.4920154   0.3527548), wk =   0.0380952
        k(   28) = (   0.1966606   0.4920154   0.5291323), wk =   0.0380952
        k(   29) = (   0.1966606  -0.4541681   0.0000000), wk =   0.0190476
        k(   30) = (   0.1966606  -0.4541681   0.1763774), wk =   0.0380952
        k(   31) = (   0.1966606  -0.4541681   0.3527548), wk =   0.0380952
        k(   32) = (   0.1966606  -0.4541681   0.5291323), wk =   0.0380952
        k(   33) = (   0.1966606  -0.2649314   0.0000000), wk =   0.0190476
        k(   34) = (   0.1966606  -0.2649314   0.1763774), wk =   0.0380952
        k(   35) = (   0.1966606  -0.2649314   0.3527548), wk =   0.0380952
        k(   36) = (   0.1966606  -0.2649314   0.5291323), wk =   0.0380952
        k(   37) = (   0.1966606  -0.0756947   0.0000000), wk =   0.0190476
        k(   38) = (   0.1966606  -0.0756947   0.1763774), wk =   0.0380952
        k(   39) = (   0.1966606  -0.0756947   0.3527548), wk =   0.0380952
        k(   40) = (   0.1966606  -0.0756947   0.5291323), wk =   0.0380952
        k(   41) = (   0.3933211   0.2270840   0.0000000), wk =   0.0190476
        k(   42) = (   0.3933211   0.2270840   0.1763774), wk =   0.0380952
        k(   43) = (   0.3933211   0.2270840   0.3527548), wk =   0.0380952
        k(   44) = (   0.3933211   0.2270840   0.5291323), wk =   0.0380952
        k(   45) = (   0.3933211   0.4163208   0.0000000), wk =   0.0190476
        k(   46) = (   0.3933211   0.4163208   0.1763774), wk =   0.0380952
        k(   47) = (   0.3933211   0.4163208   0.3527548), wk =   0.0380952
        k(   48) = (   0.3933211   0.4163208   0.5291323), wk =   0.0380952
        k(   49) = (   0.3933211   0.6055575   0.0000000), wk =   0.0190476
        k(   50) = (   0.3933211   0.6055575   0.1763774), wk =   0.0380952
        k(   51) = (   0.3933211   0.6055575   0.3527548), wk =   0.0380952
        k(   52) = (   0.3933211   0.6055575   0.5291323), wk =   0.0380952
        k(   53) = (   0.3933211  -0.3406261   0.0000000), wk =   0.0190476
        k(   54) = (   0.3933211  -0.3406261   0.1763774), wk =   0.0380952
        k(   55) = (   0.3933211  -0.3406261   0.3527548), wk =   0.0380952
        k(   56) = (   0.3933211  -0.3406261   0.5291323), wk =   0.0380952
        k(   57) = (   0.3933211  -0.1513894   0.0000000), wk =   0.0190476
        k(   58) = (   0.3933211  -0.1513894   0.1763774), wk =   0.0380952
        k(   59) = (   0.3933211  -0.1513894   0.3527548), wk =   0.0380952
        k(   60) = (   0.3933211  -0.1513894   0.5291323), wk =   0.0380952
        k(   61) = (   0.3933211   0.0378473   0.0000000), wk =   0.0190476
        k(   62) = (   0.3933211   0.0378473   0.1763774), wk =   0.0380952
        k(   63) = (   0.3933211   0.0378473   0.3527548), wk =   0.0380952
        k(   64) = (   0.3933211   0.0378473   0.5291323), wk =   0.0380952

[...]

     Threshold (ethr) on eigenvalues was too large:
     Diagonalizing with lowered threshold

     CG style diagonalization
     ethr =  1.86E-08,  avg # of iterations =  3.5

[...]

     The maximum number of steps has been reached.

     End of BFGS Geometry Optimization
Begin final coordinates
     new unit-cell volume =   1258.87238 a.u.^3 (   186.54564 Ang^3 )

CELL_PARAMETERS (alat= 12.01680127)
   1.016980757   0.000000000   0.000000000
  -0.508490379   0.880731171   0.000000000
   0.000000000   0.000000000   0.809951411

ATOMIC_POSITIONS (crystal)
Mg       0.666621611   0.833310805   0.250000000
Mg       0.833310805   0.166689195   0.750000000
Mg       0.333378389   0.166689195   0.750000000
Mg       0.166689195   0.833310805   0.250000000
Mg       0.166689195   0.333378389   0.250000000
Mg       0.833310805   0.666621611   0.750000000
Cd       0.666667000   0.333333000   0.250000000
Cd       0.333333000   0.666667000   0.750000000
End final coordinates

     A final scf calculation at the relaxed structure.
     The G-vectors are recalculated for the final unit cell
     Results may differ from those at the preceding step.

     bravais-lattice index     =            0
     lattice parameter (alat)  =      12.0168  a.u.
     unit-cell volume          =    1258.8724 (a.u.)^3
     number of atoms/cell      =            8
     number of atomic types    =            2
     number of electrons       =       110.00
     number of Kohn-Sham states=           66
     kinetic-energy cutoff     =      40.0000  Ry
     charge density cutoff     =     160.0000  Ry
     convergence threshold     =      1.9E-05
     mixing beta               =       0.7000
     number of iterations used =            8  plain     mixing
     Exchange-correlation      = SLA-PZ-NOGX-NOGC ( 1 1 0 0 0)
     EXX-fraction              =        0.00

     celldm(1)=  12.016801  celldm(2)=   0.000000  celldm(3)=   0.000000
     celldm(4)=   0.000000  celldm(5)=   0.000000  celldm(6)=   0.000000

     crystal axes: (cart. coord. in units of alat)
               a(1) = (   1.016981   0.000000   0.000000 )
               a(2) = (  -0.508490   0.880731   0.000000 )
               a(3) = (   0.000000   0.000000   0.809951 )

     reciprocal axes: (cart. coord. in units 2 pi/alat)
               b(1) = (  0.983303  0.567710  0.000000 )
               b(2) = (  0.000000  1.135420  0.000000 )
               b(3) = (  0.000000  0.000000  1.234642 )

     PseudoPot. # 1 for Ce read from file:
     /home/jld5415/pp.La/Ce.UPF
     MD5 check sum: 44451aa79a44a00cf2bc029dc19922f6
     Pseudo is Norm-conserving, Zval = 12.0
     Generated in analytical, separable form
     Using radial grid of 1255 points,  6 beta functions with:
                l(1) =   0
                l(2) =   0
                l(3) =   1
                l(4) =   1
                l(5) =   2
                l(6) =   3

     PseudoPot. # 2 for Tb read from file:
     /home/jld5415/pp.La/Tb.UPF
     MD5 check sum: 3d6088a3f0cf7fd2e110c43f7f8e95c2
     Pseudo is Norm-conserving, Zval = 19.0
     Generated in analytical, separable form
     Using radial grid of 1263 points,  6 beta functions with:
                l(1) =   0
                l(2) =   0
                l(3) =   1
                l(4) =   1
                l(5) =   2
                l(6) =   3

     atomic species   valence    mass     pseudopotential
        Mg            12.00    24.30500     Ce( 1.00)
        Cd            19.00   112.41100     Tb( 1.00)

     24 Sym. Ops., with inversion, found (12 have fractional translation)

   Cartesian axes

     site n.     atom                  positions (alat units)
         1           Mg  tau(   1) = (   0.2542108   0.7339228   0.2024879  )
         2           Mg  tau(   2) = (   0.7627012   0.1468084   0.6074636  )
         3           Mg  tau(   3) = (   0.2542796   0.1468084   0.6074636  )
         4           Mg  tau(   4) = (  -0.2542108   0.7339228   0.2024879  )
         5           Mg  tau(   5) = (   0.0000000   0.2936167   0.2024879  )
         6           Mg  tau(   6) = (   0.5084904   0.5871144   0.6074636  )
         7           Cd  tau(   7) = (   0.5084909   0.2935768   0.2024879  )
         8           Cd  tau(   8) = (  -0.0000005   0.5871544   0.6074636  )

     number of k points=    64  gaussian smearing, width (Ry)=  0.1000
                       cart. coord. in units 2pi/alat
        k(    1) = (   0.0000000   0.0000000   0.0000000), wk =   0.0095238
        k(    2) = (   0.0000000   0.0000000   0.1763774), wk =   0.0190476
        k(    3) = (   0.0000000   0.0000000   0.3527548), wk =   0.0190476
        k(    4) = (   0.0000000   0.0000000   0.5291323), wk =   0.0190476
        k(    5) = (   0.0000000   0.1892367   0.0000000), wk =   0.0190476
        k(    6) = (   0.0000000   0.1892367   0.1763774), wk =   0.0380952
        k(    7) = (   0.0000000   0.1892367   0.3527548), wk =   0.0380952
        k(    8) = (   0.0000000   0.1892367   0.5291323), wk =   0.0380952
        k(    9) = (   0.0000000   0.3784734   0.0000000), wk =   0.0190476
        k(   10) = (   0.0000000   0.3784734   0.1763774), wk =   0.0380952
        k(   11) = (   0.0000000   0.3784734   0.3527548), wk =   0.0380952
        k(   12) = (   0.0000000   0.3784734   0.5291323), wk =   0.0380952
        k(   13) = (   0.0000000  -0.5677101   0.0000000), wk =   0.0095238
        k(   14) = (   0.0000000  -0.5677101   0.1763774), wk =   0.0190476
        k(   15) = (   0.0000000  -0.5677101   0.3527548), wk =   0.0190476
        k(   16) = (   0.0000000  -0.5677101   0.5291323), wk =   0.0190476
        k(   17) = (   0.1966606   0.1135420   0.0000000), wk =   0.0190476
        k(   18) = (   0.1966606   0.1135420   0.1763774), wk =   0.0380952
        k(   19) = (   0.1966606   0.1135420   0.3527548), wk =   0.0380952
        k(   20) = (   0.1966606   0.1135420   0.5291323), wk =   0.0380952
        k(   21) = (   0.1966606   0.3027787   0.0000000), wk =   0.0190476
        k(   22) = (   0.1966606   0.3027787   0.1763774), wk =   0.0380952
        k(   23) = (   0.1966606   0.3027787   0.3527548), wk =   0.0380952
        k(   24) = (   0.1966606   0.3027787   0.5291323), wk =   0.0380952
        k(   25) = (   0.1966606   0.4920154   0.0000000), wk =   0.0190476
        k(   26) = (   0.1966606   0.4920154   0.1763774), wk =   0.0380952
        k(   27) = (   0.1966606   0.4920154   0.3527548), wk =   0.0380952
        k(   28) = (   0.1966606   0.4920154   0.5291323), wk =   0.0380952
        k(   29) = (   0.1966606  -0.4541681   0.0000000), wk =   0.0190476
        k(   30) = (   0.1966606  -0.4541681   0.1763774), wk =   0.0380952
        k(   31) = (   0.1966606  -0.4541681   0.3527548), wk =   0.0380952
        k(   32) = (   0.1966606  -0.4541681   0.5291323), wk =   0.0380952
        k(   33) = (   0.1966606  -0.2649314   0.0000000), wk =   0.0190476
        k(   34) = (   0.1966606  -0.2649314   0.1763774), wk =   0.0380952
        k(   35) = (   0.1966606  -0.2649314   0.3527548), wk =   0.0380952
        k(   36) = (   0.1966606  -0.2649314   0.5291323), wk =   0.0380952
        k(   37) = (   0.1966606  -0.0756947   0.0000000), wk =   0.0190476
        k(   38) = (   0.1966606  -0.0756947   0.1763774), wk =   0.0380952
        k(   39) = (   0.1966606  -0.0756947   0.3527548), wk =   0.0380952
        k(   40) = (   0.1966606  -0.0756947   0.5291323), wk =   0.0380952
        k(   41) = (   0.3933211   0.2270840   0.0000000), wk =   0.0190476
        k(   42) = (   0.3933211   0.2270840   0.1763774), wk =   0.0380952
        k(   43) = (   0.3933211   0.2270840   0.3527548), wk =   0.0380952
        k(   44) = (   0.3933211   0.2270840   0.5291323), wk =   0.0380952
        k(   45) = (   0.3933211   0.4163208   0.0000000), wk =   0.0190476
        k(   46) = (   0.3933211   0.4163208   0.1763774), wk =   0.0380952
        k(   47) = (   0.3933211   0.4163208   0.3527548), wk =   0.0380952
        k(   48) = (   0.3933211   0.4163208   0.5291323), wk =   0.0380952
        k(   49) = (   0.3933211   0.6055575   0.0000000), wk =   0.0190476
        k(   50) = (   0.3933211   0.6055575   0.1763774), wk =   0.0380952
        k(   51) = (   0.3933211   0.6055575   0.3527548), wk =   0.0380952
        k(   52) = (   0.3933211   0.6055575   0.5291323), wk =   0.0380952
        k(   53) = (   0.3933211  -0.3406261   0.0000000), wk =   0.0190476
        k(   54) = (   0.3933211  -0.3406261   0.1763774), wk =   0.0380952
        k(   55) = (   0.3933211  -0.3406261   0.3527548), wk =   0.0380952
        k(   56) = (   0.3933211  -0.3406261   0.5291323), wk =   0.0380952
        k(   57) = (   0.3933211  -0.1513894   0.0000000), wk =   0.0190476
        k(   58) = (   0.3933211  -0.1513894   0.1763774), wk =   0.0380952
        k(   59) = (   0.3933211  -0.1513894   0.3527548), wk =   0.0380952
        k(   60) = (   0.3933211  -0.1513894   0.5291323), wk =   0.0380952
        k(   61) = (   0.3933211   0.0378473   0.0000000), wk =   0.0190476
        k(   62) = (   0.3933211   0.0378473   0.1763774), wk =   0.0380952
        k(   63) = (   0.3933211   0.0378473   0.3527548), wk =   0.0380952
        k(   64) = (   0.3933211   0.0378473   0.5291323), wk =   0.0380952

     Largest allocated arrays     est. size (Mb)     dimensions
     Largest temporary arrays     est. size (Mb)     dimensions

     Initial potential from superposition of free atoms

     Starting from uniform charge
     Starting wfc are    0 randomized atomic wfcs

     Writing output data file Prototype-La-hP8-Mg3Cd.save

     Self-consistent Calculation

[...]

     iteration #  6     ecut=    40.00 Ry     beta=0.70
     CG style diagonalization
     ethr =  4.53E-03,  avg # of iterations =  3.5

[...]

     total energy              =    -922.37501008 Ry
     Harris-Foulkes estimate   =    -922.37508161 Ry
     estimated scf accuracy    <       0.00017673 Ry

     iteration # 12     ecut=    40.00 Ry     beta=0.70
     CG style diagonalization
     c_bands:  1 eigenvalues not converged
     ethr =  1.61E-07,  avg # of iterations =  3.5

     End of self-consistent calculation

[...]

          k = 0.3933 0.0378 0.5291 (  5392 PWs)   bands (ev):

   -55.7012 -55.6999 -24.0320 -24.0265 -24.0074 -24.0060 -24.0044 -24.0021
   -18.2111 -18.1181 -18.0271 -17.9794 -17.9384 -17.9046  -1.1885  -1.1468
    -1.0474  -1.0142  -0.8152  -0.7579  -0.1996  -0.0539   0.1435   0.1723
     0.3700   0.4972   0.5944   0.6460   0.7298   0.8301   0.9067   0.9377
    13.4347  13.4620  13.5102  13.5726  13.6305  13.6616  13.7411  13.7899
    13.8864  13.9606  15.2511  15.4234  17.2777  17.4730  17.6972  17.7995
    18.2450  18.5173  18.5951  18.6744  18.9197  19.0923  19.4845  19.6486
    19.9303  20.0145  20.3233  20.4795  21.1494  21.2138  21.3081  22.1385
    22.4055  22.7304

     the Fermi energy is    19.5990 ev

!    total energy              =    -922.37504483 Ry
     Harris-Foulkes estimate   =    -922.37504567 Ry
     estimated scf accuracy    <       0.00000115 Ry

     The total energy is the sum of the following terms:

     one-electron contribution =    -116.07485772 Ry
     hartree contribution      =     127.24677974 Ry
     xc contribution           =    -105.02372777 Ry
     ewald contribution        =    -827.96509877 Ry
     smearing contrib. (-TS)   =      -0.55814032 Ry

     convergence has been achieved in  12 iterations

     Forces acting on atoms (Ry/au):

     atom    1 type  1   force =    -0.00696324   -0.00402023    0.00000000
     atom    2 type  1   force =    -0.00696324    0.00402023    0.00000000
     atom    3 type  1   force =     0.00696324    0.00402023    0.00000000
     atom    4 type  1   force =     0.00696324   -0.00402023    0.00000000
     atom    5 type  1   force =     0.00000000    0.00804046    0.00000000
     atom    6 type  1   force =     0.00000000   -0.00804046    0.00000000
     atom    7 type  2   force =     0.00000000    0.00000000    0.00000000
     atom    8 type  2   force =     0.00000000    0.00000000    0.00000000

     Total force =     0.019695     Total SCF correction =     0.000000

     entering subroutine stress ...

          total   stress  (Ry/bohr**3)                   (kbar)     P=   33.52
   0.00018698   0.00000000   0.00000000         27.51      0.00      0.00
   0.00000000   0.00018698   0.00000000          0.00     27.51      0.00
   0.00000000   0.00000000   0.00030953          0.00      0.00     45.53

     Writing output data file Prototype-La-hP8-Mg3Cd.save

     General routines

     Parallel routines

   This run was terminated on:   1:14:49  22Mar2018

   JOB DONE.