     Program PWSCF v.5.0.2 starts on 22Mar2018 at  0:39:33

     Current dimensions of program PWSCF are:
     Max number of different atomic species (ntypx) = 10
     Max number of k-points (npk) =  40000
     Max angular momentum in pseudopotentials (lmaxx) =  3
     Waiting for input...
     Reading input from standard input

     Subspace diagonalization in iterative solution of the eigenvalue problem:
     a serial algorithm will be used

     bravais-lattice index     =            0
     lattice parameter (alat)  =       8.5346  a.u.
     unit-cell volume          =     621.6493 (a.u.)^3
     number of atoms/cell      =            8
     number of atomic types    =            2
     number of electrons       =       110.00
     number of Kohn-Sham states=           66
     kinetic-energy cutoff     =      40.0000  Ry
     charge density cutoff     =     160.0000  Ry
     convergence threshold     =      1.0E-04
     mixing beta               =       0.7000
     number of iterations used =            8  plain     mixing
     Exchange-correlation      = SLA-PZ-NOGX-NOGC ( 1 1 0 0 0)
     EXX-fraction              =        0.00
     nstep                     =           50

     celldm(1)=   8.534573  celldm(2)=   0.000000  celldm(3)=   0.000000
     celldm(4)=   0.000000  celldm(5)=   0.000000  celldm(6)=   0.000000

     crystal axes: (cart. coord. in units of alat)
               a(1) = (   1.000000   0.000000   0.000000 )
               a(2) = (   0.000000   1.000000   0.000000 )
               a(3) = (   0.000000   0.000000   1.000000 )

     reciprocal axes: (cart. coord. in units 2 pi/alat)
               b(1) = (  1.000000  0.000000  0.000000 )
               b(2) = (  0.000000  1.000000  0.000000 )
               b(3) = (  0.000000  0.000000  1.000000 )

     PseudoPot. # 1 for Ce read from file:
     /home/jld5415/pp.La/Ce.UPF
     MD5 check sum: 44451aa79a44a00cf2bc029dc19922f6
     Pseudo is Norm-conserving, Zval = 12.0
     Generated in analytical, separable form
     Using radial grid of 1255 points,  6 beta functions with:
                l(1) =   0
                l(2) =   0
                l(3) =   1
                l(4) =   1
                l(5) =   2
                l(6) =   3

     PseudoPot. # 2 for Tb read from file:
     /home/jld5415/pp.La/Tb.UPF
     MD5 check sum: 3d6088a3f0cf7fd2e110c43f7f8e95c2
     Pseudo is Norm-conserving, Zval = 19.0
     Generated in analytical, separable form
     Using radial grid of 1263 points,  6 beta functions with:
                l(1) =   0
                l(2) =   0
                l(3) =   1
                l(4) =   1
                l(5) =   2
                l(6) =   3

     atomic species   valence    mass     pseudopotential
        Cr            12.00    51.99610     Ce( 1.00)
        Si            19.00    28.08550     Tb( 1.00)

     48 Sym. Ops., with inversion, found (24 have fractional translation)

   Cartesian axes

     site n.     atom                  positions (alat units)
         1           Cr  tau(   1) = (   0.0000000   0.5000000   0.2500000  )
         2           Cr  tau(   2) = (   0.0000000   0.5000000   0.7500000  )
         3           Cr  tau(   3) = (   0.5000000   0.7500000   0.0000000  )
         4           Cr  tau(   4) = (   0.5000000   0.2500000   0.0000000  )
         5           Cr  tau(   5) = (   0.7500000   0.0000000   0.5000000  )
         6           Cr  tau(   6) = (   0.2500000   0.0000000   0.5000000  )
         7           Si  tau(   7) = (   0.5000000   0.5000000   0.5000000  )
         8           Si  tau(   8) = (   0.0000000   0.0000000   0.0000000  )

     number of k points=    48  gaussian smearing, width (Ry)=  0.1000
                       cart. coord. in units 2pi/alat
        k(    1) = (   0.0000000   0.0000000   0.0000000), wk =   0.0095238
        k(    2) = (   0.0000000   0.0000000   0.1428571), wk =   0.0190476
        k(    3) = (   0.0000000   0.0000000   0.2857143), wk =   0.0190476
        k(    4) = (   0.0000000   0.0000000   0.4285714), wk =   0.0190476
        k(    5) = (   0.0000000   0.1666667   0.0000000), wk =   0.0190476
        k(    6) = (   0.0000000   0.1666667   0.1428571), wk =   0.0380952
        k(    7) = (   0.0000000   0.1666667   0.2857143), wk =   0.0380952
        k(    8) = (   0.0000000   0.1666667   0.4285714), wk =   0.0380952
        k(    9) = (   0.0000000   0.3333333   0.0000000), wk =   0.0190476
        k(   10) = (   0.0000000   0.3333333   0.1428571), wk =   0.0380952
        k(   11) = (   0.0000000   0.3333333   0.2857143), wk =   0.0380952
        k(   12) = (   0.0000000   0.3333333   0.4285714), wk =   0.0380952
        k(   13) = (   0.0000000  -0.5000000   0.0000000), wk =   0.0095238
        k(   14) = (   0.0000000  -0.5000000   0.1428571), wk =   0.0190476
        k(   15) = (   0.0000000  -0.5000000   0.2857143), wk =   0.0190476
        k(   16) = (   0.0000000  -0.5000000   0.4285714), wk =   0.0190476
        k(   17) = (   0.2000000   0.0000000   0.0000000), wk =   0.0190476
        k(   18) = (   0.2000000   0.0000000   0.1428571), wk =   0.0380952
        k(   19) = (   0.2000000   0.0000000   0.2857143), wk =   0.0380952
        k(   20) = (   0.2000000   0.0000000   0.4285714), wk =   0.0380952
        k(   21) = (   0.2000000   0.1666667   0.0000000), wk =   0.0380952
        k(   22) = (   0.2000000   0.1666667   0.1428571), wk =   0.0761905
        k(   23) = (   0.2000000   0.1666667   0.2857143), wk =   0.0761905
        k(   24) = (   0.2000000   0.1666667   0.4285714), wk =   0.0761905
        k(   25) = (   0.2000000   0.3333333   0.0000000), wk =   0.0380952
        k(   26) = (   0.2000000   0.3333333   0.1428571), wk =   0.0761905
        k(   27) = (   0.2000000   0.3333333   0.2857143), wk =   0.0761905
        k(   28) = (   0.2000000   0.3333333   0.4285714), wk =   0.0761905
        k(   29) = (   0.2000000  -0.5000000   0.0000000), wk =   0.0190476
        k(   30) = (   0.2000000  -0.5000000   0.1428571), wk =   0.0380952
        k(   31) = (   0.2000000  -0.5000000   0.2857143), wk =   0.0380952
        k(   32) = (   0.2000000  -0.5000000   0.4285714), wk =   0.0380952
        k(   33) = (   0.4000000   0.0000000   0.0000000), wk =   0.0190476
        k(   34) = (   0.4000000   0.0000000   0.1428571), wk =   0.0380952
        k(   35) = (   0.4000000   0.0000000   0.2857143), wk =   0.0380952
        k(   36) = (   0.4000000   0.0000000   0.4285714), wk =   0.0380952
        k(   37) = (   0.4000000   0.1666667   0.0000000), wk =   0.0380952
        k(   38) = (   0.4000000   0.1666667   0.1428571), wk =   0.0761905
        k(   39) = (   0.4000000   0.1666667   0.2857143), wk =   0.0761905
        k(   40) = (   0.4000000   0.1666667   0.4285714), wk =   0.0761905
        k(   41) = (   0.4000000   0.3333333   0.0000000), wk =   0.0380952
        k(   42) = (   0.4000000   0.3333333   0.1428571), wk =   0.0761905
        k(   43) = (   0.4000000   0.3333333   0.2857143), wk =   0.0761905
        k(   44) = (   0.4000000   0.3333333   0.4285714), wk =   0.0761905
        k(   45) = (   0.4000000  -0.5000000   0.0000000), wk =   0.0190476
        k(   46) = (   0.4000000  -0.5000000   0.1428571), wk =   0.0380952
        k(   47) = (   0.4000000  -0.5000000   0.2857143), wk =   0.0380952
        k(   48) = (   0.4000000  -0.5000000   0.4285714), wk =   0.0380952

     Largest allocated arrays     est. size (Mb)     dimensions
     Largest temporary arrays     est. size (Mb)     dimensions

     Initial potential from superposition of free atoms

     Starting from uniform charge
     Starting wfc are    0 randomized atomic wfcs

     Self-consistent Calculation

     iteration #  1     ecut=    40.00 Ry     beta=0.70
     CG style diagonalization
     c_bands:  4 eigenvalues not converged
     c_bands:  3 eigenvalues not converged
     c_bands:  5 eigenvalues not converged
     c_bands:  5 eigenvalues not converged
     c_bands:  4 eigenvalues not converged
     c_bands:  5 eigenvalues not converged
     c_bands:  5 eigenvalues not converged
     c_bands:  5 eigenvalues not converged
     c_bands:  3 eigenvalues not converged
     c_bands:  3 eigenvalues not converged
     c_bands:  5 eigenvalues not converged
     c_bands:  5 eigenvalues not converged
     c_bands:  4 eigenvalues not converged
     c_bands:  2 eigenvalues not converged
     c_bands:  3 eigenvalues not converged
     c_bands:  4 eigenvalues not converged
     c_bands:  4 eigenvalues not converged
     c_bands:  5 eigenvalues not converged
     c_bands:  2 eigenvalues not converged
     c_bands:  3 eigenvalues not converged
     c_bands:  3 eigenvalues not converged
     c_bands:  3 eigenvalues not converged
     c_bands:  2 eigenvalues not converged
     c_bands:  4 eigenvalues not converged
     c_bands:  1 eigenvalues not converged
     c_bands:  3 eigenvalues not converged
     c_bands:  1 eigenvalues not converged
     c_bands:  3 eigenvalues not converged
     c_bands:  4 eigenvalues not converged
     c_bands:  5 eigenvalues not converged
     c_bands:  3 eigenvalues not converged
     c_bands:  3 eigenvalues not converged
     c_bands:  5 eigenvalues not converged
     c_bands:  1 eigenvalues not converged
     c_bands:  2 eigenvalues not converged
     c_bands:  4 eigenvalues not converged
     c_bands:  2 eigenvalues not converged
     c_bands:  2 eigenvalues not converged
     c_bands:  1 eigenvalues not converged
     ethr =  1.00E-02,  avg # of iterations = 13.4

     total energy              =    -544.10810141 Ry
     Harris-Foulkes estimate   =   -1083.25898667 Ry
     estimated scf accuracy    <     649.16696825 Ry

[...]

     iteration #  4     ecut=    40.00 Ry     beta=0.70
     CG style diagonalization
     ethr =  1.00E-02,  avg # of iterations =  3.8

[...]

     End of self-consistent calculation

          k = 0.0000 0.0000 0.0000 (  2601 PWs)   bands (ev):

   -36.9878 -36.9783  -5.9609  -5.9609  -5.9609  -5.8282  -5.8282  -5.8282
    -0.9365   1.2779   1.2779   4.9952   4.9952   4.9952  13.1848  13.1848
    14.7406  16.6550  16.6550  16.6550  19.1990  19.1990  19.1990  21.8145
    21.8145  21.8145  21.9670  21.9670  21.9670  28.5283  28.5283  28.5283
    30.7534  30.7534  32.2183  32.2183  32.9201  32.9201  32.9201  33.9381
    33.9381  33.9381  33.9734  33.9734  33.9734  34.0062  34.8825  35.1172
    38.6438  38.6438  38.6438  40.1826  40.1826  42.4876  42.7430  42.7430
    42.7430  43.0769  43.0769  44.8948  44.8949  44.8948  46.1037  46.1038
    46.1039  47.7661

[...]

     the Fermi energy is    42.3727 ev

!    total energy              =    -915.28761838 Ry
     Harris-Foulkes estimate   =    -915.28763142 Ry
     estimated scf accuracy    <       0.00001561 Ry

     The total energy is the sum of the following terms:

     one-electron contribution =     182.47211112 Ry
     hartree contribution      =      64.07753646 Ry
     xc contribution           =    -114.93855372 Ry
     ewald contribution        =   -1046.61216188 Ry
     smearing contrib. (-TS)   =      -0.28655036 Ry

     convergence has been achieved in   9 iterations

     Forces acting on atoms (Ry/au):

[...]
        k(   46) = (   0.3635474  -0.4544343   0.1298384), wk =   0.0380952
        k(   47) = (   0.3635474  -0.4544343   0.2596767), wk =   0.0380952
        k(   48) = (   0.3635474  -0.4544343   0.3895151), wk =   0.0380952

[...]

     enthalpy old            =    -915.2876183797 Ry
     enthalpy new            =    -919.1443632832 Ry

     CASE: enthalpy_new < enthalpy_old

     small trust_radius: resetting bfgs history

     new trust radius        =       1.2724917936 bohr
     new conv_thr            =       0.0000010000 Ry

[...]

     negative rho (up, down):  0.522E-04 0.000E+00

[...]

     number of scf cycles    =   3
     number of bfgs steps    =   2

     enthalpy old            =    -919.1443632832 Ry
     enthalpy new            =    -917.9993775826 Ry

     CASE: enthalpy_new > enthalpy_old

     new trust radius        =       0.5689671220 bohr

     trust_radius < trust_radius_min

     resetting bfgs history

     Message from routine bfgs:
     history already reset at previous step: stopping
     new conv_thr            =       0.0000010000 Ry

     new unit-cell volume =   1039.08140 a.u.^3 (   153.97597 Ang^3 )

[...]

ATOMIC_POSITIONS (crystal)
Cr       0.000000000   0.500000000   0.250000000
Cr       0.000000000   0.500000000   0.750000000
Cr       0.500000000   0.750000000   0.000000000
Cr       0.500000000   0.250000000   0.000000000
Cr       0.750000000   0.000000000   0.500000000
Cr       0.250000000   0.000000000   0.500000000
Si       0.500000000   0.500000000   0.500000000
Si       0.000000000   0.000000000   0.000000000

     Writing output data file Prototype-La-cP8-Cr3Si.save
     NEW-OLD atomic charge density approx. for the potential
     NEW k-points:
        k(    1) = (   0.0000000   0.0000000   0.0000000), wk =   0.0095238
        k(    2) = (   0.0000000   0.0000000   0.1203743), wk =   0.0190476
        k(    3) = (   0.0000000   0.0000000   0.2407487), wk =   0.0190476
        k(    4) = (   0.0000000   0.0000000   0.3611230), wk =   0.0190476
        k(    5) = (   0.0000000   0.1404367   0.0000000), wk =   0.0190476
        k(    6) = (   0.0000000   0.1404367   0.1203743), wk =   0.0380952
        k(    7) = (   0.0000000   0.1404367   0.2407487), wk =   0.0380952
        k(    8) = (   0.0000000   0.1404367   0.3611230), wk =   0.0380952
        k(    9) = (   0.0000000   0.2808735   0.0000000), wk =   0.0190476
        k(   10) = (   0.0000000   0.2808735   0.1203743), wk =   0.0380952
        k(   11) = (   0.0000000   0.2808735   0.2407487), wk =   0.0380952
        k(   12) = (   0.0000000   0.2808735   0.3611230), wk =   0.0380952
        k(   13) = (   0.0000000  -0.4213102   0.0000000), wk =   0.0095238
        k(   14) = (   0.0000000  -0.4213102   0.1203743), wk =   0.0190476
        k(   15) = (   0.0000000  -0.4213102   0.2407487), wk =   0.0190476
        k(   16) = (   0.0000000  -0.4213102   0.3611230), wk =   0.0190476
        k(   17) = (   0.1685241   0.0000000   0.0000000), wk =   0.0190476
        k(   18) = (   0.1685241   0.0000000   0.1203743), wk =   0.0380952
        k(   19) = (   0.1685241   0.0000000   0.2407487), wk =   0.0380952
        k(   20) = (   0.1685241   0.0000000   0.3611230), wk =   0.0380952
        k(   21) = (   0.1685241   0.1404367   0.0000000), wk =   0.0380952
        k(   22) = (   0.1685241   0.1404367   0.1203743), wk =   0.0761905
        k(   23) = (   0.1685241   0.1404367   0.2407487), wk =   0.0761905
        k(   24) = (   0.1685241   0.1404367   0.3611230), wk =   0.0761905
        k(   25) = (   0.1685241   0.2808735   0.0000000), wk =   0.0380952
        k(   26) = (   0.1685241   0.2808735   0.1203743), wk =   0.0761905
        k(   27) = (   0.1685241   0.2808735   0.2407487), wk =   0.0761905
        k(   28) = (   0.1685241   0.2808735   0.3611230), wk =   0.0761905
        k(   29) = (   0.1685241  -0.4213102   0.0000000), wk =   0.0190476
        k(   30) = (   0.1685241  -0.4213102   0.1203743), wk =   0.0380952
        k(   31) = (   0.1685241  -0.4213102   0.2407487), wk =   0.0380952
        k(   32) = (   0.1685241  -0.4213102   0.3611230), wk =   0.0380952
        k(   33) = (   0.3370481   0.0000000   0.0000000), wk =   0.0190476
        k(   34) = (   0.3370481   0.0000000   0.1203743), wk =   0.0380952
        k(   35) = (   0.3370481   0.0000000   0.2407487), wk =   0.0380952
        k(   36) = (   0.3370481   0.0000000   0.3611230), wk =   0.0380952
        k(   37) = (   0.3370481   0.1404367   0.0000000), wk =   0.0380952
        k(   38) = (   0.3370481   0.1404367   0.1203743), wk =   0.0761905
        k(   39) = (   0.3370481   0.1404367   0.2407487), wk =   0.0761905
        k(   40) = (   0.3370481   0.1404367   0.3611230), wk =   0.0761905
        k(   41) = (   0.3370481   0.2808735   0.0000000), wk =   0.0380952
        k(   42) = (   0.3370481   0.2808735   0.1203743), wk =   0.0761905
        k(   43) = (   0.3370481   0.2808735   0.2407487), wk =   0.0761905
        k(   44) = (   0.3370481   0.2808735   0.3611230), wk =   0.0761905
        k(   45) = (   0.3370481  -0.4213102   0.0000000), wk =   0.0190476
        k(   46) = (   0.3370481  -0.4213102   0.1203743), wk =   0.0380952
        k(   47) = (   0.3370481  -0.4213102   0.2407487), wk =   0.0380952
        k(   48) = (   0.3370481  -0.4213102   0.3611230), wk =   0.0380952

[...]

     The maximum number of steps has been reached.

     End of BFGS Geometry Optimization
Begin final coordinates
     new unit-cell volume =   1039.08140 a.u.^3 (   153.97597 Ang^3 )

CELL_PARAMETERS (alat=  8.53457320)
   1.186774071   0.000000000   0.000000000
   0.000000000   1.186774071   0.000000000
   0.000000000   0.000000000   1.186774071

ATOMIC_POSITIONS (crystal)
Cr       0.000000000   0.500000000   0.250000000
Cr       0.000000000   0.500000000   0.750000000
Cr       0.500000000   0.750000000   0.000000000
Cr       0.500000000   0.250000000   0.000000000
Cr       0.750000000   0.000000000   0.500000000
Cr       0.250000000   0.000000000   0.500000000
Si       0.500000000   0.500000000   0.500000000
Si       0.000000000   0.000000000   0.000000000
End final coordinates

     A final scf calculation at the relaxed structure.
     The G-vectors are recalculated for the final unit cell
     Results may differ from those at the preceding step.

     bravais-lattice index     =            0
     lattice parameter (alat)  =       8.5346  a.u.
     unit-cell volume          =    1039.0814 (a.u.)^3
     number of atoms/cell      =            8
     number of atomic types    =            2
     number of electrons       =       110.00
     number of Kohn-Sham states=           66
     kinetic-energy cutoff     =      40.0000  Ry
     charge density cutoff     =     160.0000  Ry
     convergence threshold     =      1.0E-06
     mixing beta               =       0.7000
     number of iterations used =            8  plain     mixing
     Exchange-correlation      = SLA-PZ-NOGX-NOGC ( 1 1 0 0 0)
     EXX-fraction              =        0.00

     celldm(1)=   8.534573  celldm(2)=   0.000000  celldm(3)=   0.000000
     celldm(4)=   0.000000  celldm(5)=   0.000000  celldm(6)=   0.000000

     crystal axes: (cart. coord. in units of alat)
               a(1) = (   1.186774   0.000000   0.000000 )
               a(2) = (   0.000000   1.186774   0.000000 )
               a(3) = (   0.000000   0.000000   1.186774 )

     reciprocal axes: (cart. coord. in units 2 pi/alat)
               b(1) = (  0.842620  0.000000  0.000000 )
               b(2) = (  0.000000  0.842620  0.000000 )
               b(3) = (  0.000000  0.000000  0.842620 )

     PseudoPot. # 1 for Ce read from file:
     /home/jld5415/pp.La/Ce.UPF
     MD5 check sum: 44451aa79a44a00cf2bc029dc19922f6
     Pseudo is Norm-conserving, Zval = 12.0
     Generated in analytical, separable form
     Using radial grid of 1255 points,  6 beta functions with:
                l(1) =   0
                l(2) =   0
                l(3) =   1
                l(4) =   1
                l(5) =   2
                l(6) =   3

     PseudoPot. # 2 for Tb read from file:
     /home/jld5415/pp.La/Tb.UPF
     MD5 check sum: 3d6088a3f0cf7fd2e110c43f7f8e95c2
     Pseudo is Norm-conserving, Zval = 19.0
     Generated in analytical, separable form
     Using radial grid of 1263 points,  6 beta functions with:
                l(1) =   0
                l(2) =   0
                l(3) =   1
                l(4) =   1
                l(5) =   2
                l(6) =   3

     atomic species   valence    mass     pseudopotential
        Cr            12.00    51.99610     Ce( 1.00)
        Si            19.00    28.08550     Tb( 1.00)

     48 Sym. Ops., with inversion, found (24 have fractional translation)

   Cartesian axes

     site n.     atom                  positions (alat units)
         1           Cr  tau(   1) = (   0.0000000   0.5933870   0.2966935  )
         2           Cr  tau(   2) = (   0.0000000   0.5933870   0.8900806  )
         3           Cr  tau(   3) = (   0.5933870   0.8900806   0.0000000  )
         4           Cr  tau(   4) = (   0.5933870   0.2966935   0.0000000  )
         5           Cr  tau(   5) = (   0.8900806   0.0000000   0.5933870  )
         6           Cr  tau(   6) = (   0.2966935   0.0000000   0.5933870  )
         7           Si  tau(   7) = (   0.5933870   0.5933870   0.5933870  )
         8           Si  tau(   8) = (   0.0000000   0.0000000   0.0000000  )

     number of k points=    48  gaussian smearing, width (Ry)=  0.1000
                       cart. coord. in units 2pi/alat
        k(    1) = (   0.0000000   0.0000000   0.0000000), wk =   0.0095238
        k(    2) = (   0.0000000   0.0000000   0.1203743), wk =   0.0190476
        k(    3) = (   0.0000000   0.0000000   0.2407487), wk =   0.0190476
        k(    4) = (   0.0000000   0.0000000   0.3611230), wk =   0.0190476
        k(    5) = (   0.0000000   0.1404367   0.0000000), wk =   0.0190476
        k(    6) = (   0.0000000   0.1404367   0.1203743), wk =   0.0380952
        k(    7) = (   0.0000000   0.1404367   0.2407487), wk =   0.0380952
        k(    8) = (   0.0000000   0.1404367   0.3611230), wk =   0.0380952
        k(    9) = (   0.0000000   0.2808735   0.0000000), wk =   0.0190476
        k(   10) = (   0.0000000   0.2808735   0.1203743), wk =   0.0380952
        k(   11) = (   0.0000000   0.2808735   0.2407487), wk =   0.0380952
        k(   12) = (   0.0000000   0.2808735   0.3611230), wk =   0.0380952
        k(   13) = (   0.0000000  -0.4213102   0.0000000), wk =   0.0095238
        k(   14) = (   0.0000000  -0.4213102   0.1203743), wk =   0.0190476
        k(   15) = (   0.0000000  -0.4213102   0.2407487), wk =   0.0190476
        k(   16) = (   0.0000000  -0.4213102   0.3611230), wk =   0.0190476
        k(   17) = (   0.1685241   0.0000000   0.0000000), wk =   0.0190476
        k(   18) = (   0.1685241   0.0000000   0.1203743), wk =   0.0380952
        k(   19) = (   0.1685241   0.0000000   0.2407487), wk =   0.0380952
        k(   20) = (   0.1685241   0.0000000   0.3611230), wk =   0.0380952
        k(   21) = (   0.1685241   0.1404367   0.0000000), wk =   0.0380952
        k(   22) = (   0.1685241   0.1404367   0.1203743), wk =   0.0761905
        k(   23) = (   0.1685241   0.1404367   0.2407487), wk =   0.0761905
        k(   24) = (   0.1685241   0.1404367   0.3611230), wk =   0.0761905
        k(   25) = (   0.1685241   0.2808735   0.0000000), wk =   0.0380952
        k(   26) = (   0.1685241   0.2808735   0.1203743), wk =   0.0761905
        k(   27) = (   0.1685241   0.2808735   0.2407487), wk =   0.0761905
        k(   28) = (   0.1685241   0.2808735   0.3611230), wk =   0.0761905
        k(   29) = (   0.1685241  -0.4213102   0.0000000), wk =   0.0190476
        k(   30) = (   0.1685241  -0.4213102   0.1203743), wk =   0.0380952
        k(   31) = (   0.1685241  -0.4213102   0.2407487), wk =   0.0380952
        k(   32) = (   0.1685241  -0.4213102   0.3611230), wk =   0.0380952
        k(   33) = (   0.3370481   0.0000000   0.0000000), wk =   0.0190476
        k(   34) = (   0.3370481   0.0000000   0.1203743), wk =   0.0380952
        k(   35) = (   0.3370481   0.0000000   0.2407487), wk =   0.0380952
        k(   36) = (   0.3370481   0.0000000   0.3611230), wk =   0.0380952
        k(   37) = (   0.3370481   0.1404367   0.0000000), wk =   0.0380952
        k(   38) = (   0.3370481   0.1404367   0.1203743), wk =   0.0761905
        k(   39) = (   0.3370481   0.1404367   0.2407487), wk =   0.0761905
        k(   40) = (   0.3370481   0.1404367   0.3611230), wk =   0.0761905
        k(   41) = (   0.3370481   0.2808735   0.0000000), wk =   0.0380952
        k(   42) = (   0.3370481   0.2808735   0.1203743), wk =   0.0761905
        k(   43) = (   0.3370481   0.2808735   0.2407487), wk =   0.0761905
        k(   44) = (   0.3370481   0.2808735   0.3611230), wk =   0.0761905
        k(   45) = (   0.3370481  -0.4213102   0.0000000), wk =   0.0190476
        k(   46) = (   0.3370481  -0.4213102   0.1203743), wk =   0.0380952
        k(   47) = (   0.3370481  -0.4213102   0.2407487), wk =   0.0380952
        k(   48) = (   0.3370481  -0.4213102   0.3611230), wk =   0.0380952

     Largest allocated arrays     est. size (Mb)     dimensions
     Largest temporary arrays     est. size (Mb)     dimensions

     Initial potential from superposition of free atoms

     Starting from uniform charge
     Starting wfc are    0 randomized atomic wfcs

     Writing output data file Prototype-La-cP8-Cr3Si.save

     Self-consistent Calculation

[...]

     iteration # 12     ecut=    40.00 Ry     beta=0.70
     CG style diagonalization
     c_bands:  2 eigenvalues not converged
     c_bands:  1 eigenvalues not converged
     c_bands:  2 eigenvalues not converged
     ethr =  6.34E-06,  avg # of iterations =  3.8

     negative rho (up, down):  0.328E-04 0.000E+00

[...]

     total energy              =    -921.67234204 Ry
     Harris-Foulkes estimate   =    -921.67234407 Ry
     estimated scf accuracy    <       0.00000366 Ry

     iteration # 22     ecut=    40.00 Ry     beta=0.70
     CG style diagonalization
     ethr =  3.32E-09,  avg # of iterations =  3.9

     End of self-consistent calculation

[...]

          k = 0.3370-0.4213 0.3611 (  4454 PWs)   bands (ev):

   -51.8019 -51.8018 -20.1928 -20.1926 -20.1893 -20.1893 -20.1834 -20.1833
   -13.4747 -13.4342 -13.2896 -13.2865 -13.1485 -13.1012   3.1861   3.3564
     3.4254   3.4674   3.8882   3.8993   4.2629   4.3438   4.7785   4.8212
     4.9756   4.9973   5.1963   5.2060   5.2844   5.2966   5.3027   5.3742
    16.9854  16.9952  17.0830  17.0957  17.2148  17.2857  17.3327  17.3363
    17.3635  17.3724  20.7253  20.7268  21.7889  21.8043  22.3049  22.4641
    22.5687  22.5778  23.8532  23.8904  24.1917  24.2004  24.3292  24.3836
    25.8415  25.8798  26.2499  26.2888  26.5008  26.8069  27.1771  27.2186
    28.1144  28.1764

     the Fermi energy is    24.3669 ev

!    total energy              =    -921.67234335 Ry
     Harris-Foulkes estimate   =    -921.67234385 Ry
     estimated scf accuracy    <       0.00000053 Ry

     The total energy is the sum of the following terms:

     one-electron contribution =     -40.22113206 Ry
     hartree contribution      =     107.99443856 Ry
     xc contribution           =    -107.07799829 Ry
     ewald contribution        =    -881.89672120 Ry
     smearing contrib. (-TS)   =      -0.47093036 Ry

     convergence has been achieved in  22 iterations

     Forces acting on atoms (Ry/au):

     atom    1 type  1   force =     0.00000000    0.00000000    0.00000000
     atom    2 type  1   force =     0.00000000    0.00000000    0.00000000
     atom    3 type  1   force =     0.00000000    0.00000000    0.00000000
     atom    4 type  1   force =     0.00000000    0.00000000    0.00000000
     atom    5 type  1   force =     0.00000000    0.00000000    0.00000000
     atom    6 type  1   force =     0.00000000    0.00000000    0.00000000
     atom    7 type  2   force =     0.00000000    0.00000000    0.00000000
     atom    8 type  2   force =     0.00000000    0.00000000    0.00000000

     Total force =     0.000000     Total SCF correction =     0.000000

     entering subroutine stress ...

          total   stress  (Ry/bohr**3)                   (kbar)     P=  503.60
   0.00342337   0.00000000   0.00000000        503.60      0.00      0.00
   0.00000000   0.00342337   0.00000000          0.00    503.60      0.00
   0.00000000   0.00000000   0.00342337          0.00      0.00    503.60

     Writing output data file Prototype-La-cP8-Cr3Si.save

     General routines

     Parallel routines

   This run was terminated on:   1: 2:55  22Mar2018

   JOB DONE.